p cnf 100 425
18 -94 -24 0
-19 42 -76 0
3 -11 -38 0
41 -82 -100 0
-75 -68 54 0
-90 44 -42 0
100 50 -62 0
-19 -86 -25 0
6 -7 86 0
-44 78 -22 0
-49 -43 35 0
19 -41 -34 0
46 48 29 0
-10 100 24 0
-35 54 47 0
33 55 76 0
32 -26 99 0
55 -30 -43 0
61 23 -82 0
47 60 -70 0
31 -42 -71 0
64 70 -54 0
-81 -2 -11 0
-16 -79 71 0
-91 -92 -22 0
56 -13 73 0
96 -18 36 0
97 -90 30 0
18 -5 70 0
-66 -57 -88 0
57 33 -55 0
87 -40 69 0
30 66 -43 0
75 53 -27 0
63 23 -40 0
53 100 -78 0
-96 13 -99 0
-100 18 -86 0
-66 44 -64 0
25 73 -40 0
88 62 -4 0
-30 -13 59 0
98 -36 49 0
37 26 72 0
14 34 82 0
-99 68 89 0
-88 -22 7 0
70 4 35 0
48 -4 -98 0
-42 -5 79 0
-17 -34 -26 0
-100 41 -16 0
42 12 -45 0
6 -97 35 0
-77 61 -42 0
-47 -79 -46 0
59 7 -8 0
-34 -75 29 0
-89 -47 -61 0
-85 81 -29 0
-62 -71 5 0
-92 58 14 0
77 -41 -93 0
-79 -15 -91 0
-11 -18 -36 0
-12 87 -84 0
-81 47 -84 0
-40 -1 63 0
-17 3 90 0
-25 -21 14 0
76 19 69 0
75 66 -8 0
65 -43 95 0
32 -53 80 0
3 -77 -4 0
-17 -3 -97 0
85 74 -28 0
44 3 85 0
-21 -74 33 0
-36 39 -83 0
19 -69 -50 0
-72 82 -68 0
-7 76 -17 0
-17 -84 -45 0
30 -15 41 0
-25 -32 -36 0
-35 -85 30 0
18 -69 -3 0
-63 71 -25 0
-62 56 -72 0
-22 51 -67 0
-98 -42 -79 0
-31 20 86 0
-47 -31 20 0
-95 53 82 0
17 92 -29 0
-73 -74 -26 0
-29 -24 98 0
-28 -78 -13 0
14 3 -13 0
9 7 81 0
96 15 40 0
-100 -82 -51 0
-34 -65 -59 0
-88 73 72 0
85 18 -19 0
21 76 48 0
37 24 75 0
-88 -23 -38 0
52 -83 42 0
-19 -80 -10 0
78 58 -71 0
-14 62 -20 0
41 12 34 0
26 -9 35 0
-68 -89 -66 0
-91 4 -18 0
81 -12 -43 0
33 75 81 0
60 -30 82 0
-51 46 57 0
13 6 -36 0
19 -91 -100 0
-68 -61 -6 0
62 46 -67 0
-38 -14 -10 0
13 74 73 0
-20 -67 60 0
4 -2 -41 0
85 -98 -34 0
43 70 3 0
10 97 24 0
-14 -19 82 0
-90 57 -9 0
-73 -39 -8 0
82 -100 16 0
-48 15 34 0
82 26 56 0
55 -2 -50 0
-100 17 26 0
87 76 29 0
75 63 47 0
6 -68 88 0
19 -64 -93 0
-28 -79 -77 0
-44 -79 -46 0
-20 80 -15 0
16 -80 53 0
12 -47 -26 0
90 72 17 0
81 -89 -10 0
44 -31 -2 0
-94 71 -45 0
42 36 -40 0
-53 -73 -94 0
-50 -17 -11 0
65 -89 -25 0
-30 40 85 0
-76 14 33 0
71 -53 44 0
43 95 -71 0
26 75 29 0
-15 5 47 0
-45 -89 80 0
56 -78 39 0
-96 20 27 0
-47 88 -100 0
-75 66 72 0
-5 11 -10 0
61 -19 64 0
-12 36 -93 0
58 41 -45 0
31 -40 -37 0
50 64 83 0
-30 -20 -95 0
-45 -84 20 0
-61 58 1 0
61 86 93 0
-9 59 77 0
-79 90 49 0
21 -6 47 0
-68 -49 8 0
30 45 -64 0
-64 19 66 0
31 -34 13 0
78 -27 -69 0
-54 -84 -99 0
-22 -19 32 0
-5 -96 -13 0
24 -94 -82 0
90 41 -13 0
-89 92 38 0
20 64 -49 0
-52 96 44 0
20 -90 -74 0
65 58 71 0
-73 62 -19 0
-54 52 -93 0
16 -61 78 0
60 -88 68 0
-24 -52 -96 0
80 5 -62 0
-82 -71 45 0
12 81 -47 0
-16 32 -35 0
91 7 24 0
-68 -71 81 0
-84 -45 13 0
51 44 -34 0
27 -69 -21 0
81 17 -36 0
44 84 -15 0
-13 74 63 0
58 -64 -15 0
94 18 93 0
-86 44 1 0
44 6 59 0
-31 -35 90 0
58 73 -69 0
-73 -14 35 0
-18 -7 -66 0
-10 -33 47 0
38 82 85 0
-64 -47 -83 0
20 54 -30 0
-57 -40 7 0
39 29 6 0
-72 -89 -69 0
53 54 -37 0
35 -7 94 0
-67 -99 87 0
54 40 -61 0
45 -6 -84 0
10 40 79 0
-12 -39 -78 0
76 -91 -12 0
-72 70 22 0
-79 -92 44 0
21 -90 -38 0
-77 23 84 0
-46 22 60 0
69 22 67 0
-74 63 -20 0
33 58 -52 0
-99 -24 13 0
100 54 -98 0
-66 5 -86 0
-50 18 22 0
95 -15 -86 0
-99 -36 -18 0
-3 -30 63 0
-53 -28 -16 0
-100 13 -16 0
-13 -25 48 0
51 70 49 0
-81 -60 23 0
-54 26 1 0
41 55 -47 0
-98 -30 38 0
12 9 -41 0
74 72 19 0
24 62 -2 0
93 -83 -90 0
86 60 -61 0
29 -27 -72 0
-34 86 89 0
-41 46 -91 0
-46 -60 87 0
-33 -47 -79 0
-6 -79 91 0
21 16 -51 0
91 75 85 0
17 10 -58 0
66 -32 7 0
-8 47 -70 0
33 96 54 0
34 -96 -57 0
29 5 -85 0
87 30 -53 0
61 -12 -15 0
71 33 -13 0
17 -8 94 0
6 -24 -61 0
-44 -97 -25 0
-9 -45 -11 0
5 -81 35 0
-81 43 84 0
-44 91 -23 0
-27 -26 2 0
-54 -9 59 0
58 -29 55 0
-30 34 2 0
94 -48 30 0
35 73 -28 0
-49 2 18 0
100 41 91 0
-91 -69 100 0
-47 42 31 0
54 -7 -82 0
-47 97 -67 0
-77 12 1 0
76 -48 -43 0
-74 -80 8 0
73 95 -61 0
-36 12 62 0
47 -88 14 0
67 -78 55 0
-90 42 53 0
16 -36 31 0
-24 30 -32 0
33 95 23 0
-86 5 81 0
-52 7 4 0
-48 -62 -42 0
17 60 -98 0
61 -34 50 0
15 -28 -75 0
-98 -13 -53 0
35 81 -24 0
-32 42 1 0
-14 44 6 0
56 -12 -31 0
-48 25 -41 0
71 -33 75 0
-10 -39 46 0
-76 -13 38 0
-22 -18 70 0
16 7 10 0
-82 54 68 0
-81 96 -59 0
-74 -95 -55 0
-78 -69 -32 0
58 -68 -53 0
24 -80 -100 0
14 -82 -19 0
66 -70 13 0
-18 -84 -96 0
-76 -52 89 0
83 -51 -89 0
-71 10 -5 0
96 85 -26 0
-54 -11 -71 0
91 20 56 0
23 69 81 0
-63 34 -85 0
-4 -87 96 0
53 25 -66 0
72 51 50 0
-20 32 41 0
96 38 -22 0
1 -21 -31 0
32 -18 21 0
-58 41 24 0
-6 13 -73 0
12 32 -55 0
-81 -6 -42 0
-32 80 -18 0
42 83 -93 0
82 -89 39 0
23 30 2 0
-34 -32 -65 0
-13 3 -74 0
-16 -61 -44 0
-84 -47 80 0
-78 -72 -50 0
50 -84 -39 0
-86 53 -36 0
-41 -66 99 0
48 39 3 0
-8 4 -25 0
-32 17 3 0
29 -12 56 0
-96 59 49 0
-73 -26 13 0
-41 -99 25 0
58 -69 42 0
37 64 -62 0
-79 -35 47 0
68 78 81 0
-76 -90 93 0
24 -43 93 0
-91 2 -21 0
71 64 20 0
74 77 -34 0
46 63 -19 0
-48 81 -3 0
49 53 78 0
1 -25 77 0
88 1 83 0
-12 74 72 0
76 -24 64 0
-80 95 -48 0
-29 -36 86 0
95 -57 22 0
3 -24 -60 0
-87 -17 -19 0
-97 77 98 0
-42 -74 57 0
-3 8 -17 0
10 8 100 0
-94 51 27 0
-30 -6 19 0
66 84 -82 0
41 38 73 0
-23 -57 17 0
-82 78 -81 0
84 -12 -14 0
-54 3 99 0
15 12 -96 0
82 -69 -35 0
-100 34 -47 0
-40 -93 44 0
-28 75 17 0
-76 -97 -12 0
54 -3 90 0
-64 60 100 0
-47 88 -92 0
97 29 13 0
-29 64 86 0
84 92 -76 0
1 71 -84 0
95 11 -74 0
-44 85 -47 0
21 -30 -28 0
12 -82 44 0
