p cnf 200 730
-138 -20 -159 0
81 -61 -105 0
89 32 19 0
-19 90 -32 0
124 172 -183 0
178 60 16 0
172 -160 -173 0
71 -86 183 0
-194 -60 16 0
121 98 103 0
73 16 -173 0
182 193 9 0
-40 -24 172 0
-152 -94 -65 0
-26 60 -77 0
161 155 76 0
-69 115 -132 0
-39 43 108 0
53 80 127 0
39 130 28 0
161 -157 -69 0
104 136 94 0
-21 -195 105 0
179 63 97 0
16 -14 197 0
-13 -180 106 0
150 67 92 0
131 125 92 0
117 107 130 0
-68 25 92 0
-37 -86 123 0
-164 -125 113 0
-92 -99 61 0
154 -117 -70 0
115 160 -50 0
-173 -55 -48 0
16 43 -147 0
-54 -96 141 0
73 -185 24 0
-169 112 90 0
-85 56 57 0
9 175 195 0
-58 154 -68 0
-85 52 122 0
192 -61 48 0
-165 -136 -5 0
22 37 -142 0
-116 -156 38 0
-20 130 -139 0
166 36 24 0
-1 -81 52 0
-81 -167 46 0
30 -190 -49 0
-133 -23 183 0
151 -37 180 0
-67 47 186 0
44 61 9 0
-195 149 40 0
78 166 -14 0
-142 146 -194 0
-19 -31 24 0
-71 135 -100 0
126 -108 -9 0
-168 44 117 0
199 30 12 0
187 96 -91 0
-59 53 -73 0
-26 -41 -103 0
134 79 -162 0
-96 124 55 0
-148 133 74 0
-5 -31 111 0
128 121 146 0
-22 193 58 0
120 24 -108 0
16 30 136 0
-106 -91 -120 0
-130 -60 24 0
173 110 14 0
137 41 -152 0
-38 79 -130 0
49 157 -182 0
175 -24 198 0
-77 60 90 0
-132 69 -141 0
32 -184 -119 0
3 71 -125 0
-56 161 89 0
-83 -9 -87 0
12 -189 190 0
-38 144 -180 0
86 183 -44 0
-150 36 100 0
144 -168 53 0
26 36 -153 0
-27 134 111 0
-182 -17 8 0
-187 -89 178 0
-85 137 132 0
109 4 94 0
-117 -53 -34 0
163 -196 -147 0
-168 -38 186 0
32 -197 181 0
171 14 -71 0
90 -35 197 0
19 200 -190 0
197 153 139 0
-13 -36 192 0
-23 198 152 0
108 200 97 0
45 -11 -51 0
43 152 -107 0
-198 99 191 0
-3 100 65 0
-69 13 -71 0
84 172 -21 0
-89 48 49 0
78 21 -65 0
135 -121 -197 0
26 184 -82 0
26 -124 -198 0
-60 54 -43 0
101 -7 -59 0
107 -158 73 0
-166 -97 -199 0
-113 186 14 0
-9 -103 85 0
52 -109 33 0
-115 -48 -191 0
50 145 -111 0
-135 18 155 0
68 11 -79 0
186 111 -43 0
92 -131 88 0
82 -93 -29 0
129 23 -24 0
156 -20 102 0
-111 90 63 0
20 176 -110 0
5 -147 -156 0
144 -66 168 0
-143 -136 -163 0
85 159 -197 0
-168 172 133 0
105 -60 178 0
-57 -182 42 0
-72 -53 -86 0
-59 -130 -89 0
-19 -180 -54 0
-66 181 -178 0
-157 184 185 0
-14 -41 169 0
-64 136 143 0
145 75 -129 0
-68 -135 -56 0
-178 105 99 0
-58 69 99 0
-59 -106 1 0
-131 -162 5 0
142 26 102 0
-190 -181 -72 0
25 -140 -119 0
-77 85 5 0
73 -29 145 0
66 104 -127 0
142 171 -150 0
-188 127 125 0
-41 -193 183 0
30 40 88 0
166 -148 144 0
-28 94 -114 0
45 74 -140 0
-81 -44 -14 0
46 93 82 0
-80 -147 -34 0
104 62 152 0
18 -8 44 0
113 163 117 0
15 -158 18 0
-66 -125 116 0
61 161 -134 0
82 -6 65 0
-95 43 -189 0
9 -38 183 0
83 119 -16 0
106 -9 100 0
155 -193 98 0
-11 -129 -18 0
-82 -12 59 0
160 -104 197 0
-9 92 166 0
54 -69 102 0
151 162 140 0
-21 91 158 0
38 -20 79 0
170 -131 136 0
198 -136 -59 0
-166 5 -9 0
-89 80 11 0
170 -17 -110 0
-15 121 7 0
-36 35 -131 0
-126 22 -2 0
63 -14 39 0
-158 113 95 0
101 87 -131 0
-47 80 99 0
171 64 98 0
-42 -99 172 0
-66 -78 96 0
92 68 -74 0
-120 -48 -188 0
-72 -143 179 0
-14 -91 109 0
-36 24 46 0
-34 37 -123 0
-87 183 23 0
-6 -138 49 0
50 -183 184 0
-16 -115 -133 0
147 -177 -34 0
177 79 -26 0
186 -185 161 0
10 -135 -69 0
57 30 -172 0
-88 118 171 0
159 120 -155 0
68 -51 121 0
-164 -20 59 0
-115 200 -192 0
-136 114 -72 0
136 83 124 0
-165 197 37 0
87 141 194 0
-83 -99 181 0
170 30 -51 0
103 -156 183 0
191 -121 197 0
161 -11 -131 0
73 -127 18 0
-78 9 144 0
94 -151 -6 0
-60 -159 145 0
67 61 -110 0
15 -6 -137 0
118 80 48 0
-119 -43 -154 0
-115 -81 186 0
-48 171 170 0
101 -14 -36 0
62 -115 141 0
-13 -144 112 0
121 181 -189 0
-189 199 127 0
139 -28 151 0
40 -50 -10 0
-192 174 -6 0
135 -6 58 0
-87 -118 162 0
192 178 108 0
-65 -124 100 0
47 -129 -67 0
168 62 138 0
-155 97 -140 0
47 -195 95 0
110 -116 166 0
-84 -104 43 0
95 11 -186 0
-143 -99 117 0
181 51 -68 0
-133 -96 -164 0
-28 -18 -118 0
7 -142 19 0
-191 163 131 0
171 -141 -83 0
-56 42 -64 0
-169 167 40 0
187 -181 -12 0
-29 74 -168 0
57 149 19 0
116 -51 188 0
-29 -149 -16 0
198 8 -53 0
-120 57 167 0
117 108 164 0
-28 58 164 0
-148 -142 165 0
81 -96 184 0
-139 -147 -189 0
92 88 93 0
113 -155 152 0
167 21 110 0
178 -1 -150 0
139 102 -40 0
41 85 -96 0
-45 -60 -64 0
-191 -31 182 0
-175 107 -53 0
-18 -54 55 0
-5 97 107 0
176 123 -38 0
127 -93 119 0
147 148 -8 0
138 -70 135 0
99 -103 44 0
-127 171 74 0
-159 109 59 0
117 8 -200 0
-47 146 -187 0
-13 152 14 0
120 -157 40 0
9 -136 -181 0
-200 109 88 0
103 -3 -15 0
83 -155 -125 0
63 -40 -34 0
-146 100 170 0
150 158 102 0
17 -152 41 0
-122 191 164 0
-168 -189 -118 0
-31 -154 161 0
49 -61 29 0
142 -113 -136 0
-188 88 49 0
-199 -74 87 0
151 -109 -135 0
199 29 37 0
110 73 -86 0
12 59 153 0
-179 170 -144 0
49 -41 96 0
-99 -64 -86 0
-168 -174 143 0
92 195 -110 0
94 -181 64 0
-178 -145 87 0
-178 141 -13 0
-162 -157 -9 0
143 -145 151 0
38 76 97 0
-137 -156 46 0
91 -54 115 0
10 -139 21 0
45 -112 -110 0
-144 4 -128 0
-180 32 -130 0
79 -134 -59 0
-162 -7 42 0
106 -89 -115 0
103 -3 5 0
75 61 82 0
-74 128 70 0
6 188 24 0
168 110 23 0
86 137 -157 0
136 10 87 0
-118 -101 -73 0
-27 188 157 0
170 43 -17 0
22 -178 192 0
-76 -40 -54 0
-80 -58 181 0
124 84 187 0
-109 -163 -61 0
103 -70 114 0
73 191 61 0
149 -34 -16 0
-33 45 -110 0
-73 -48 -88 0
127 -22 -173 0
160 154 67 0
172 -51 -63 0
152 39 180 0
76 -120 140 0
-129 198 187 0
-124 195 23 0
93 -101 -143 0
98 112 -155 0
-20 153 132 0
54 74 41 0
184 -183 -194 0
-189 109 100 0
-102 -125 -195 0
76 -117 142 0
-45 -83 -104 0
77 40 -50 0
56 170 54 0
-63 -83 -27 0
-13 -69 193 0
-11 -63 190 0
-138 137 177 0
172 -196 -36 0
115 96 124 0
42 -89 75 0
189 -130 -164 0
-73 129 77 0
170 -35 -173 0
68 -36 -104 0
13 -119 52 0
-20 -52 -98 0
44 95 -42 0
8 50 -152 0
24 -131 84 0
140 -18 48 0
-83 -25 -131 0
29 198 -190 0
54 -178 191 0
162 -199 100 0
-159 52 5 0
3 107 86 0
189 182 -174 0
104 -132 -5 0
107 20 -5 0
-197 -141 -86 0
172 177 171 0
-70 -102 -135 0
-87 140 -112 0
-178 200 -80 0
50 102 -187 0
-151 -59 -80 0
45 183 151 0
14 -76 68 0
-58 106 -6 0
-32 193 -86 0
30 -76 -52 0
29 -35 -190 0
-67 107 -51 0
-19 -68 26 0
44 -23 -197 0
157 -46 -119 0
-196 164 92 0
-197 99 -1 0
-28 154 -199 0
106 68 -92 0
-93 -197 -121 0
-117 150 -183 0
164 -61 -108 0
70 176 -18 0
-124 105 147 0
200 -105 -48 0
7 -120 -54 0
-152 25 155 0
1 -118 44 0
120 -121 -154 0
-173 116 38 0
138 -194 76 0
-42 6 -170 0
-101 -157 107 0
150 -53 155 0
94 162 -156 0
109 -75 -135 0
-24 -83 -57 0
18 -6 72 0
1 96 118 0
-86 -28 -135 0
178 -58 63 0
185 55 62 0
81 80 189 0
41 -61 117 0
-164 170 121 0
195 -140 14 0
154 124 -12 0
-12 -71 110 0
21 73 15 0
-51 -165 -58 0
-193 54 -12 0
113 16 -65 0
22 -61 -156 0
105 -30 42 0
-171 -140 172 0
121 -22 -65 0
180 90 -167 0
-49 -181 -40 0
-14 -159 -2 0
-118 41 -36 0
-119 82 -74 0
-93 -13 -1 0
152 -79 2 0
65 -9 77 0
-27 -140 -64 0
-168 192 185 0
139 -184 -154 0
-181 33 -157 0
-185 -136 -28 0
164 23 -68 0
-174 -199 -169 0
-177 38 188 0
24 25 -106 0
-115 162 151 0
-144 61 58 0
38 62 -51 0
163 110 13 0
124 -65 -140 0
131 166 176 0
-39 92 200 0
-71 -115 -29 0
188 -68 -48 0
178 -138 -70 0
57 -83 -170 0
162 16 20 0
40 -158 29 0
-60 190 -122 0
39 86 -170 0
94 77 142 0
-123 76 -180 0
29 -62 81 0
-93 17 116 0
-125 -143 127 0
10 9 -139 0
-153 152 -40 0
25 -36 40 0
35 -79 -99 0
-21 -132 -102 0
-158 106 156 0
89 88 70 0
-153 49 66 0
-123 -29 -95 0
147 86 13 0
48 -105 34 0
-98 179 -92 0
-53 -97 162 0
-25 108 -117 0
-69 91 -57 0
-142 -172 48 0
-149 -100 -91 0
134 90 -191 0
98 77 180 0
-190 98 36 0
9 -30 -133 0
96 -153 -56 0
-140 141 -10 0
188 -110 -186 0
-12 181 4 0
44 -135 140 0
-12 190 -99 0
5 -126 119 0
167 -81 -31 0
141 -135 9 0
-53 47 20 0
186 -148 -167 0
-95 -60 -182 0
-41 196 -172 0
94 -180 -27 0
92 -87 -115 0
-136 139 -59 0
14 63 154 0
118 123 -81 0
13 146 -131 0
-181 186 193 0
68 -64 11 0
151 166 -117 0
-24 120 187 0
-84 -154 57 0
-144 165 110 0
-139 -35 120 0
35 1 -180 0
76 -158 40 0
189 19 115 0
-158 197 182 0
-150 -48 20 0
65 38 74 0
-148 -168 126 0
-33 -36 133 0
-132 12 -147 0
-195 136 -139 0
-194 51 -84 0
84 -64 104 0
113 73 -6 0
160 -146 58 0
62 -94 111 0
68 136 -94 0
-49 -174 -37 0
54 134 71 0
-143 -119 -11 0
-134 116 -48 0
46 -38 17 0
135 145 78 0
-38 -184 -23 0
14 112 88 0
-13 -27 199 0
-75 -8 -49 0
-28 166 109 0
-98 172 -82 0
-26 192 -61 0
-24 -69 75 0
-44 -130 -14 0
-101 -93 -34 0
88 -151 -17 0
-145 -34 33 0
-108 153 -66 0
-158 -17 110 0
13 197 -19 0
-187 113 -42 0
-49 -57 -135 0
190 62 -154 0
-171 179 155 0
-109 158 -176 0
26 -135 -58 0
-31 -2 182 0
175 180 -51 0
-118 -23 -78 0
-151 -70 61 0
-173 13 106 0
112 -89 166 0
-191 52 188 0
137 136 -187 0
53 107 61 0
-144 23 81 0
105 -188 96 0
46 -14 109 0
-117 177 14 0
-65 14 -29 0
-192 52 75 0
159 156 78 0
-152 178 -115 0
-185 -131 -182 0
-43 24 -166 0
-41 53 -56 0
199 -115 -55 0
160 -57 -129 0
-22 -186 -187 0
-111 143 -147 0
192 -138 -39 0
117 99 42 0
-125 -38 -29 0
-113 135 -50 0
84 94 -41 0
131 -173 -116 0
27 -5 45 0
105 -91 -83 0
-152 147 60 0
44 -90 -170 0
35 -49 177 0
-91 3 149 0
19 180 -108 0
81 51 -85 0
181 16 -111 0
-70 141 16 0
-13 18 36 0
-8 -67 -158 0
114 42 -179 0
1 -14 35 0
190 132 9 0
3 -20 38 0
179 101 98 0
-48 -29 39 0
116 94 -15 0
-28 60 22 0
-40 -102 -28 0
-10 -99 31 0
9 -45 -112 0
-125 -101 5 0
198 -186 -92 0
-3 51 -116 0
33 27 19 0
186 147 24 0
77 52 -17 0
120 -157 134 0
-41 153 -135 0
87 -179 144 0
-172 28 -1 0
26 181 -19 0
-164 -34 147 0
-6 -82 74 0
5 -184 -77 0
140 -186 -35 0
39 164 18 0
-168 -181 139 0
143 192 -64 0
-183 -47 69 0
29 95 -54 0
-59 -111 177 0
-59 166 -37 0
-103 86 -189 0
-69 -94 187 0
-38 4 115 0
-193 190 -82 0
91 84 -48 0
-20 140 -175 0
-121 -36 115 0
-128 -106 85 0
194 -94 -65 0
-30 -156 -42 0
80 174 30 0
-74 -190 -141 0
14 143 138 0
81 160 96 0
-55 115 108 0
21 112 -56 0
35 -89 97 0
-113 70 -177 0
-36 82 -93 0
160 -52 19 0
-141 -190 195 0
149 -170 119 0
77 57 -182 0
-95 -21 -34 0
-116 27 68 0
-48 102 19 0
-98 -196 155 0
63 -11 147 0
-150 40 90 0
15 -19 -16 0
193 57 91 0
-78 75 -23 0
150 -200 92 0
-33 -102 145 0
-54 -78 76 0
-170 -81 52 0
-145 -157 -51 0
17 55 180 0
-161 159 80 0
74 35 32 0
83 200 163 0
-196 146 -181 0
-28 -76 184 0
-178 -111 -30 0
-21 120 185 0
-77 133 121 0
-159 -79 57 0
-129 165 127 0
-160 110 35 0
56 181 -45 0
52 -25 -174 0
113 162 174 0
18 49 -107 0
189 105 -198 0
5 -100 120 0
