p cnf 200 490
-182 78 24 0
140 54 -194 0
132 27 24 0
89 -24 -75 0
152 -91 153 0
-193 19 -179 0
156 -186 -76 0
-109 64 -118 0
117 -161 149 0
-35 -178 1 0
-121 73 40 0
-34 1 95 0
-199 -10 -40 0
142 157 159 0
-87 94 10 0
190 -13 -137 0
-175 199 67 0
-87 -18 -101 0
142 33 -131 0
-65 -175 -192 0
61 -190 184 0
142 98 -155 0
181 -83 -177 0
98 165 13 0
199 -40 70 0
199 31 41 0
-168 -196 -165 0
-162 169 144 0
-196 -142 -135 0
32 -188 -48 0
87 99 65 0
187 -149 -27 0
102 2 -124 0
1 142 -197 0
-33 127 -170 0
-23 78 -53 0
-94 33 198 0
185 -137 90 0
-93 -17 -47 0
-80 168 192 0
14 118 -10 0
-60 -160 44 0
-100 -57 -114 0
-112 -200 -99 0
-100 -71 -14 0
30 22 -133 0
-127 57 108 0
-85 167 39 0
174 156 18 0
-135 184 -46 0
-26 49 132 0
-22 50 17 0
199 54 168 0
-59 -33 -93 0
146 28 -77 0
123 70 167 0
135 9 140 0
12 188 -126 0
-132 -159 183 0
189 150 113 0
113 -69 136 0
168 -131 -37 0
-33 159 138 0
-147 102 123 0
126 81 89 0
43 -63 -28 0
-7 -109 13 0
-54 -91 -11 0
-49 -118 177 0
-14 -28 -141 0
-146 -99 19 0
-199 -190 113 0
-36 -21 -115 0
128 -85 40 0
58 126 -166 0
-39 114 -45 0
-113 -72 -81 0
-177 -17 164 0
139 108 -200 0
155 11 -57 0
82 -48 196 0
122 134 -71 0
132 137 160 0
-187 -73 -118 0
191 123 75 0
139 26 -35 0
59 186 -86 0
51 -112 43 0
149 -51 -113 0
-165 -55 -47 0
72 -22 -129 0
135 -127 110 0
158 -194 -102 0
97 -105 -141 0
165 -77 -103 0
149 -134 142 0
97 60 -61 0
-137 152 -15 0
43 -196 -56 0
157 -158 200 0
25 124 188 0
-100 167 -54 0
57 -18 -104 0
169 134 177 0
124 -56 -17 0
-131 -97 -15 0
196 80 139 0
89 -110 -176 0
115 -118 -63 0
-143 -192 -40 0
59 85 -34 0
123 144 149 0
-98 -71 107 0
101 -188 -39 0
-198 -53 114 0
-188 -162 -104 0
196 -173 -77 0
164 -37 -131 0
155 -90 125 0
-89 33 189 0
-113 -166 125 0
-51 109 135 0
152 -168 -164 0
-65 48 20 0
94 180 188 0
35 -162 97 0
-96 -41 183 0
168 139 170 0
177 40 -174 0
65 -15 -6 0
-53 45 190 0
75 -64 121 0
23 -147 -16 0
-103 -54 156 0
-58 -134 -192 0
-181 64 -118 0
69 63 182 0
146 -93 -40 0
-94 -74 -188 0
-64 197 -142 0
103 -136 89 0
-49 -94 40 0
107 -36 -150 0
-93 -183 78 0
-36 99 -117 0
45 35 130 0
83 36 50 0
95 -164 -80 0
-127 -171 -158 0
88 73 114 0
191 53 100 0
-21 117 -163 0
-36 -12 68 0
-117 -72 -163 0
-146 58 152 0
-156 69 131 0
-91 -115 58 0
33 -172 26 0
-25 164 -75 0
-108 43 115 0
-158 -117 -52 0
14 -174 -1 0
122 -89 -8 0
-42 91 174 0
42 -66 71 0
-31 -75 -39 0
-152 11 -25 0
-190 -179 35 0
-63 -90 22 0
146 -117 -29 0
44 37 154 0
-8 102 185 0
69 -123 -147 0
-178 89 107 0
27 187 64 0
-86 -98 -113 0
-187 -54 -157 0
-196 -112 -176 0
10 -107 21 0
-101 141 128 0
-124 156 132 0
74 -94 -124 0
-54 -44 -88 0
-143 -114 10 0
49 167 -100 0
-91 -170 -36 0
106 189 185 0
-43 76 192 0
-85 -52 -136 0
-147 -134 -124 0
8 -78 -124 0
-3 73 -69 0
-119 -90 -52 0
-152 -4 -186 0
110 -171 93 0
68 105 -133 0
27 -150 -114 0
131 -155 168 0
85 -66 -47 0
28 -135 -106 0
-59 -116 51 0
45 77 169 0
-39 135 5 0
23 150 -30 0
174 74 195 0
71 147 13 0
-173 28 -3 0
197 70 -48 0
-48 -9 180 0
-143 -184 -23 0
-53 -49 162 0
168 -135 -90 0
101 161 130 0
103 -153 97 0
66 43 48 0
32 -83 193 0
-9 151 165 0
-105 -89 -121 0
187 -156 -149 0
-87 84 -171 0
-18 -86 188 0
-77 -177 -65 0
-96 161 -181 0
-41 -4 66 0
-200 93 -58 0
64 91 200 0
89 -18 122 0
-20 171 54 0
-18 75 182 0
74 -133 77 0
-25 -129 -79 0
-75 -48 47 0
105 80 78 0
-177 36 -10 0
24 71 -170 0
122 168 -166 0
81 29 16 0
-178 -104 -4 0
66 -30 135 0
125 45 26 0
42 147 181 0
119 -172 120 0
75 -161 169 0
200 -94 -35 0
112 -148 147 0
-9 15 134 0
61 -147 179 0
156 42 -95 0
5 35 -158 0
-167 60 17 0
-88 -11 40 0
-31 108 -192 0
125 -38 -138 0
146 59 -40 0
23 -31 82 0
-196 -168 87 0
-192 -197 -70 0
-121 -4 -148 0
-37 -88 79 0
64 62 -3 0
119 -177 130 0
128 12 58 0
-114 -185 33 0
11 9 -33 0
157 -171 -86 0
125 104 120 0
13 138 19 0
122 185 -178 0
-144 -166 123 0
153 -165 -124 0
24 -109 186 0
20 -154 -92 0
-58 174 -131 0
-200 124 -18 0
-57 -191 99 0
165 124 -108 0
-99 -110 126 0
-116 -75 126 0
124 -144 44 0
-11 -166 -41 0
-190 108 21 0
-15 -45 120 0
-118 20 -17 0
132 106 70 0
-134 85 30 0
20 49 -67 0
59 136 199 0
109 -74 179 0
-69 -51 -18 0
-82 -119 -164 0
-140 63 89 0
40 -126 188 0
-200 127 78 0
-91 -131 -126 0
-173 169 70 0
-16 129 -98 0
156 -175 127 0
62 64 -193 0
32 -143 -38 0
60 84 -99 0
56 19 30 0
-109 -149 -143 0
28 -144 20 0
180 -95 183 0
192 180 -63 0
-100 125 195 0
-109 60 -107 0
34 93 146 0
88 176 -51 0
-24 -170 86 0
-102 192 106 0
3 -73 -138 0
79 11 123 0
199 -116 -104 0
-42 -102 -144 0
-137 60 -93 0
43 -19 25 0
-71 129 -144 0
54 111 -1 0
107 92 154 0
19 62 -74 0
-189 -166 -145 0
67 -8 168 0
-119 3 -190 0
95 175 -124 0
-72 -11 12 0
-172 134 122 0
171 88 34 0
-147 51 -45 0
-31 -32 79 0
89 128 85 0
187 180 -30 0
-69 -4 -9 0
152 106 9 0
-113 117 -74 0
122 -100 55 0
196 -130 47 0
-13 -42 50 0
-42 -98 -68 0
-182 -23 155 0
105 -130 195 0
162 -134 97 0
-181 28 18 0
-149 5 -94 0
-183 177 -148 0
-61 -76 -26 0
114 32 -123 0
-11 -37 -23 0
196 106 12 0
-52 155 -200 0
182 -47 137 0
-46 -185 -64 0
-148 -63 128 0
31 -100 -200 0
46 -24 -132 0
-137 -39 190 0
173 129 142 0
37 -105 -103 0
-100 -58 112 0
-3 162 58 0
93 164 50 0
165 -23 -111 0
-117 -15 -3 0
-7 -157 155 0
88 -11 -98 0
83 26 -139 0
93 178 18 0
27 -147 -77 0
-184 98 -26 0
-35 151 142 0
13 120 162 0
-80 82 -178 0
-81 -186 -166 0
-61 150 81 0
162 118 -170 0
-99 97 26 0
14 -178 47 0
120 -110 124 0
92 -180 -123 0
-5 28 -108 0
-51 -151 46 0
-173 5 -129 0
170 118 -101 0
71 186 192 0
84 75 79 0
64 192 67 0
-120 -16 158 0
94 199 35 0
64 192 -191 0
16 24 126 0
-63 -138 70 0
111 164 -188 0
-113 -68 190 0
144 -20 52 0
33 151 -32 0
-109 72 196 0
189 -18 151 0
-185 174 191 0
151 -27 -154 0
-158 -30 200 0
4 137 172 0
57 199 -164 0
-139 -23 -173 0
-9 -25 139 0
93 -8 -183 0
-79 -43 -164 0
-17 -3 149 0
180 45 -30 0
-58 82 -24 0
-158 121 -168 0
192 73 -36 0
-37 -111 11 0
116 147 160 0
1 -14 142 0
-96 -126 -81 0
-177 140 -68 0
176 154 -8 0
167 -104 182 0
116 73 56 0
-50 128 -24 0
-152 -49 -126 0
189 94 99 0
94 121 33 0
-81 -9 171 0
-15 -11 -80 0
192 40 -159 0
195 -82 169 0
-194 57 28 0
-87 -167 176 0
-94 -160 -88 0
-66 188 17 0
154 -152 38 0
79 11 87 0
-63 -198 -89 0
81 171 -193 0
75 14 -25 0
-136 66 -148 0
-179 -169 -88 0
-184 150 -142 0
133 -187 77 0
130 137 125 0
122 32 -81 0
132 -174 145 0
-158 28 -33 0
-108 -172 -5 0
-132 -35 75 0
123 -15 -144 0
-13 172 -69 0
-131 -22 -29 0
-194 103 157 0
-191 64 -78 0
-183 43 71 0
-13 -155 79 0
170 96 166 0
102 173 157 0
-60 188 -150 0
-79 145 74 0
-78 -185 -16 0
40 79 64 0
196 -138 -180 0
-8 -109 142 0
-60 -105 24 0
-31 -134 167 0
54 144 185 0
78 -120 -165 0
114 159 -98 0
174 50 -68 0
107 9 -46 0
-181 92 171 0
48 67 179 0
183 -118 4 0
-159 62 199 0
145 9 -176 0
-113 134 -118 0
-184 -19 -76 0
139 -174 -106 0
-58 -199 -87 0
-169 197 170 0
-21 -183 -89 0
65 154 182 0
112 76 125 0
-89 -189 -167 0
-67 5 -17 0
58 -169 159 0
101 132 14 0
-130 189 -75 0
-133 -187 11 0
167 53 42 0
-140 -183 186 0
-164 139 92 0
