p cnf 1000 4950
-430 -719 -474 0
638 760 374 0
543 -293 -762 0
-253 232 820 0
57 225 732 0
-163 -339 221 0
-513 595 -429 0
10 -455 669 0
-110 -987 604 0
-851 -899 -443 0
-355 699 713 0
-465 -627 466 0
-263 -51 -995 0
799 -493 -243 0
-759 -138 120 0
38 -786 -993 0
-952 742 -499 0
-288 -642 -139 0
-782 -77 69 0
469 117 780 0
382 15 787 0
-67 -598 433 0
-370 -668 -789 0
-47 949 476 0
312 -750 -411 0
526 -448 722 0
426 -900 472 0
-730 -275 -307 0
361 -601 -122 0
387 489 -234 0
148 219 943 0
60 156 -311 0
529 663 755 0
-492 643 759 0
422 -126 -881 0
-231 959 723 0
-354 -531 -859 0
388 974 695 0
704 173 835 0
-173 770 -13 0
392 659 -918 0
-338 532 -439 0
-579 983 -793 0
-295 269 585 0
616 65 -836 0
-88 -300 165 0
337 -550 688 0
-715 535 -492 0
-262 386 191 0
892 -407 87 0
-665 -524 906 0
802 -568 464 0
-323 886 911 0
-567 79 -522 0
-510 -601 -711 0
927 981 -366 0
-391 137 831 0
532 572 616 0
-399 -358 671 0
706 733 268 0
-754 -519 478 0
-673 -104 -195 0
62 265 -474 0
597 -487 577 0
-451 -346 -172 0
941 -838 -31 0
-207 714 435 0
-467 -795 -187 0
665 -791 466 0
-187 937 198 0
-779 877 -713 0
-616 486 -901 0
245 858 456 0
-677 820 791 0
-802 726 -50 0
592 223 -925 0
162 814 -332 0
-91 830 -139 0
-279 556 317 0
882 -971 132 0
-455 551 720 0
480 -911 83 0
-570 940 -573 0
-105 82 446 0
864 -246 819 0
-942 -847 549 0
507 -245 966 0
560 928 -31 0
-432 -749 345 0
-26 106 -672 0
-262 766 -835 0
-351 -794 -951 0
296 -118 174 0
944 -901 -183 0
536 166 -708 0
754 -889 805 0
-553 -53 -196 0
510 -446 234 0
-279 -520 336 0
-866 968 -725 0
-2 156 230 0
176 -218 -486 0
-579 775 -134 0
-514 648 -161 0
848 355 751 0
-423 -666 805 0
535 -160 119 0
-798 -225 -391 0
-769 876 -835 0
696 55 296 0
853 299 -492 0
-543 755 55 0
353 854 250 0
-760 -893 -920 0
700 164 -553 0
-174 377 609 0
-461 -691 -594 0
-766 940 -124 0
966 -833 -849 0
-496 -652 -776 0
-197 -826 -969 0
530 344 -876 0
863 -135 865 0
-574 602 657 0
833 -760 -474 0
580 -119 -244 0
-302 -889 -835 0
-486 -535 -732 0
-40 -556 -967 0
-147 -30 183 0
565 270 -866 0
-603 -938 261 0
-391 85 262 0
221 216 -789 0
137 -118 149 0
-346 633 -585 0
986 -544 328 0
187 -608 874 0
237 729 -439 0
-911 45 759 0
-581 810 775 0
812 -182 -4 0
-17 82 369 0
537 -244 -246 0
183 206 -37 0
-956 -269 -748 0
-659 105 827 0
636 394 349 0
244 962 366 0
269 -107 19 0
796 -488 -816 0
346 -526 -733 0
976 -403 303 0
-420 -516 -708 0
130 512 -91 0
-901 14 269 0
852 933 -707 0
-891 1 195 0
931 -939 78 0
33 -977 -330 0
575 135 146 0
-851 106 725 0
333 -275 991 0
717 -720 -732 0
-376 -372 -173 0
-910 31 -782 0
757 -361 -746 0
-324 816 606 0
-582 175 738 0
-998 -130 856 0
-789 -162 -876 0
-834 -835 890 0
-830 -694 157 0
423 461 610 0
801 -419 198 0
623 -615 -76 0
500 -715 -242 0
777 -295 -472 0
434 240 -241 0
910 -731 -410 0
793 226 179 0
376 98 611 0
25 -56 388 0
-726 817 -590 0
-267 700 -196 0
63 -276 850 0
-725 -806 577 0
-591 -448 319 0
-50 -133 -942 0
-520 173 536 0
801 170 129 0
-427 -259 660 0
-389 824 -969 0
275 656 223 0
914 748 -123 0
-610 -802 -788 0
-266 666 -366 0
-100 -754 -998 0
287 938 250 0
-82 -86 -428 0
522 -440 -430 0
-902 533 599 0
572 825 -424 0
958 -742 431 0
-250 -129 -726 0
-263 -378 -479 0
-462 -500 515 0
851 841 787 0
916 -846 164 0
153 -547 -806 0
490 459 117 0
-153 178 -578 0
-273 951 504 0
226 -546 80 0
501 -207 -97 0
575 469 885 0
-929 945 741 0
870 -630 66 0
500 367 -444 0
-593 -483 -203 0
-559 -840 -996 0
482 -800 318 0
-367 -288 -111 0
-576 31 -891 0
370 101 644 0
205 135 935 0
846 -842 45 0
-143 620 -495 0
-968 644 -434 0
201 508 875 0
-210 -281 -35 0
-933 -148 -999 0
-57 810 501 0
947 212 -571 0
-760 -101 -946 0
-32 -57 -272 0
-963 -21 -98 0
-27 736 56 0
472 -786 785 0
267 164 -167 0
229 -594 496 0
-365 174 53 0
944 -139 917 0
391 -322 -521 0
923 468 -734 0
656 -13 514 0
-860 354 -899 0
-779 113 594 0
-124 522 964 0
537 -166 -58 0
776 -518 291 0
-3 -590 476 0
818 -73 316 0
351 -797 114 0
-396 -557 798 0
897 -573 -40 0
-760 653 -102 0
751 439 -998 0
289 -874 237 0
68 -337 -296 0
327 533 -583 0
-644 -646 694 0
-31 -377 -661 0
-744 -586 -597 0
-689 -336 -126 0
-924 190 18 0
-401 638 -356 0
295 418 40 0
563 790 -754 0
-216 878 -227 0
818 -937 614 0
455 -579 -724 0
-440 -267 -786 0
515 74 -716 0
624 660 610 0
-562 992 -737 0
-563 -321 155 0
-711 -9 594 0
-527 525 -929 0
664 221 355 0
-582 981 771 0
-111 -622 -677 0
591 -19 -873 0
271 -226 18 0
-161 849 -172 0
484 389 442 0
634 461 789 0
-99 -796 -602 0
-695 497 215 0
694 -492 272 0
12 932 -395 0
102 885 -993 0
219 -510 -645 0
59 874 -840 0
-921 -228 -315 0
139 -182 -910 0
-820 333 -892 0
-321 29 -649 0
-768 -66 319 0
-951 939 198 0
-734 -295 -438 0
-133 530 167 0
957 -466 224 0
925 42 -214 0
-167 -108 739 0
-174 -290 655 0
-699 487 -949 0
-601 395 -305 0
90 234 -960 0
604 -159 -153 0
412 -491 157 0
-373 -605 -752 0
-335 -393 943 0
402 -717 720 0
257 -519 298 0
-666 599 -960 0
-773 466 -508 0
-779 609 778 0
73 -767 281 0
295 905 -112 0
-330 -188 -772 0
-797 -977 -770 0
-189 140 705 0
777 -394 208 0
370 -861 -322 0
-95 -812 -815 0
47 308 -438 0
-364 -442 896 0
-609 -766 -142 0
568 -204 589 0
-502 987 733 0
499 -28 228 0
-330 -285 126 0
381 -189 792 0
-439 888 130 0
64 -482 -797 0
679 -526 290 0
993 -291 -653 0
-288 484 -167 0
599 716 324 0
431 -883 288 0
691 -195 368 0
645 310 -564 0
-605 -539 -185 0
-562 -958 -118 0
-387 997 269 0
275 965 -837 0
267 -963 -657 0
-579 167 -980 0
-585 157 227 0
-923 867 936 0
225 358 805 0
-452 167 -479 0
-148 695 138 0
-747 -272 43 0
-646 -570 -904 0
-739 750 -184 0
278 88 642 0
151 -234 318 0
401 -580 -874 0
484 -874 117 0
-273 464 310 0
-803 999 -136 0
-254 -932 -237 0
286 -511 -362 0
713 -66 141 0
66 857 -321 0
-219 -568 945 0
-94 485 -411 0
991 -674 -477 0
-419 227 757 0
-555 151 -781 0
755 875 -938 0
-149 -609 -504 0
-745 503 397 0
-608 541 -680 0
-703 -502 -511 0
357 316 603 0
259 -726 -931 0
505 313 -516 0
-559 -1000 494 0
-260 42 77 0
-822 927 772 0
974 -799 590 0
446 165 -84 0
-384 462 781 0
122 -376 908 0
-586 -469 -577 0
-18 764 -637 0
-697 -477 -768 0
977 429 -318 0
138 325 358 0
-680 -430 472 0
-421 96 857 0
-431 -81 14 0
-864 282 522 0
-112 -98 327 0
662 -298 820 0
-711 714 610 0
-728 536 -408 0
-464 865 -629 0
340 489 351 0
510 -968 -188 0
261 76 -831 0
78 -669 708 0
-11 575 393 0
-123 24 574 0
-903 310 -769 0
-13 -2 7 0
259 119 -611 0
353 629 484 0
-146 729 700 0
35 438 -916 0
628 567 144 0
-446 285 -124 0
288 375 945 0
307 116 58 0
129 456 845 0
-944 -25 349 0
180 910 194 0
648 -137 -823 0
760 250 735 0
416 802 -733 0
-356 384 -716 0
-658 -996 -931 0
406 740 771 0
-72 -851 205 0
-654 -68 324 0
-100 -50 204 0
226 895 650 0
-280 -717 399 0
255 296 -774 0
-870 604 -569 0
-61 660 -467 0
-411 -70 -558 0
368 -549 -310 0
613 -600 284 0
-132 687 -407 0
447 636 400 0
-435 614 -282 0
646 -596 910 0
554 -911 64 0
533 -604 597 0
886 642 727 0
503 -440 -464 0
-371 264 905 0
-181 -813 -798 0
-238 -567 -351 0
611 -810 -497 0
64 793 682 0
-178 -766 167 0
-203 58 -445 0
-875 -212 -571 0
950 -607 899 0
-425 195 523 0
-572 704 546 0
353 -855 838 0
881 -966 -767 0
-822 866 -499 0
207 757 210 0
-741 567 -960 0
507 -16 -431 0
927 -104 -950 0
-702 78 -760 0
909 -364 -790 0
-211 849 -664 0
-184 -462 35 0
218 -738 525 0
-515 -997 819 0
344 -184 105 0
-411 453 -537 0
313 -808 908 0
-487 -642 492 0
-988 -256 -790 0
341 -427 326 0
11 -92 176 0
374 575 -704 0
211 -664 -362 0
93 843 944 0
833 875 -502 0
426 810 -120 0
167 -236 -341 0
-799 -853 725 0
-832 18 266 0
286 -830 574 0
279 -295 -885 0
-518 -259 -224 0
-75 893 721 0
-701 -81 -880 0
137 -38 -755 0
451 -755 -57 0
308 502 -254 0
825 -461 422 0
-236 615 -303 0
591 -813 -205 0
-166 -966 445 0
191 643 -242 0
500 -499 944 0
-481 808 127 0
-262 426 -206 0
-910 -549 -81 0
97 642 -26 0
428 -391 -571 0
225 618 -998 0
588 322 -583 0
337 508 623 0
146 -666 -303 0
-865 899 -348 0
-427 132 989 0
102 210 -600 0
656 -247 -860 0
-81 947 697 0
-599 971 -718 0
-31 845 829 0
884 408 -508 0
-700 -400 71 0
852 -337 847 0
-605 932 -597 0
-654 105 585 0
-363 -299 -903 0
547 -167 983 0
262 404 -292 0
881 739 -630 0
-480 -689 257 0
670 -362 340 0
666 -575 -845 0
-106 456 -564 0
-47 798 -115 0
945 -540 599 0
200 623 -965 0
919 817 -401 0
-487 -235 -995 0
571 -263 532 0
769 -161 -832 0
585 560 -684 0
-399 -317 658 0
504 -122 -824 0
-130 -93 -434 0
990 -925 -339 0
-335 -495 397 0
-242 -466 -145 0
-377 -521 -106 0
-624 -973 -249 0
-758 -950 532 0
126 649 944 0
-818 226 553 0
631 732 -752 0
784 -390 -953 0
-906 -215 -249 0
950 883 90 0
491 -243 296 0
-549 -480 579 0
199 524 -209 0
-48 68 -599 0
-946 -922 848 0
-317 141 453 0
-125 -698 382 0
304 746 -571 0
489 506 -695 0
723 474 -456 0
425 110 -457 0
-465 213 -409 0
-774 -358 193 0
-626 -506 -378 0
-77 -664 -39 0
-848 678 474 0
855 -422 -584 0
-641 373 -801 0
861 405 431 0
3 -621 941 0
765 -909 -724 0
593 -886 910 0
722 -579 -851 0
868 731 -584 0
586 -926 -14 0
495 874 -917 0
-833 -351 -525 0
-689 -12 166 0
81 -450 234 0
917 259 -560 0
865 857 664 0
505 102 405 0
-476 315 -770 0
426 -370 -104 0
655 -789 -119 0
780 -898 363 0
415 862 -233 0
-206 -84 -450 0
-751 -37 -710 0
160 955 -927 0
-213 -239 111 0
-892 -35 -963 0
-625 -42 589 0
521 561 -173 0
369 86 316 0
-581 -583 246 0
231 -675 -32 0
-418 659 66 0
754 -248 -921 0
405 484 911 0
-768 568 468 0
-325 -622 -971 0
-73 639 -646 0
-790 -141 -348 0
-705 -720 445 0
-129 496 -317 0
753 885 -869 0
-965 324 -63 0
-183 900 912 0
-493 -299 -829 0
-511 -945 -317 0
-786 747 -492 0
-827 818 442 0
-503 926 -711 0
318 676 76 0
-397 -111 659 0
630 447 -861 0
-917 -692 -598 0
-337 321 -701 0
-569 -907 980 0
-281 190 87 0
605 502 -761 0
-31 756 -471 0
224 -386 -477 0
-584 -565 176 0
-183 -313 -984 0
-605 374 -334 0
-507 -473 -107 0
775 273 -257 0
523 -672 521 0
-78 425 -590 0
-869 -219 33 0
854 965 -499 0
-315 835 -638 0
-292 -350 43 0
778 452 690 0
637 -520 364 0
126 615 696 0
-491 -61 -327 0
-402 -906 -722 0
-90 554 -945 0
-585 504 -729 0
-245 -388 14 0
127 -286 -990 0
509 653 67 0
-385 -517 -346 0
910 -407 -28 0
-204 729 459 0
572 -143 611 0
949 -556 400 0
-957 630 -459 0
-911 -396 296 0
376 -293 769 0
-979 508 -739 0
382 740 -123 0
266 -207 -644 0
-717 980 242 0
417 680 -119 0
372 320 -598 0
-829 -538 520 0
-193 -452 106 0
290 631 -64 0
-600 773 575 0
-484 763 -162 0
400 822 -794 0
-134 -810 599 0
475 986 716 0
-385 -185 -794 0
-523 -419 -417 0
171 -172 23 0
89 671 -974 0
-409 14 -37 0
-582 -671 -356 0
974 656 321 0
-542 819 621 0
263 644 51 0
-584 -649 -942 0
413 174 775 0
-194 214 -504 0
-715 -359 -536 0
-140 -812 -154 0
44 -188 108 0
-901 427 554 0
-406 242 -545 0
-603 -781 615 0
230 -940 832 0
943 239 -142 0
-410 454 -694 0
-912 -921 691 0
424 -665 -358 0
-833 -716 498 0
356 -57 -817 0
-961 -576 89 0
-191 728 -128 0
-217 -599 -552 0
483 345 -109 0
-326 614 178 0
-247 239 99 0
304 578 -455 0
326 672 788 0
531 664 -25 0
241 -23 683 0
251 -674 -281 0
533 -166 -351 0
-749 -827 657 0
759 -554 839 0
-412 -533 225 0
-180 -902 425 0
979 -749 812 0
190 -877 948 0
139 -214 -36 0
-851 967 160 0
44 -952 868 0
-80 75 -66 0
380 124 21 0
-203 -241 217 0
-633 22 319 0
-988 -443 -936 0
-279 -460 -67 0
418 62 -595 0
266 -968 -848 0
-88 687 -911 0
593 283 -523 0
-241 845 437 0
312 -42 464 0
416 -685 -172 0
892 -845 783 0
193 447 -167 0
117 -420 -421 0
924 66 428 0
44 -561 -89 0
294 629 810 0
-880 47 -885 0
-482 -331 315 0
953 907 -746 0
-931 -998 -640 0
521 978 864 0
-669 -131 -514 0
554 -49 -103 0
-280 582 -778 0
14 713 -221 0
-307 -108 765 0
-929 712 -611 0
-119 -742 765 0
-912 164 -630 0
537 -888 -850 0
-785 681 160 0
-900 -971 75 0
-988 227 731 0
-580 -355 657 0
-513 -33 -251 0
649 459 317 0
-89 -767 -319 0
-951 984 -394 0
-60 733 -906 0
498 -953 255 0
643 117 -835 0
623 -853 -304 0
-847 -667 -426 0
520 93 -5 0
-807 301 128 0
-572 -857 -101 0
-515 704 880 0
-875 -543 -768 0
213 804 -921 0
319 884 797 0
462 -444 251 0
128 577 -225 0
231 398 852 0
171 213 720 0
-988 -225 66 0
-863 -292 574 0
465 -926 312 0
142 -387 433 0
-688 -950 689 0
852 -499 592 0
-324 982 480 0
339 665 517 0
416 -117 -624 0
464 536 809 0
-49 492 -212 0
-48 357 -848 0
794 314 876 0
-178 -278 -72 0
884 274 582 0
463 129 -508 0
-293 -952 509 0
526 -967 -543 0
-293 -467 453 0
-486 -844 -532 0
-870 823 -206 0
-61 -112 -101 0
357 688 337 0
-868 -265 -385 0
-421 677 -767 0
161 973 602 0
-771 -64 -257 0
309 -156 610 0
884 268 -935 0
925 137 -249 0
-905 562 75 0
-855 -124 841 0
99 -899 -473 0
-624 -485 161 0
-424 45 -63 0
-755 714 -395 0
227 262 201 0
75 -776 444 0
10 -52 157 0
235 97 407 0
996 -307 344 0
-565 471 -279 0
-206 -198 824 0
-971 -964 64 0
256 508 130 0
231 698 -7 0
306 573 986 0
404 253 810 0
21 -714 -7 0
-495 -836 -575 0
-587 -591 -618 0
154 -236 -927 0
-768 -519 889 0
-477 164 719 0
352 -992 -553 0
-681 -679 834 0
-382 288 -396 0
512 -1000 725 0
-834 315 -792 0
-862 763 18 0
77 -212 -89 0
139 -261 719 0
-338 690 861 0
-876 -338 58 0
499 554 504 0
937 625 -987 0
-386 -446 302 0
730 696 736 0
-11 -451 499 0
274 -860 -488 0
-600 -222 957 0
-769 230 987 0
-834 942 -632 0
-662 -852 -77 0
921 -556 -851 0
629 763 151 0
920 -377 -542 0
684 -238 956 0
989 529 936 0
-109 -337 -815 0
-172 216 -920 0
-796 758 613 0
989 573 395 0
881 -476 -457 0
695 294 -315 0
391 -991 142 0
-475 866 -202 0
156 -817 -824 0
-795 -457 876 0
820 -121 -912 0
-205 397 11 0
-240 -44 614 0
-407 926 -225 0
263 404 -725 0
-274 37 375 0
5 618 93 0
861 540 364 0
535 -861 -673 0
113 73 282 0
652 -202 531 0
-683 914 82 0
-990 694 -76 0
-24 426 664 0
-794 -943 -568 0
-144 378 -744 0
-273 602 741 0
271 -587 665 0
131 823 949 0
-90 257 225 0
559 -355 -232 0
-377 -803 909 0
548 -812 -398 0
-170 373 54 0
888 886 -984 0
693 256 -996 0
391 -321 339 0
-600 -795 881 0
-273 -110 -233 0
626 260 267 0
-257 -767 -599 0
-246 -516 -930 0
728 938 -33 0
-390 -351 -786 0
-356 -269 936 0
471 579 149 0
1000 -668 -237 0
780 985 251 0
772 171 -759 0
-789 -493 -499 0
-387 -796 -385 0
279 -191 -896 0
-660 -505 402 0
168 368 -558 0
-395 430 441 0
822 13 -53 0
376 106 43 0
-537 247 -1000 0
-587 -324 -251 0
884 344 -161 0
-634 346 -640 0
-16 267 848 0
-603 -825 365 0
314 669 353 0
131 464 408 0
-169 -562 394 0
215 -471 -285 0
-668 312 684 0
-164 494 801 0
-166 545 -824 0
85 304 986 0
-449 507 -370 0
314 664 -368 0
-715 400 -94 0
141 -937 45 0
943 -682 407 0
-629 -987 -329 0
-219 -446 -155 0
560 -417 -933 0
271 -224 -553 0
-772 800 -411 0
410 273 -340 0
609 -662 363 0
936 -807 478 0
-258 723 -445 0
78 -260 -478 0
252 -951 888 0
-297 838 788 0
888 202 -64 0
-502 -506 695 0
728 -281 -346 0
45 143 -884 0
-713 -652 352 0
-660 883 830 0
933 480 -49 0
-813 209 -35 0
234 -667 201 0
-328 -610 -976 0
-594 42 842 0
-738 -226 -731 0
-39 -467 -694 0
966 452 -988 0
874 106 309 0
374 673 -11 0
67 723 -304 0
-93 -726 468 0
-297 582 963 0
592 -436 134 0
587 -478 -638 0
689 417 -585 0
-232 -888 -529 0
783 -854 927 0
637 823 -594 0
949 -903 936 0
-639 977 746 0
776 597 546 0
434 -243 -755 0
858 -776 819 0
27 612 821 0
855 364 -884 0
607 419 458 0
805 -140 -138 0
55 -409 -631 0
-762 -931 -4 0
-189 179 678 0
423 886 102 0
-670 -531 112 0
-701 135 -110 0
-302 246 -141 0
-76 -619 260 0
618 984 326 0
-157 528 -593 0
524 298 -570 0
506 410 -635 0
-270 -930 -391 0
-246 89 18 0
847 -945 62 0
-759 -424 649 0
-101 -839 992 0
872 -317 -788 0
923 60 -703 0
485 -240 678 0
-824 803 -288 0
-407 -83 -530 0
-848 69 747 0
448 -454 -710 0
14 677 -362 0
124 602 -452 0
-871 -817 768 0
342 252 -973 0
709 -147 828 0
669 914 226 0
-426 233 -483 0
-603 165 708 0
872 -708 -440 0
746 -122 -339 0
195 -101 -685 0
-27 83 957 0
-346 -23 40 0
646 434 472 0
-693 935 -315 0
188 -566 -148 0
-87 -441 -792 0
-160 589 -2 0
-566 -542 172 0
801 799 655 0
-658 -259 113 0
608 122 -887 0
-26 -339 718 0
602 693 -863 0
969 -239 606 0
556 -618 -471 0
-524 815 -608 0
61 -28 365 0
-412 540 974 0
-829 684 -878 0
156 -901 393 0
-855 41 -771 0
971 595 -168 0
261 223 -318 0
-480 721 58 0
-390 164 782 0
932 -113 612 0
972 315 -447 0
1 -333 -383 0
-450 619 -101 0
423 -402 989 0
-518 807 454 0
996 861 956 0
-645 -430 314 0
940 335 -265 0
420 -13 9 0
-611 -812 -348 0
148 271 -836 0
-997 899 -113 0
-122 979 -835 0
-786 441 -181 0
-280 -414 161 0
-440 -926 -562 0
812 923 -285 0
873 564 -459 0
-729 -371 -511 0
-54 -133 -255 0
-764 -685 844 0
550 631 968 0
-361 -337 691 0
-833 91 -331 0
121 390 -194 0
801 -686 -196 0
549 -441 867 0
-118 824 838 0
17 319 625 0
630 -464 -563 0
511 195 828 0
767 131 -308 0
-711 120 -640 0
875 -758 -55 0
-273 444 -421 0
992 -983 957 0
967 -876 -533 0
705 -496 998 0
-893 892 435 0
-261 867 -390 0
503 -704 -517 0
-267 168 -689 0
-762 -656 -611 0
921 200 -132 0
159 -810 -354 0
293 528 48 0
-94 -993 383 0
946 84 -154 0
-571 552 -303 0
-959 -35 99 0
555 -414 140 0
-417 625 -316 0
-574 532 -183 0
-294 -741 750 0
-803 881 -783 0
-766 90 3 0
-931 -958 860 0
-960 -659 -697 0
46 -783 702 0
949 959 307 0
-631 247 915 0
-386 -849 -824 0
240 -406 -77 0
-887 227 -73 0
653 320 -665 0
61 -920 692 0
-356 145 -667 0
841 -922 870 0
-385 -726 312 0
-762 673 855 0
-894 -352 895 0
710 867 605 0
-631 -445 827 0
167 77 986 0
-487 1000 -924 0
576 50 514 0
530 942 -954 0
-709 370 -120 0
773 -745 183 0
542 339 -389 0
577 275 250 0
-170 59 715 0
145 -351 101 0
-946 984 -725 0
-364 77 -379 0
376 -793 830 0
4 -675 -48 0
-456 78 -778 0
-975 367 144 0
-294 -444 -908 0
953 -208 -740 0
-715 444 -574 0
666 -786 837 0
-739 -373 -630 0
448 572 85 0
-321 592 405 0
-122 -273 410 0
-779 -971 654 0
970 -302 75 0
-81 -73 -967 0
386 -66 -777 0
189 984 -163 0
-878 150 -379 0
-466 177 953 0
-875 656 635 0
425 701 -708 0
326 312 187 0
857 829 -778 0
670 -719 946 0
740 -922 911 0
-603 -521 -797 0
37 -485 786 0
-844 396 -811 0
-843 -630 313 0
-113 127 309 0
231 -129 450 0
447 -451 -231 0
700 630 611 0
-795 -474 -283 0
-480 -536 133 0
982 -573 -79 0
958 529 466 0
405 -68 785 0
995 -83 538 0
-121 253 879 0
-567 -165 273 0
288 -896 863 0
443 -141 671 0
-586 -380 -338 0
491 -612 -710 0
-175 -857 372 0
34 -510 391 0
-743 -768 377 0
-405 131 223 0
351 -390 53 0
-857 -109 192 0
750 428 -883 0
961 279 -274 0
727 -876 150 0
591 684 869 0
394 -491 579 0
353 -149 349 0
83 585 -646 0
-768 -411 -982 0
846 -588 -573 0
961 122 -105 0
-293 -314 -975 0
281 584 -297 0
494 100 137 0
-817 -255 -336 0
-71 -186 525 0
-850 782 988 0
136 729 -872 0
-113 -873 301 0
-530 -295 -184 0
-5 964 -468 0
-487 -417 -224 0
490 -489 515 0
-701 -241 -696 0
-183 997 811 0
-372 -405 552 0
309 291 -767 0
684 -254 -823 0
709 -95 47 0
275 -850 -75 0
319 -143 -209 0
564 503 339 0
-674 -957 -759 0
-882 814 -264 0
-863 777 224 0
3 336 326 0
-559 -60 -71 0
418 49 994 0
-39 -648 -186 0
308 563 -735 0
869 -620 871 0
-831 115 -138 0
-634 353 77 0
157 -974 489 0
-193 261 988 0
660 551 5 0
-395 588 954 0
288 629 -94 0
472 882 -845 0
654 541 753 0
407 934 648 0
-510 -716 945 0
-954 922 537 0
497 -136 -790 0
-771 489 412 0
883 -890 162 0
811 636 147 0
-5 -290 -46 0
765 -152 -737 0
-958 290 872 0
934 9 185 0
-830 173 -910 0
982 -707 956 0
526 -242 -222 0
713 895 -516 0
-825 -252 963 0
-465 -969 -632 0
-875 -951 -879 0
597 571 917 0
684 337 305 0
-582 -867 129 0
661 647 452 0
284 -780 -896 0
-680 -616 -68 0
-409 151 -321 0
322 -232 891 0
-481 -962 -662 0
274 -778 -124 0
-613 -914 -441 0
-363 -647 -789 0
147 692 -52 0
-793 -262 -717 0
-528 711 350 0
-384 -740 217 0
575 -582 465 0
-737 744 628 0
122 121 347 0
333 -991 -861 0
-360 422 693 0
-218 -817 655 0
-984 -210 -232 0
110 -996 722 0
466 601 -522 0
32 960 952 0
-959 -622 626 0
381 459 -960 0
567 -33 -267 0
-754 751 641 0
526 -833 831 0
-429 507 -839 0
360 758 -719 0
399 913 792 0
783 -7 -711 0
-698 -578 -780 0
-868 -64 569 0
519 740 851 0
465 -741 352 0
160 603 645 0
435 -451 51 0
-875 878 735 0
-193 729 -111 0
756 -309 -706 0
-457 -720 879 0
520 628 -394 0
872 520 -52 0
-982 -19 -970 0
-393 926 -8 0
845 424 -27 0
257 912 811 0
-926 -915 100 0
576 393 -395 0
-971 192 55 0
-85 835 37 0
271 -494 173 0
115 950 530 0
-595 132 -577 0
315 593 796 0
-23 805 -808 0
-666 -770 -103 0
625 -737 -31 0
-638 816 107 0
-558 990 778 0
-916 417 493 0
-932 898 215 0
209 1000 748 0
738 -994 -648 0
-313 -921 458 0
-770 349 735 0
720 -981 419 0
232 -560 304 0
427 537 -831 0
217 -742 -261 0
230 407 -998 0
-951 -763 -148 0
6 516 -976 0
425 -482 287 0
-882 -349 797 0
-40 -248 -998 0
-685 -141 191 0
321 -496 -608 0
-972 775 -782 0
715 938 70 0
-364 -198 -925 0
473 -130 786 0
-939 144 -382 0
696 764 445 0
976 857 119 0
-987 338 561 0
318 738 206 0
-989 -910 658 0
719 -152 170 0
-779 -243 554 0
666 -368 39 0
-219 -948 -473 0
-490 975 457 0
-299 -301 -70 0
-840 -979 327 0
180 -740 5 0
362 132 497 0
-264 -914 883 0
660 -924 -955 0
821 -939 -231 0
-807 658 428 0
-736 -800 833 0
-164 -237 252 0
-866 -247 -49 0
653 893 800 0
-314 -373 -992 0
-180 159 50 0
-394 182 -428 0
-839 906 738 0
-839 -740 -304 0
-69 -515 -186 0
-193 -667 355 0
562 -193 -100 0
961 -533 -153 0
726 811 -797 0
282 985 848 0
381 561 -419 0
-716 -332 -677 0
131 395 -214 0
511 270 111 0
734 507 -510 0
-949 -64 685 0
-804 -884 -416 0
316 -580 -222 0
663 378 -564 0
574 -829 -119 0
974 -470 -141 0
100 464 -446 0
-785 523 -209 0
-721 -453 -629 0
678 192 -224 0
72 -564 -228 0
-802 -453 339 0
-345 541 739 0
-317 -173 -468 0
17 322 615 0
599 -29 145 0
76 -191 -115 0
-37 -624 -539 0
396 -865 -972 0
576 -739 -533 0
-589 -748 -238 0
-116 351 369 0
906 -407 -404 0
8 -607 937 0
19 930 817 0
650 215 465 0
299 -418 -149 0
626 396 -493 0
-806 -181 379 0
-907 488 513 0
315 -356 334 0
-668 -663 227 0
-393 410 904 0
-491 -345 -750 0
-405 800 927 0
-566 -801 371 0
-640 45 -485 0
-789 -568 -796 0
-892 -338 -463 0
625 395 259 0
112 -403 688 0
764 964 143 0
-207 -714 826 0
762 -652 -467 0
-994 286 -284 0
-182 584 -675 0
145 121 -828 0
-75 -910 26 0
400 701 -847 0
-900 526 -652 0
595 288 -810 0
593 819 289 0
341 668 882 0
-474 -948 432 0
973 -41 348 0
-726 318 -679 0
-185 -961 257 0
584 -172 -602 0
839 -152 -736 0
-712 -292 544 0
815 65 -683 0
-801 -203 -982 0
977 721 405 0
-576 149 612 0
-604 535 -661 0
65 251 209 0
725 -6 -400 0
-755 -146 -419 0
675 902 759 0
238 391 774 0
-112 949 344 0
809 -617 -585 0
601 260 538 0
-700 366 -963 0
157 291 724 0
-876 -814 980 0
-563 832 761 0
834 -799 171 0
417 140 34 0
969 440 -112 0
-42 -910 -82 0
127 -590 43 0
97 103 374 0
372 -654 425 0
-803 185 -851 0
-259 -494 -471 0
981 -129 -757 0
-529 536 -356 0
-46 959 -63 0
30 496 -720 0
-854 -318 -880 0
-836 -559 -950 0
-28 -705 556 0
-705 -502 -71 0
42 86 -444 0
980 -751 182 0
-728 -679 85 0
-352 -414 693 0
-58 546 -862 0
-236 -406 219 0
251 -974 170 0
-183 -902 -39 0
854 354 571 0
933 -997 -53 0
383 569 -795 0
-79 -721 -808 0
-752 -150 137 0
973 6 -554 0
-167 -810 554 0
-189 -919 95 0
788 -792 762 0
768 -636 -789 0
-47 55 272 0
819 -614 323 0
-310 145 551 0
-921 610 328 0
-164 -244 704 0
327 -708 -286 0
-556 -393 -374 0
-617 -944 666 0
417 410 -863 0
126 -845 -733 0
595 -721 988 0
486 481 596 0
921 86 -417 0
845 -842 846 0
836 -561 470 0
-20 -115 268 0
914 -131 522 0
147 562 -322 0
240 -262 984 0
285 -810 661 0
519 -202 -113 0
435 421 390 0
-259 210 946 0
-802 -885 396 0
-264 832 -125 0
374 -134 73 0
880 954 722 0
922 299 -784 0
99 362 531 0
625 -19 842 0
-496 214 172 0
336 -149 -368 0
-527 -645 -565 0
499 249 988 0
721 262 -903 0
-274 278 -458 0
575 -832 426 0
-395 -872 -619 0
968 -654 396 0
-196 934 -290 0
464 419 -970 0
32 -461 -703 0
495 526 341 0
-873 773 -658 0
505 768 -234 0
-217 198 -408 0
-348 766 320 0
919 -124 -905 0
538 -683 -801 0
-711 -324 477 0
-682 543 77 0
-769 352 374 0
473 424 581 0
863 -707 -241 0
-912 -599 -53 0
-999 -784 3 0
-10 -577 50 0
94 -608 -408 0
-346 -102 -949 0
430 -810 346 0
71 117 -125 0
772 -190 -170 0
-222 -168 -44 0
467 -266 909 0
332 -617 573 0
-980 -590 -288 0
885 580 -538 0
4 725 -198 0
-471 -444 281 0
-428 825 -364 0
-22 272 -470 0
591 225 849 0
624 216 -390 0
646 657 -146 0
-810 918 -596 0
-918 -550 1000 0
387 693 -169 0
682 589 228 0
534 946 972 0
-292 -391 -881 0
896 -612 -210 0
977 690 936 0
679 -445 753 0
343 709 355 0
-164 255 -611 0
631 -342 -678 0
333 912 -538 0
514 198 752 0
-176 547 -589 0
850 749 -632 0
694 -685 -736 0
-713 -893 338 0
-584 939 -677 0
-254 -540 11 0
-160 -307 -242 0
-281 319 -554 0
-908 148 -581 0
104 -161 106 0
212 307 783 0
448 651 -332 0
263 459 827 0
341 -945 -139 0
101 -198 -156 0
-543 -796 -348 0
164 -579 187 0
-529 -319 154 0
-376 921 927 0
-541 -580 -335 0
-228 -256 -774 0
-814 -570 517 0
-261 174 -224 0
-353 111 -464 0
142 -887 -853 0
-178 314 338 0
111 -657 517 0
-327 285 -594 0
-843 -883 -102 0
-599 11 396 0
709 -460 323 0
932 433 992 0
-635 991 -533 0
945 715 997 0
-784 170 617 0
-82 -553 4 0
199 -611 561 0
789 -168 -1000 0
968 60 -170 0
677 687 -974 0
289 -664 98 0
-645 712 -571 0
-200 -1 -561 0
-135 -965 -255 0
-36 980 698 0
564 17 -797 0
-668 -773 730 0
-849 -372 -486 0
-407 -774 418 0
-944 61 523 0
174 578 557 0
564 843 127 0
-929 764 -287 0
631 539 -864 0
933 454 34 0
-910 88 -350 0
-958 125 -64 0
882 732 -429 0
-343 -959 -154 0
-455 -583 -955 0
-544 -63 628 0
735 -793 304 0
606 -789 -239 0
-302 209 -578 0
3 376 304 0
-173 -380 -601 0
897 -800 -766 0
-588 131 120 0
-726 724 -328 0
-105 414 125 0
-185 -28 -160 0
-411 -597 7 0
-555 -618 626 0
-85 960 -622 0
841 -716 950 0
-247 985 755 0
208 971 307 0
636 -269 994 0
-894 -929 964 0
836 -980 873 0
-69 -980 997 0
798 -173 -31 0
-822 431 -350 0
897 700 619 0
-639 -483 834 0
-516 -859 -543 0
344 -81 334 0
684 13 1000 0
113 284 -478 0
-406 -526 -442 0
-906 622 674 0
149 484 -249 0
-988 786 630 0
146 -566 482 0
-847 -158 964 0
-771 -754 621 0
-227 819 -870 0
846 957 -684 0
-384 -726 -90 0
228 157 816 0
-753 496 -977 0
825 -174 143 0
29 665 256 0
-963 -442 -15 0
-152 -396 -367 0
-254 -935 -615 0
16 -163 -568 0
567 -322 24 0
784 247 646 0
-756 744 -821 0
-560 719 -899 0
-883 -969 772 0
611 -326 894 0
-642 703 -10 0
-232 -593 556 0
-705 258 -247 0
-114 -783 -999 0
-485 -769 990 0
690 511 353 0
680 167 776 0
196 944 672 0
-441 930 -203 0
-417 -110 273 0
430 -900 -804 0
-320 465 -778 0
946 -833 -593 0
-938 293 639 0
459 594 640 0
977 -943 -757 0
-625 -111 496 0
-470 770 505 0
-561 334 930 0
-864 261 -618 0
112 317 733 0
-484 -612 643 0
131 -251 -837 0
-660 820 -711 0
-395 -990 180 0
188 -158 402 0
-689 244 623 0
296 -339 -976 0
-574 935 -336 0
-845 181 698 0
415 993 -714 0
916 141 -308 0
-319 986 532 0
-357 -923 -643 0
-332 639 -911 0
437 234 -177 0
560 -566 -677 0
-314 702 81 0
37 -717 283 0
903 19 -14 0
-157 -734 899 0
226 -850 963 0
-675 -7 423 0
330 934 512 0
-118 128 146 0
593 729 786 0
-820 142 819 0
-816 -919 -77 0
872 759 -867 0
-402 -370 -531 0
-34 -888 -879 0
-888 823 495 0
-32 508 -93 0
-632 -673 -895 0
-460 698 -565 0
192 -740 788 0
781 693 947 0
-113 -702 -351 0
-513 245 560 0
950 -153 -151 0
383 261 -691 0
598 980 493 0
861 -403 547 0
-821 714 898 0
913 438 182 0
-388 -634 889 0
-70 821 -929 0
-708 -370 111 0
181 -475 510 0
-789 835 -590 0
563 -71 30 0
-936 766 969 0
-670 204 -709 0
-377 -400 321 0
-287 865 -47 0
214 -57 63 0
457 829 -876 0
892 686 234 0
856 -132 303 0
99 -925 -610 0
9 -833 500 0
-940 -48 366 0
965 729 997 0
169 399 -744 0
694 689 -72 0
876 916 824 0
624 -98 845 0
23 158 -479 0
837 112 328 0
945 480 -724 0
709 -425 534 0
149 -373 -553 0
-702 -138 877 0
-845 509 522 0
-91 -144 -484 0
252 507 -935 0
254 -605 765 0
-758 -408 192 0
71 16 77 0
703 654 254 0
-180 651 739 0
419 -668 247 0
500 322 145 0
641 -258 408 0
766 942 -459 0
383 776 103 0
374 -957 907 0
-838 -245 98 0
764 257 443 0
95 -569 -181 0
305 650 -171 0
-861 377 83 0
574 942 553 0
-15 119 234 0
-821 -463 -214 0
-968 -10 488 0
183 -785 -149 0
-515 557 450 0
303 -47 -835 0
-477 -508 665 0
-658 699 -123 0
262 -410 961 0
-142 267 -404 0
-990 -116 -298 0
-517 975 925 0
365 -51 981 0
-33 -874 -529 0
-188 -833 -175 0
-211 840 -287 0
-535 -519 -192 0
-898 388 -217 0
401 -164 928 0
648 247 -130 0
47 -542 -965 0
805 1 322 0
349 -165 368 0
-179 551 -513 0
-925 361 -5 0
-507 150 -889 0
-356 631 -951 0
-409 -314 -726 0
379 -35 -170 0
67 -308 109 0
-369 895 976 0
-858 455 711 0
211 -51 633 0
2 647 453 0
-80 992 -210 0
878 327 -434 0
916 517 82 0
-409 789 -856 0
731 -970 347 0
943 -751 -83 0
-744 724 -758 0
594 766 -857 0
487 15 557 0
-180 306 78 0
752 -799 191 0
-21 358 363 0
990 935 539 0
-109 820 -135 0
-272 -809 -425 0
485 -979 369 0
-752 158 -681 0
533 746 366 0
-99 731 -883 0
-461 987 -168 0
785 -854 -654 0
-264 73 -445 0
907 103 -29 0
-467 2 693 0
839 -975 -880 0
-604 -475 724 0
-368 -131 -576 0
604 -707 -47 0
-201 287 -475 0
-313 134 345 0
502 -239 879 0
-478 -7 -780 0
188 517 403 0
-270 -767 289 0
732 -814 962 0
237 305 -82 0
-613 -204 -103 0
653 182 -493 0
-655 -187 -795 0
719 33 -386 0
387 497 912 0
808 959 -25 0
330 -231 -730 0
-137 -405 -307 0
-15 175 526 0
-285 705 410 0
-697 -674 17 0
-187 308 656 0
-183 -61 -116 0
24 67 -162 0
43 -41 -83 0
687 51 951 0
689 -653 436 0
61 526 -224 0
-216 -634 968 0
-491 875 666 0
580 884 425 0
729 563 -954 0
134 790 877 0
-581 -22 -795 0
204 618 406 0
572 7 -359 0
332 -616 595 0
639 -772 -930 0
-582 198 280 0
-341 -727 -870 0
-909 80 -878 0
-787 -731 -775 0
-996 -670 -743 0
-143 909 -723 0
-596 387 -586 0
-890 -479 614 0
211 391 541 0
457 -186 -831 0
541 -221 356 0
996 690 216 0
746 20 389 0
-876 -760 64 0
579 714 217 0
653 -381 -31 0
-988 45 553 0
-138 439 241 0
748 -730 -842 0
-649 -380 -750 0
871 -54 646 0
-292 232 -667 0
-65 -135 342 0
201 552 -657 0
259 -103 418 0
-142 -805 456 0
-85 371 654 0
-518 705 -407 0
-851 -287 -199 0
339 -816 539 0
-271 554 -427 0
-506 745 140 0
-199 -709 944 0
143 -633 -725 0
-530 -410 -687 0
-826 74 -670 0
494 -359 -614 0
746 23 -491 0
-372 894 -789 0
258 -135 599 0
724 -17 -474 0
-824 -773 662 0
922 458 -567 0
-445 975 -62 0
-731 616 -278 0
-575 224 -998 0
-867 504 234 0
-919 -704 203 0
199 -807 865 0
-962 -198 193 0
-774 -785 -279 0
489 505 885 0
795 653 864 0
-314 951 -819 0
-912 -236 802 0
-366 -150 -699 0
-381 -936 -127 0
-414 -97 74 0
-616 463 896 0
-990 12 -408 0
-794 -446 240 0
644 76 894 0
-93 -741 467 0
-337 263 35 0
-861 679 -210 0
-686 436 -187 0
-592 56 -212 0
401 -288 -358 0
614 -868 -676 0
-207 116 -782 0
-650 -919 103 0
470 285 -439 0
-153 -48 968 0
-790 316 -332 0
-421 169 76 0
-2 -491 674 0
-139 -100 -186 0
26 470 893 0
10 282 -831 0
337 964 29 0
-419 505 700 0
332 217 803 0
-984 555 207 0
156 919 -439 0
-964 -411 830 0
322 -578 -29 0
-699 261 -168 0
-807 647 505 0
575 -574 566 0
298 222 -342 0
-728 420 684 0
42 599 -288 0
887 -686 -154 0
-997 -846 379 0
-656 -424 -300 0
-723 -497 -158 0
-654 561 249 0
-543 -436 -173 0
307 -841 260 0
-297 -259 -446 0
263 951 592 0
670 462 253 0
-5 -310 -890 0
-866 -563 -175 0
809 741 -862 0
402 -758 120 0
-709 -491 -380 0
-583 568 -494 0
-549 -824 244 0
596 642 -356 0
619 -667 -692 0
-868 376 -624 0
138 907 -436 0
852 728 286 0
189 -271 -73 0
799 -56 846 0
-103 -155 -12 0
-561 574 -400 0
-969 -831 12 0
-145 143 248 0
532 -513 -848 0
843 42 430 0
-190 -46 -983 0
-783 743 -769 0
531 -434 -315 0
209 -531 -54 0
-952 -836 451 0
-58 -844 -159 0
-727 64 271 0
275 -18 286 0
-142 700 989 0
253 474 -609 0
-596 160 -805 0
-175 232 -734 0
-358 -531 -28 0
-849 871 -965 0
-479 932 -808 0
835 -233 390 0
-39 -896 182 0
677 869 987 0
101 496 -466 0
525 481 515 0
-645 553 341 0
-697 706 943 0
-689 -692 990 0
-689 965 -500 0
-460 -962 835 0
-136 994 -498 0
926 -544 713 0
-899 336 834 0
301 -529 501 0
901 -884 53 0
-378 -701 332 0
-817 -184 691 0
557 -725 -635 0
-234 794 -798 0
-385 -389 126 0
-369 961 834 0
-220 748 -6 0
-866 151 -232 0
820 -219 -242 0
394 757 -841 0
416 699 -632 0
-319 328 -213 0
-545 218 -931 0
-957 -262 -358 0
-628 -291 -124 0
335 199 572 0
317 874 333 0
477 273 963 0
154 412 -50 0
-758 -780 -591 0
-11 -155 -232 0
-746 751 -762 0
805 790 -595 0
-198 -635 -627 0
-516 54 271 0
936 971 559 0
510 -454 914 0
-406 177 -986 0
-250 446 907 0
-439 -951 454 0
184 -285 -232 0
221 857 -918 0
-970 24 789 0
-832 654 434 0
813 923 -958 0
774 -654 -449 0
-527 -293 -201 0
23 841 21 0
456 -981 483 0
7 -127 -43 0
164 -90 -405 0
-837 -145 126 0
-465 -71 -711 0
-193 74 250 0
-43 -749 -335 0
-2 12 -494 0
-79 721 693 0
562 -353 -249 0
219 58 957 0
403 -574 704 0
401 -491 247 0
-169 824 626 0
884 383 -785 0
-460 -357 -272 0
223 -474 846 0
687 585 420 0
355 -18 375 0
954 344 249 0
-439 -510 888 0
-267 885 3 0
656 -282 243 0
-157 872 569 0
545 236 -440 0
-803 583 3 0
31 -949 -325 0
-776 982 -477 0
-293 -261 -976 0
762 -979 -87 0
874 180 857 0
-66 103 -971 0
395 987 -870 0
428 -597 375 0
-722 -430 470 0
371 -241 56 0
-771 497 -165 0
792 614 23 0
883 556 -957 0
36 -464 654 0
373 -64 -155 0
-879 347 -611 0
-600 847 -395 0
-862 -683 -429 0
46 43 -891 0
-293 -253 166 0
316 -32 396 0
-352 -592 675 0
-433 461 -372 0
-651 -706 -48 0
327 965 610 0
119 -740 935 0
-511 764 359 0
132 -59 192 0
982 -469 -927 0
313 464 997 0
66 -121 -99 0
-23 842 -955 0
706 -718 -304 0
220 -602 -414 0
650 271 -298 0
-893 857 306 0
823 -958 445 0
840 -470 588 0
-116 -211 -94 0
-964 -678 -231 0
-393 319 -144 0
-509 -747 -356 0
-964 768 287 0
157 68 -545 0
-351 640 -947 0
-984 523 -184 0
-766 -997 690 0
564 515 -328 0
-101 -986 834 0
66 -426 -904 0
637 -295 -966 0
-212 523 227 0
-307 -57 -651 0
-397 737 546 0
-397 -38 -306 0
881 732 -599 0
669 113 235 0
632 787 170 0
-382 -776 -532 0
464 -968 -827 0
213 650 247 0
225 752 689 0
-435 -540 906 0
-50 -143 -45 0
-857 517 356 0
770 -49 -643 0
-396 -393 -229 0
-477 583 443 0
742 809 -305 0
624 -915 -500 0
-144 -976 947 0
-699 349 -813 0
-782 133 583 0
120 -201 -336 0
-253 -780 430 0
600 -756 494 0
-656 -899 549 0
163 -817 -667 0
386 619 -718 0
-610 -231 68 0
-928 -524 -973 0
-552 -116 447 0
-187 780 -286 0
637 965 -161 0
-194 -776 733 0
-945 219 -360 0
256 149 -991 0
-88 184 -595 0
163 512 73 0
-54 139 -718 0
704 684 -675 0
-677 -27 207 0
-257 331 727 0
-421 -371 -938 0
-633 664 -592 0
776 472 264 0
934 -390 -97 0
452 -506 -177 0
9 394 -871 0
189 -377 74 0
714 259 -572 0
815 526 618 0
-108 -169 953 0
-752 472 -12 0
-851 -238 -655 0
-331 -5 -249 0
-262 -745 -981 0
-959 -134 881 0
-82 -14 -858 0
797 -279 -680 0
-837 -372 -628 0
-64 442 -236 0
-541 859 874 0
-622 -767 806 0
95 550 331 0
616 -596 -353 0
147 -167 602 0
386 859 -641 0
861 976 389 0
903 -2 110 0
113 -215 374 0
-661 -406 640 0
-626 597 -319 0
-624 693 288 0
262 920 -731 0
206 -544 -977 0
353 -142 369 0
811 207 932 0
266 702 470 0
-234 -103 569 0
122 682 -883 0
160 -610 -888 0
-985 461 788 0
21 166 -702 0
-518 48 -479 0
-749 -585 -343 0
62 -41 286 0
-660 -50 980 0
-358 849 125 0
-622 570 -179 0
843 -675 -795 0
-372 832 834 0
816 -378 346 0
961 64 453 0
59 967 802 0
-514 393 480 0
-452 -608 897 0
522 -339 -749 0
167 994 -547 0
543 939 -799 0
-278 821 631 0
972 814 572 0
806 -498 328 0
-741 37 -4 0
649 -101 62 0
612 946 847 0
538 182 296 0
419 -885 -528 0
806 -270 952 0
-994 -832 79 0
204 -148 -383 0
156 -693 -400 0
-64 459 846 0
624 -517 262 0
544 -959 520 0
-894 655 -595 0
-606 451 -142 0
-733 717 400 0
-901 -846 771 0
666 -43 -874 0
739 -285 932 0
937 -425 -745 0
414 232 -132 0
-883 716 -526 0
-138 555 -835 0
527 -477 -920 0
-662 152 -411 0
-497 -889 -331 0
732 998 310 0
-981 149 796 0
-481 -153 -36 0
-819 362 463 0
-611 553 -580 0
913 543 70 0
127 600 68 0
-157 -740 661 0
241 -297 179 0
-529 567 499 0
51 -164 -718 0
803 -112 519 0
-160 -403 333 0
647 873 -700 0
623 -355 -481 0
164 734 29 0
-232 -372 -469 0
552 803 -127 0
198 724 -167 0
527 -921 -666 0
-19 146 -743 0
827 46 -922 0
-568 224 -646 0
-928 -581 -951 0
-815 136 490 0
204 949 -427 0
752 -84 -711 0
868 414 137 0
795 -565 -357 0
-919 -469 409 0
-980 28 407 0
-946 453 -832 0
911 502 281 0
26 470 -898 0
818 6 961 0
71 69 -266 0
-507 -724 876 0
-87 266 -489 0
-9 156 129 0
591 -947 -647 0
905 656 419 0
-409 -922 -155 0
-375 -411 -641 0
-5 -564 -411 0
163 382 -383 0
-943 971 982 0
-176 921 -998 0
-299 -523 -998 0
-216 -594 815 0
-360 658 -398 0
-753 911 -484 0
-924 -628 533 0
-106 -151 622 0
-536 733 -120 0
81 -567 11 0
-612 -200 -725 0
-941 514 180 0
517 416 -783 0
-521 376 -1000 0
825 596 -583 0
412 768 -513 0
-228 695 -320 0
-258 -993 165 0
657 165 -288 0
861 424 660 0
-53 -783 -821 0
750 -999 49 0
662 806 -368 0
313 -409 28 0
-528 591 664 0
-68 599 93 0
-736 108 -15 0
-621 -463 -678 0
875 -337 -495 0
-739 616 335 0
-849 412 -871 0
968 529 -844 0
563 915 -768 0
82 -608 664 0
542 821 254 0
68 -482 -465 0
767 381 -340 0
-263 778 -511 0
-630 855 504 0
-620 -918 -882 0
285 335 -617 0
945 -666 719 0
6 -54 -43 0
-754 -853 -922 0
-918 -280 949 0
-604 173 134 0
710 -728 -242 0
-771 277 196 0
-58 -92 -74 0
-711 -321 729 0
790 770 -207 0
-38 -479 -303 0
-973 -527 -119 0
-876 -150 -250 0
112 -738 -138 0
-919 -515 -100 0
561 -295 -438 0
-32 467 -39 0
642 497 685 0
-519 -966 -383 0
-763 408 -909 0
-677 212 -170 0
284 815 880 0
857 -832 442 0
-582 -307 -201 0
-872 -719 -446 0
-749 -23 -481 0
640 225 908 0
315 981 -980 0
-146 -150 -196 0
-379 -771 481 0
-498 -980 -774 0
-257 517 -20 0
-273 70 725 0
60 943 -810 0
-689 939 -125 0
995 28 801 0
-48 -323 258 0
768 -512 94 0
29 79 615 0
313 -757 -809 0
-785 -875 969 0
335 726 -95 0
-654 414 280 0
164 851 -788 0
-106 -429 -198 0
-624 498 -153 0
-434 -767 739 0
-318 613 -578 0
70 -663 -879 0
302 -273 -809 0
742 -183 287 0
118 -959 596 0
-10 723 602 0
242 -166 382 0
-589 -519 -908 0
-540 478 880 0
-67 -861 -443 0
4 901 -759 0
-951 508 443 0
-830 945 -935 0
-19 -979 992 0
778 -174 -859 0
-581 -827 424 0
257 -886 -875 0
628 507 -585 0
934 349 527 0
841 599 -426 0
-532 439 797 0
174 69 -227 0
-849 184 563 0
-727 63 915 0
-820 527 -561 0
-637 204 32 0
-115 -785 -525 0
492 -645 -353 0
-791 970 -389 0
-704 -270 -512 0
-491 -907 447 0
231 47 -532 0
-546 534 983 0
505 -162 -371 0
438 -334 602 0
581 -301 -116 0
996 939 -957 0
808 -996 -826 0
249 33 -349 0
-604 -393 -338 0
523 777 675 0
279 -258 -60 0
-314 335 -703 0
775 825 -82 0
55 40 -53 0
876 -639 297 0
421 -32 327 0
689 94 688 0
639 49 248 0
-557 346 -91 0
309 259 -603 0
-913 796 446 0
-514 -887 980 0
-91 751 -152 0
175 -407 836 0
-300 412 276 0
-785 19 -357 0
-13 -297 -477 0
329 895 908 0
576 -122 -170 0
-580 -792 843 0
-421 255 851 0
-450 -139 -321 0
-330 -575 -238 0
-485 -519 632 0
-314 391 -715 0
-952 -74 -786 0
737 -732 -496 0
-607 820 4 0
995 -36 -854 0
-146 283 -978 0
-90 850 474 0
176 608 324 0
-326 -337 393 0
-111 4 -124 0
-737 214 115 0
-238 -931 189 0
-354 -935 -334 0
94 784 376 0
-61 -56 830 0
241 86 401 0
825 -856 988 0
726 78 851 0
-572 -113 957 0
-119 -970 907 0
-90 -718 -408 0
-374 -210 463 0
801 122 338 0
40 -644 574 0
428 756 438 0
110 833 -499 0
414 631 -619 0
860 -907 -449 0
-290 -4 502 0
508 -273 -741 0
-217 335 -546 0
-997 -593 334 0
247 401 890 0
22 -753 78 0
-228 293 -674 0
877 -835 419 0
-911 559 -490 0
189 -837 628 0
935 865 -636 0
151 444 -772 0
730 216 951 0
39 -818 -548 0
927 -870 -138 0
-979 314 -48 0
494 -516 922 0
-963 337 603 0
560 -856 209 0
446 -157 390 0
-210 -207 -851 0
-415 -386 691 0
522 585 -896 0
263 -378 825 0
237 980 856 0
551 -841 664 0
898 -116 -684 0
-253 -46 -90 0
-589 142 -382 0
-59 884 35 0
-407 -542 83 0
-269 241 -685 0
122 857 -133 0
-347 -271 659 0
548 -896 -500 0
-451 -583 464 0
-381 50 246 0
-890 -69 882 0
-991 158 -899 0
461 840 -448 0
625 -808 520 0
918 934 325 0
-624 -528 864 0
-273 -439 955 0
298 -526 -516 0
663 -529 -370 0
-429 491 -541 0
798 -48 -110 0
-157 27 -961 0
27 776 -507 0
-588 -883 -319 0
351 -505 -18 0
944 366 -647 0
954 -834 420 0
-317 -240 554 0
-823 831 -27 0
-781 -147 -12 0
23 884 983 0
367 -965 639 0
529 -38 564 0
-290 -219 -898 0
-462 204 -49 0
579 -577 527 0
314 -761 -340 0
-865 -382 147 0
-197 -536 -355 0
-455 590 195 0
710 338 756 0
293 -130 -900 0
-319 -428 -654 0
678 734 429 0
270 416 140 0
-701 -694 556 0
-882 442 63 0
611 -626 592 0
-228 825 948 0
818 -549 787 0
401 962 -421 0
-566 194 245 0
-398 531 794 0
411 -987 -500 0
461 -999 -414 0
-856 -251 -814 0
738 -98 17 0
9 559 583 0
338 785 -909 0
306 -125 -678 0
986 -567 -325 0
-273 -359 666 0
-622 -452 536 0
541 -309 -15 0
-929 204 -749 0
-892 279 375 0
791 607 -50 0
503 77 423 0
695 162 -280 0
-725 414 627 0
-334 -737 815 0
860 -793 165 0
944 641 410 0
57 -582 -218 0
-514 -758 692 0
175 535 330 0
799 157 -537 0
944 278 -943 0
344 -611 426 0
-984 -451 783 0
694 405 750 0
533 277 -305 0
-47 -549 -454 0
946 -936 112 0
-569 -973 214 0
-799 731 103 0
139 -221 -394 0
369 -771 -589 0
-375 -947 950 0
-911 -964 -644 0
54 787 -598 0
-999 -778 619 0
-418 125 -16 0
-451 759 -304 0
971 -903 -331 0
-727 464 2 0
43 -931 709 0
-488 -339 688 0
-170 -963 -672 0
-436 277 886 0
384 -915 -404 0
416 -650 932 0
-524 493 -378 0
541 -842 794 0
-657 6 977 0
-262 -28 385 0
870 481 -310 0
85 547 -253 0
932 -793 192 0
699 536 -51 0
769 -461 -426 0
358 -19 -613 0
529 -841 -405 0
-911 1000 -18 0
-15 -369 -890 0
256 -292 820 0
835 -734 457 0
580 618 -711 0
490 258 907 0
809 -473 107 0
57 254 794 0
210 -243 -64 0
191 -167 343 0
-159 552 -755 0
547 324 162 0
786 1 -204 0
759 590 364 0
412 -860 -734 0
-938 -297 398 0
-974 -850 772 0
277 -996 199 0
-909 545 263 0
853 537 -830 0
-8 594 -843 0
-838 527 -238 0
22 -483 -134 0
-124 -395 -998 0
-862 -844 611 0
273 579 -853 0
-548 925 -368 0
933 111 419 0
-844 739 796 0
-766 -307 6 0
902 -527 -514 0
-389 780 219 0
-150 -681 -297 0
7 -951 822 0
-823 -249 213 0
888 375 -341 0
10 800 -376 0
-393 -290 -236 0
183 -187 411 0
-95 988 778 0
-628 -344 925 0
-133 55 672 0
383 -705 960 0
-850 716 -877 0
572 -824 -897 0
357 -191 208 0
39 669 -359 0
948 758 778 0
-614 830 -130 0
260 195 832 0
-600 -162 -623 0
579 608 -781 0
-693 42 -520 0
357 -592 -900 0
-741 -567 -878 0
649 35 -292 0
-180 -647 -712 0
563 -201 -204 0
472 -245 620 0
405 -268 906 0
956 850 85 0
82 -867 -665 0
-566 -374 -369 0
692 -873 -880 0
144 708 -11 0
-855 503 -327 0
-481 -561 218 0
20 522 -334 0
233 695 -516 0
-551 -667 -386 0
-783 709 -294 0
42 -989 330 0
-343 993 969 0
-983 829 -230 0
143 120 -200 0
700 -701 -118 0
-953 -351 -538 0
-792 -168 -389 0
-505 915 -754 0
448 663 -537 0
-690 -274 264 0
-501 775 457 0
-156 -930 -241 0
889 -109 -717 0
-829 650 -335 0
962 -722 278 0
615 -150 364 0
284 313 208 0
-839 -706 891 0
-395 -627 -202 0
-35 179 -342 0
39 -534 -888 0
-182 -627 927 0
-614 80 -643 0
766 533 -171 0
-40 668 683 0
22 -41 658 0
-172 -362 364 0
100 -39 -246 0
-76 560 528 0
37 -377 -505 0
-509 -1000 865 0
173 402 133 0
-818 281 916 0
622 -888 39 0
-657 -485 960 0
314 914 707 0
-55 820 871 0
-482 -799 -321 0
-81 507 -556 0
-953 118 -93 0
419 604 -725 0
-83 -609 -999 0
-798 -253 492 0
513 559 123 0
375 534 -339 0
292 -274 -431 0
-401 685 -214 0
677 -796 213 0
894 679 734 0
519 581 -86 0
997 873 996 0
447 -892 -6 0
354 923 -395 0
495 -136 822 0
52 -964 -760 0
118 784 -303 0
788 237 -68 0
751 68 -451 0
770 -915 -432 0
12 318 -796 0
-119 263 -217 0
495 463 -614 0
724 -821 651 0
531 -391 100 0
-626 212 977 0
238 -224 523 0
142 368 22 0
551 -567 -4 0
-151 473 -923 0
-386 908 169 0
-673 -590 -185 0
-18 -905 754 0
-14 -81 -920 0
-53 -332 227 0
-228 428 -285 0
-352 -850 -164 0
903 -985 -605 0
-246 -637 552 0
918 -942 -420 0
371 -890 777 0
-17 -817 737 0
-592 587 205 0
-858 399 193 0
209 -880 892 0
-716 -212 -560 0
-13 85 -190 0
288 165 -46 0
-391 -316 -437 0
821 -452 -983 0
-488 -926 -151 0
-692 711 -881 0
-807 -826 -888 0
-674 -949 684 0
544 348 -251 0
-314 1 -632 0
-152 -909 398 0
391 172 947 0
-950 961 249 0
499 689 -568 0
-728 -970 905 0
-372 -961 827 0
-706 -79 -978 0
-74 414 -472 0
-415 335 -248 0
367 370 621 0
-714 410 752 0
-276 -373 904 0
-958 720 61 0
19 -60 793 0
796 -849 246 0
-960 -801 -429 0
-391 -152 141 0
197 -414 -58 0
851 -134 -327 0
823 926 740 0
888 -878 -350 0
-768 -70 716 0
-470 298 -44 0
325 915 47 0
-460 -852 -881 0
104 31 -163 0
-297 -353 -864 0
199 -625 -28 0
-171 852 332 0
-874 -582 -776 0
-402 -647 339 0
-12 444 991 0
662 -935 358 0
822 961 -524 0
-472 831 458 0
-583 147 -748 0
-196 -944 -116 0
-690 347 34 0
602 -245 16 0
-63 -909 -110 0
436 -823 -925 0
-128 709 -879 0
964 312 -808 0
-702 115 154 0
-808 -586 967 0
859 -413 550 0
792 995 320 0
894 178 -201 0
-622 -311 -539 0
-885 945 -689 0
355 881 -992 0
376 424 289 0
695 332 -696 0
-649 -402 -289 0
-605 -661 -357 0
-142 -33 628 0
-815 924 -301 0
-974 -849 -696 0
-536 156 163 0
408 -196 -217 0
-588 -986 -488 0
-219 312 320 0
73 47 -904 0
-879 -325 217 0
-175 489 138 0
128 451 -154 0
-710 416 261 0
916 -481 -38 0
-496 -12 332 0
210 814 374 0
-525 -626 713 0
-38 380 424 0
-294 -260 698 0
-936 -68 -369 0
65 -466 120 0
100 -631 -537 0
511 150 -867 0
79 -223 -352 0
-812 -910 -407 0
115 830 816 0
-358 564 370 0
269 -437 422 0
50 803 569 0
-398 211 914 0
-15 857 35 0
310 162 89 0
-617 -119 380 0
483 70 -352 0
110 310 731 0
-744 -814 -232 0
548 916 970 0
-125 -524 248 0
976 -114 -934 0
-366 835 -959 0
174 -752 -489 0
658 -67 93 0
-165 -835 17 0
-302 641 -307 0
-106 143 621 0
482 -495 -136 0
131 64 -604 0
-35 873 -688 0
-59 795 591 0
-79 -27 852 0
12 -138 -481 0
588 347 158 0
95 -429 -453 0
-342 -279 -775 0
-441 190 -988 0
21 699 -950 0
874 117 -289 0
639 -923 280 0
690 100 -347 0
492 217 510 0
47 -649 495 0
-739 -852 -316 0
17 -962 482 0
85 -754 -851 0
555 676 -325 0
-948 411 -986 0
-873 -328 -849 0
154 312 427 0
-150 967 726 0
482 -965 118 0
-866 307 780 0
839 902 347 0
-455 -930 -705 0
-506 913 72 0
-13 -664 484 0
-599 233 782 0
330 -144 -528 0
-354 -732 -895 0
767 488 993 0
-200 -245 595 0
869 -262 383 0
-506 412 -913 0
116 443 -749 0
463 945 492 0
-665 720 -423 0
780 828 -951 0
-84 576 531 0
678 -672 227 0
-703 714 313 0
892 832 -354 0
10 -405 -283 0
-434 872 488 0
662 17 -372 0
102 500 27 0
-486 45 546 0
610 119 -254 0
-962 824 828 0
657 -559 789 0
152 971 -110 0
-945 309 566 0
166 -953 -821 0
-485 -114 217 0
452 -947 -321 0
-689 21 -262 0
272 -474 845 0
-116 852 566 0
210 709 -64 0
277 -650 -894 0
-491 -327 330 0
513 509 -983 0
467 758 -579 0
371 -226 996 0
-705 -1000 121 0
-747 709 214 0
-930 -652 470 0
830 820 -80 0
237 761 947 0
517 824 147 0
-205 -745 -1000 0
417 -924 943 0
776 409 761 0
502 710 8 0
739 -57 231 0
-630 -663 -532 0
768 14 423 0
-163 157 781 0
-193 -783 931 0
49 909 -271 0
-22 482 -38 0
-516 -484 -234 0
978 -900 -142 0
-541 400 307 0
-386 886 350 0
-291 595 417 0
384 697 -190 0
299 895 -111 0
315 -425 267 0
613 -663 -89 0
-648 -153 981 0
-946 -829 318 0
-199 469 291 0
369 271 32 0
-819 311 168 0
719 402 -91 0
34 854 -900 0
-726 -508 -137 0
71 268 805 0
-183 -668 746 0
-859 -822 -572 0
8 -617 -216 0
997 -855 -736 0
-586 -272 518 0
-604 -396 688 0
-114 -635 -345 0
484 665 -684 0
-526 107 -167 0
-567 794 504 0
892 -659 -100 0
-323 603 -247 0
786 533 -671 0
471 -331 -281 0
-394 874 106 0
-933 231 -612 0
349 -308 419 0
619 657 168 0
670 847 934 0
-480 481 -590 0
-387 752 501 0
41 -615 -746 0
-959 -982 -386 0
630 461 -325 0
-173 -102 -357 0
-281 -979 -840 0
-653 729 127 0
729 819 344 0
485 912 -325 0
429 869 -947 0
298 -329 632 0
-250 -559 -848 0
972 503 151 0
-510 -476 -273 0
-453 640 835 0
89 931 -99 0
93 978 -90 0
839 -820 -812 0
-744 -754 -497 0
-299 -951 280 0
976 894 -95 0
-103 493 280 0
-150 787 -222 0
-720 891 959 0
-535 25 391 0
-243 -476 576 0
774 702 816 0
315 -505 675 0
47 -690 -799 0
788 -469 -571 0
-451 651 178 0
333 -346 640 0
-906 695 820 0
-999 280 397 0
745 -422 333 0
-994 915 -171 0
63 100 -774 0
452 -58 -758 0
913 -397 689 0
-496 -258 -272 0
-882 720 -168 0
67 139 -519 0
128 788 964 0
59 -474 -2 0
-889 568 -475 0
19 660 646 0
-186 324 -705 0
-24 -743 445 0
307 330 -624 0
876 -386 867 0
-728 506 -826 0
475 722 -880 0
-227 -558 -784 0
172 990 -69 0
589 -981 -65 0
-96 767 730 0
-912 184 298 0
185 209 -233 0
367 485 -292 0
-647 208 614 0
-936 220 608 0
-335 372 -509 0
-158 -810 744 0
396 877 -552 0
-875 -798 635 0
-927 -130 -190 0
449 -525 -366 0
256 538 207 0
-752 -526 -709 0
888 -96 786 0
493 -402 -899 0
761 -377 -519 0
-114 854 -245 0
-84 252 -74 0
674 71 193 0
-155 472 823 0
95 -745 570 0
211 -251 774 0
-223 757 688 0
-55 329 -131 0
-125 -196 -194 0
-474 -455 -630 0
119 -264 642 0
852 22 -201 0
-635 -942 -264 0
-141 -249 -813 0
560 -90 754 0
-21 -154 -930 0
694 903 -939 0
215 723 264 0
949 -23 540 0
895 -802 -794 0
-646 -756 -378 0
24 -27 -506 0
151 684 -580 0
626 -549 -254 0
-819 403 -596 0
-948 734 84 0
824 -876 566 0
310 874 -39 0
423 -676 -274 0
-973 815 361 0
-410 252 -106 0
882 548 -60 0
-681 -91 -926 0
-559 563 -827 0
-449 -607 -941 0
-201 464 381 0
-926 -973 908 0
-193 524 328 0
994 -270 502 0
-843 116 -199 0
-616 659 936 0
-154 758 -194 0
245 232 -906 0
806 964 194 0
320 -683 -952 0
326 329 404 0
-414 309 965 0
580 -90 133 0
162 152 -925 0
-791 105 64 0
-582 -551 -94 0
-458 -579 33 0
-998 -908 441 0
-447 -790 885 0
-330 566 487 0
944 -794 129 0
237 -241 -214 0
-431 -246 -434 0
-275 -954 925 0
-648 -698 -874 0
220 -421 12 0
-637 614 -866 0
-912 172 -89 0
-609 200 53 0
-606 -623 -736 0
-983 -435 -174 0
-621 551 -75 0
576 -69 -245 0
570 197 129 0
-763 -96 -95 0
-527 343 178 0
96 115 -525 0
633 -413 662 0
-115 227 -724 0
-958 17 661 0
950 -847 -579 0
585 -803 382 0
-275 524 424 0
790 211 -719 0
-450 -104 -964 0
738 -306 -743 0
-757 888 -257 0
178 699 -252 0
-702 898 -534 0
910 136 -7 0
-747 -814 -764 0
260 -776 -341 0
697 493 104 0
792 -149 -383 0
-142 -387 -232 0
852 901 -408 0
625 -846 391 0
437 -484 992 0
-518 -596 -956 0
-129 836 -254 0
-417 -637 998 0
-50 -561 258 0
715 590 -193 0
156 264 925 0
594 -192 -292 0
-950 -360 263 0
-713 -897 -651 0
-912 -307 -38 0
-845 -488 -29 0
8 -843 538 0
-267 879 407 0
929 -559 815 0
737 -12 -241 0
-470 -591 -272 0
577 -798 -460 0
125 747 -190 0
-868 258 548 0
886 393 -761 0
-642 -866 607 0
-225 933 -597 0
-544 361 56 0
801 -405 870 0
-672 372 -661 0
471 -943 983 0
177 982 961 0
430 -454 -960 0
856 -294 -669 0
-249 -443 223 0
-612 618 -719 0
768 -77 -905 0
-976 936 822 0
-108 -923 519 0
-215 -583 -508 0
-549 597 944 0
425 45 408 0
333 -945 443 0
773 660 -856 0
875 -734 -977 0
982 -239 -850 0
534 372 960 0
-338 385 -139 0
-515 382 523 0
828 -750 901 0
814 -8 -630 0
-504 -169 -815 0
571 -994 885 0
-643 525 -132 0
-490 -458 -265 0
314 -585 7 0
508 -215 -455 0
-384 804 -722 0
-92 -878 16 0
-173 590 439 0
377 -546 -621 0
489 654 -82 0
-55 390 -573 0
697 693 -116 0
739 943 16 0
-456 330 776 0
-382 -737 433 0
-215 -204 288 0
829 178 2 0
-744 -962 588 0
249 50 -907 0
-319 381 397 0
-604 -899 498 0
808 960 -657 0
-65 -317 908 0
-289 597 207 0
-103 -90 456 0
-475 -486 22 0
699 -134 123 0
637 -407 -232 0
454 933 -953 0
-363 456 -117 0
-303 391 320 0
754 413 738 0
-997 304 -577 0
113 -870 655 0
-3 -5 310 0
-981 714 600 0
-948 -785 -828 0
313 -309 203 0
900 -170 446 0
947 407 -278 0
228 71 -845 0
-926 389 -929 0
921 827 -128 0
247 1000 -256 0
443 -782 639 0
278 250 -966 0
749 -324 724 0
-338 -864 743 0
-575 7 790 0
-243 815 -948 0
-370 -666 -311 0
480 -143 -236 0
-962 -658 -100 0
38 -864 404 0
581 291 -287 0
28 752 645 0
675 178 -690 0
994 442 -837 0
-751 185 -355 0
-264 281 -107 0
-783 587 -143 0
812 -772 -69 0
-525 668 749 0
241 149 -655 0
648 13 -572 0
32 -141 -735 0
-133 -891 369 0
-795 633 -409 0
592 531 413 0
878 -383 979 0
471 29 792 0
801 864 -166 0
415 934 -231 0
-814 -732 899 0
-149 -904 719 0
315 -283 768 0
219 767 -734 0
-120 706 -447 0
-268 564 -133 0
-409 -839 -763 0
901 233 -578 0
610 -781 30 0
-237 -812 -83 0
-307 491 923 0
464 -96 -694 0
-927 -39 968 0
417 926 358 0
678 -505 -578 0
-526 -597 245 0
174 859 -715 0
-850 -856 24 0
-157 71 -145 0
301 974 224 0
-55 27 430 0
-37 -373 -224 0
636 561 -273 0
-91 -871 199 0
894 -588 15 0
733 96 562 0
-692 -164 -662 0
-643 -431 -792 0
-429 297 -987 0
848 -162 -835 0
758 -783 37 0
-694 -640 -902 0
633 -971 -348 0
-169 893 737 0
498 240 31 0
428 898 501 0
-957 665 -805 0
-343 -986 -838 0
-124 815 -580 0
-93 -801 -808 0
939 530 -916 0
519 649 -857 0
-959 -31 -379 0
-403 -898 957 0
-51 690 574 0
-382 -320 263 0
-210 -953 -492 0
622 883 -188 0
-975 -939 933 0
132 -581 841 0
267 528 -245 0
-318 -881 898 0
-625 -61 -707 0
-676 186 -361 0
85 -869 186 0
748 140 -452 0
987 -848 -318 0
-343 95 999 0
847 916 490 0
-249 734 703 0
310 -448 -688 0
322 939 -810 0
-337 736 -29 0
324 389 -154 0
708 -42 238 0
-798 -495 -551 0
-838 -849 541 0
-827 -333 -318 0
675 -27 258 0
-7 775 338 0
801 -25 817 0
461 -81 456 0
-303 398 -991 0
-286 -403 -905 0
-539 290 -523 0
-689 541 -693 0
-382 -352 -567 0
308 -12 -695 0
104 -630 502 0
658 -364 -750 0
-970 48 -199 0
-952 -78 792 0
235 72 741 0
-94 -139 716 0
-424 81 -560 0
382 837 -660 0
524 213 496 0
-881 201 206 0
791 -641 -926 0
-437 434 442 0
586 -857 -826 0
-472 394 -667 0
510 349 711 0
-993 -387 730 0
-877 288 -247 0
-302 -826 445 0
272 -56 -289 0
41 934 -368 0
167 301 345 0
953 -184 -231 0
388 -237 -503 0
951 -472 -527 0
-360 680 899 0
587 313 470 0
-681 389 -537 0
815 -612 648 0
288 -201 234 0
-210 681 755 0
35 981 -954 0
851 122 -871 0
152 837 711 0
396 -328 -345 0
852 980 246 0
-8 -777 -569 0
-230 -455 22 0
292 687 190 0
-948 313 -523 0
-684 -651 219 0
115 -995 -881 0
685 494 -514 0
458 392 -278 0
-832 791 679 0
228 -658 -515 0
505 1000 -494 0
-823 -562 -870 0
484 -212 -977 0
300 -48 517 0
403 -667 -112 0
-965 -197 460 0
337 58 -41 0
996 -164 16 0
307 814 -842 0
493 227 -924 0
212 824 245 0
464 854 992 0
957 -776 -848 0
841 -759 942 0
49 723 569 0
263 207 -526 0
-148 980 -667 0
539 -698 944 0
-147 -254 -739 0
-677 -166 845 0
-737 -179 522 0
441 412 602 0
-756 -881 464 0
-232 -380 276 0
-204 -1000 -331 0
654 864 23 0
565 208 699 0
-558 -987 -85 0
-333 86 -719 0
219 422 -787 0
-317 -562 26 0
755 -540 693 0
893 265 -161 0
646 732 754 0
455 900 -957 0
-715 -901 216 0
698 248 746 0
-34 -684 317 0
-201 -698 -323 0
594 -319 970 0
983 -219 -197 0
891 625 -255 0
-171 143 335 0
214 -695 -296 0
558 183 -976 0
-475 -2 -260 0
-848 -382 22 0
24 606 831 0
-698 22 720 0
-871 336 574 0
657 -995 8 0
609 -553 315 0
617 -637 -133 0
59 242 302 0
429 118 -952 0
-654 -180 -366 0
717 88 714 0
-330 255 200 0
974 -889 -255 0
315 290 -448 0
304 118 240 0
432 429 -174 0
351 -176 539 0
926 -348 80 0
552 -312 -195 0
-795 77 -273 0
-61 496 -304 0
-608 82 965 0
-459 -884 513 0
456 908 -1000 0
908 77 -140 0
-305 92 575 0
-334 983 955 0
41 -311 947 0
169 -971 -599 0
217 120 901 0
-259 550 -708 0
-20 -534 -874 0
410 -726 -978 0
218 318 192 0
98 -239 537 0
843 996 -437 0
-88 -291 415 0
-497 -625 -596 0
542 -970 72 0
558 -246 -567 0
-909 -713 -791 0
-907 552 443 0
128 -41 -380 0
948 -38 848 0
-205 236 -506 0
436 25 974 0
508 795 -388 0
-741 397 -469 0
-102 -428 -668 0
-14 -778 -158 0
-103 567 178 0
945 431 204 0
665 -625 -673 0
-683 -158 -324 0
-322 -952 -979 0
359 -109 -543 0
590 743 -203 0
-561 507 937 0
-570 -214 -458 0
609 447 884 0
36 -195 915 0
-605 278 -157 0
-456 20 394 0
-428 -528 409 0
645 -282 -711 0
740 -20 290 0
516 -721 873 0
-639 435 -582 0
-112 205 501 0
-263 -889 143 0
-723 -708 933 0
-251 883 -632 0
-156 67 -470 0
-897 537 944 0
-263 -708 -547 0
741 -835 957 0
-374 -50 -942 0
377 -184 -421 0
124 97 197 0
520 97 419 0
69 221 -325 0
922 65 267 0
-650 352 -13 0
-916 -198 -407 0
963 -778 -352 0
-302 -574 -194 0
731 -558 -306 0
764 922 -20 0
-511 -489 990 0
273 -314 884 0
-833 -169 -278 0
516 -1 -743 0
-529 -697 413 0
-764 443 200 0
-502 889 693 0
-287 232 -562 0
907 -807 727 0
395 283 -607 0
-512 -672 892 0
-148 -719 -195 0
58 432 473 0
950 -929 408 0
219 -402 -156 0
-65 -296 -716 0
332 7 696 0
-71 -429 622 0
-473 -335 954 0
-155 -149 634 0
-815 -61 -618 0
-890 -942 -848 0
-106 134 775 0
803 -674 -870 0
-548 306 527 0
-448 64 649 0
405 -339 560 0
799 253 -406 0
-386 -842 303 0
-743 786 -66 0
-958 -990 -336 0
-36 -916 -219 0
-724 666 -856 0
733 922 632 0
453 -297 583 0
-128 520 695 0
-673 8 904 0
-429 505 -606 0
-88 -263 -306 0
-707 327 441 0
743 -134 550 0
107 350 -342 0
361 429 384 0
44 724 -853 0
-378 920 371 0
-206 14 644 0
596 -964 701 0
965 42 -775 0
953 288 -35 0
-108 -924 -619 0
-892 462 -719 0
-608 -828 811 0
-617 -445 590 0
388 -225 -122 0
-667 -986 773 0
-500 144 908 0
987 -248 -4 0
-411 -163 831 0
-319 299 -788 0
403 -364 777 0
-587 944 -382 0
-110 57 465 0
203 814 500 0
926 -868 -284 0
-942 -671 884 0
-814 367 418 0
-244 -328 -553 0
-631 119 -775 0
-504 -34 178 0
691 81 -300 0
33 -92 312 0
-805 -135 652 0
263 327 -514 0
-207 -962 -110 0
174 -277 -14 0
-987 -658 -87 0
-29 -391 -34 0
-395 22 595 0
94 165 -897 0
-78 -680 515 0
83 -21 -240 0
-228 -241 -478 0
-444 -844 -196 0
-372 723 -829 0
-987 -197 521 0
700 734 -608 0
55 805 579 0
456 595 527 0
-28 666 -54 0
-457 -636 -220 0
826 -313 148 0
-321 977 -459 0
603 46 -393 0
712 344 687 0
395 -825 688 0
691 -470 482 0
953 96 242 0
456 -572 -659 0
-10 -941 365 0
-270 566 479 0
-245 -460 -930 0
-307 326 588 0
390 -195 602 0
216 19 -904 0
853 -267 151 0
-864 736 -15 0
-61 770 -33 0
-867 -847 397 0
433 -508 426 0
51 -134 -430 0
39 586 -355 0
-773 359 -676 0
-949 865 578 0
-65 -314 31 0
544 -913 824 0
318 186 -202 0
-818 434 328 0
-573 497 -64 0
636 -904 770 0
849 -336 438 0
596 -897 -388 0
664 -912 -693 0
-786 -91 -285 0
-750 620 780 0
459 -157 -268 0
400 404 944 0
-231 241 -852 0
978 122 -713 0
812 -669 -676 0
-617 -992 -283 0
-300 -605 26 0
989 -196 817 0
-47 -290 -710 0
695 -132 -287 0
-933 -380 151 0
-127 -324 -154 0
-927 613 967 0
-183 845 668 0
-983 -158 -196 0
905 860 326 0
-909 -684 740 0
213 -566 -238 0
-620 -720 -685 0
-468 -720 -819 0
-812 -567 -781 0
729 541 110 0
-297 420 355 0
-78 75 -317 0
562 141 -329 0
674 450 -913 0
113 494 72 0
-930 -571 329 0
936 571 173 0
463 307 -773 0
-955 473 -338 0
194 188 669 0
-331 -793 832 0
-465 -472 927 0
836 -724 -667 0
-618 -753 53 0
-131 -480 663 0
-837 342 657 0
22 -452 -537 0
181 -329 -49 0
33 -434 -847 0
535 608 14 0
-965 895 664 0
31 197 -818 0
828 -583 986 0
-245 -875 -436 0
488 9 189 0
416 89 -462 0
-370 801 625 0
995 -520 -278 0
-703 -79 -574 0
-415 -153 2 0
-436 -113 670 0
868 -382 -2 0
-892 -214 534 0
752 -41 -208 0
927 -857 471 0
-965 882 -951 0
569 -214 300 0
791 469 -931 0
722 76 -232 0
889 -698 369 0
282 271 740 0
-585 373 785 0
312 771 872 0
-258 732 565 0
396 330 398 0
706 173 532 0
398 -902 -760 0
-861 -947 249 0
328 267 503 0
-242 977 423 0
286 425 690 0
-542 257 732 0
-822 -407 727 0
-208 -287 -847 0
91 773 913 0
-700 481 -959 0
-132 -634 -71 0
687 276 -841 0
342 -288 -922 0
141 -152 -444 0
-352 586 -634 0
928 619 231 0
104 -509 -542 0
806 -855 -879 0
974 -213 -107 0
-727 -453 836 0
-505 975 514 0
-374 578 -358 0
831 -930 -567 0
-340 24 -453 0
-180 868 512 0
293 941 22 0
-974 744 -586 0
945 572 -678 0
-146 -106 -165 0
-322 -160 -20 0
385 322 429 0
27 -346 484 0
980 48 99 0
241 -282 630 0
267 -951 -56 0
709 173 -625 0
316 -203 -738 0
-415 597 602 0
-705 559 381 0
233 984 84 0
138 842 633 0
516 -584 83 0
-275 -506 798 0
945 513 815 0
-275 -258 981 0
-556 -78 623 0
-854 -589 996 0
-807 -331 -100 0
-624 899 285 0
-407 743 -68 0
-784 530 790 0
-958 595 -991 0
38 -499 954 0
-572 -839 49 0
-33 644 502 0
-642 742 -481 0
-987 -410 305 0
841 -40 -592 0
79 -209 205 0
200 -905 -364 0
268 -597 837 0
731 89 -131 0
569 -589 575 0
944 247 776 0
-324 656 451 0
-757 60 -575 0
140 -619 -852 0
-607 -182 916 0
-16 302 874 0
94 200 976 0
-542 50 157 0
205 -124 -349 0
-924 -941 -440 0
-35 -162 -148 0
-85 256 231 0
181 -822 643 0
-474 371 151 0
75 923 438 0
608 -710 -740 0
-397 -906 -386 0
-433 613 -484 0
512 529 446 0
-106 851 -817 0
266 -973 397 0
154 303 -586 0
719 -124 53 0
-511 -349 -462 0
-369 146 326 0
638 685 290 0
-895 41 627 0
572 158 728 0
-1000 -590 -509 0
532 -150 763 0
492 837 -88 0
566 -145 167 0
96 591 589 0
-723 969 717 0
920 -719 202 0
938 512 174 0
-624 -122 154 0
421 -398 133 0
-422 92 267 0
594 -785 -701 0
-640 200 -954 0
-392 -747 705 0
-854 178 -771 0
543 -489 -568 0
-363 68 220 0
599 169 799 0
-149 -455 -194 0
131 -34 243 0
420 -835 87 0
-622 -22 708 0
226 450 345 0
643 -80 -495 0
-13 -562 208 0
-15 502 341 0
111 -144 -257 0
578 38 28 0
-107 430 -115 0
355 473 -832 0
-376 -11 -166 0
725 -238 -72 0
809 687 204 0
-102 -914 631 0
-121 987 84 0
492 -493 -458 0
-472 943 389 0
-55 -685 -176 0
730 94 -680 0
-190 -795 332 0
-986 -442 535 0
21 -625 757 0
-71 811 -443 0
68 620 642 0
-531 -143 942 0
-562 -316 -472 0
-703 -574 -940 0
-125 -308 -405 0
241 -206 -383 0
799 176 -105 0
-94 220 747 0
-990 -879 -138 0
282 -627 899 0
-589 -201 100 0
-213 -192 -957 0
245 -741 10 0
305 -392 18 0
667 671 660 0
590 571 -702 0
844 -983 852 0
-688 739 155 0
-798 -965 -543 0
581 -469 -187 0
-618 -637 -573 0
682 -234 -187 0
-410 -22 -191 0
-826 293 -509 0
-299 -43 -732 0
894 627 -689 0
-510 102 947 0
79 -763 -27 0
881 363 597 0
-622 867 141 0
-946 471 -858 0
817 -485 580 0
-419 307 95 0
-474 526 -542 0
898 560 -140 0
802 -803 -654 0
306 -803 735 0
-853 -46 -249 0
112 -469 -637 0
-318 952 128 0
-813 18 -821 0
-724 407 -633 0
735 -837 684 0
80 -229 -811 0
89 11 962 0
156 931 712 0
192 -508 844 0
144 821 32 0
-670 -292 -196 0
772 -196 -564 0
938 200 692 0
361 -881 -365 0
480 508 -90 0
15 -973 252 0
-119 -316 -178 0
-383 838 291 0
-618 278 -474 0
613 954 -426 0
-610 573 -448 0
759 499 -535 0
340 938 -919 0
392 -866 -439 0
-515 97 -404 0
342 44 566 0
11 536 711 0
-8 -650 -139 0
403 -256 141 0
-119 -776 733 0
-542 199 -950 0
-891 -509 -828 0
-949 -20 464 0
527 -887 -636 0
507 301 271 0
737 -514 -671 0
-498 -647 693 0
247 -674 -543 0
896 -615 993 0
907 -154 973 0
-875 528 209 0
-326 -424 81 0
-134 830 -532 0
-926 -729 -560 0
-692 -680 221 0
-467 -579 -722 0
414 -290 -642 0
414 612 -211 0
-884 -980 127 0
912 816 -97 0
913 942 719 0
911 -158 270 0
-346 899 -236 0
772 -584 58 0
522 -20 -847 0
-181 -374 -556 0
823 -19 415 0
784 -854 -272 0
-783 47 -400 0
412 -46 -641 0
907 429 76 0
237 594 719 0
977 -851 -757 0
954 631 807 0
288 818 515 0
576 -475 558 0
-713 203 976 0
-500 426 391 0
814 693 -591 0
181 874 260 0
-574 -672 882 0
174 -389 180 0
-909 869 942 0
-409 539 -996 0
-391 -657 349 0
-856 -616 -914 0
-380 662 230 0
-555 238 421 0
-74 224 -428 0
742 -664 -993 0
117 408 685 0
-160 -377 372 0
-850 -462 -102 0
541 804 873 0
343 -309 -666 0
357 938 567 0
-723 -70 256 0
719 -350 -552 0
-277 -640 251 0
559 979 -844 0
-38 -312 600 0
-729 -486 187 0
-577 675 263 0
-757 -663 129 0
980 -367 825 0
326 48 443 0
220 -401 -557 0
-364 296 -327 0
562 -926 646 0
991 -390 562 0
649 -273 504 0
126 -472 33 0
565 480 -594 0
38 -67 -602 0
580 -59 738 0
339 -640 757 0
749 -931 -510 0
510 -509 -143 0
-310 942 -603 0
-385 308 290 0
-696 288 -401 0
-544 182 471 0
-211 890 -448 0
-886 32 -518 0
251 21 261 0
-698 -403 -74 0
990 -572 597 0
-741 852 152 0
431 -297 371 0
413 290 -898 0
-895 133 621 0
-343 836 -82 0
428 -285 -104 0
617 594 203 0
-664 -986 -77 0
-658 273 347 0
973 -469 -712 0
-6 257 -753 0
716 -870 702 0
-860 -996 767 0
-804 -59 192 0
148 87 -164 0
778 611 284 0
148 -234 -659 0
879 850 265 0
688 77 526 0
-562 -172 -66 0
829 -696 -462 0
-109 951 -544 0
634 -869 772 0
198 -317 754 0
660 249 291 0
855 321 -583 0
-973 270 -688 0
-50 589 -845 0
550 990 781 0
208 917 509 0
-859 -215 -249 0
-477 970 213 0
154 345 -654 0
588 419 -796 0
605 412 475 0
241 866 601 0
-978 383 -502 0
-99 -293 -816 0
-482 614 117 0
-115 -671 -755 0
438 -196 -931 0
-285 -795 129 0
-670 -779 722 0
-876 -461 -49 0
761 712 -101 0
720 792 -735 0
-376 -394 669 0
-699 -110 -35 0
-458 -969 774 0
116 -613 -162 0
-810 829 -623 0
221 -691 84 0
263 -831 -835 0
-146 161 316 0
-615 -684 518 0
-737 -78 953 0
410 970 -634 0
-152 -817 -27 0
-973 779 743 0
628 -580 936 0
921 878 -535 0
156 294 142 0
634 295 -357 0
122 -943 -410 0
-138 -901 -436 0
895 -718 -560 0
-795 97 19 0
189 861 220 0
-593 457 -428 0
242 -431 19 0
-82 -611 -857 0
846 -140 259 0
-660 -150 -998 0
456 247 -863 0
-455 -565 -489 0
730 -114 851 0
598 -982 -121 0
136 -44 388 0
-881 37 -507 0
-915 938 775 0
616 903 -343 0
19 -870 894 0
312 -950 512 0
-393 882 603 0
892 -917 -472 0
345 861 340 0
-978 818 -746 0
-522 -989 -722 0
-672 666 366 0
-126 712 -267 0
-292 214 -613 0
424 126 987 0
-99 746 -812 0
277 61 283 0
212 732 633 0
-771 694 281 0
-498 -398 216 0
-228 840 711 0
-984 -696 -711 0
-174 612 388 0
592 685 801 0
170 -253 440 0
637 632 -203 0
522 -361 78 0
573 847 -201 0
227 190 600 0
-899 -795 271 0
876 586 863 0
749 -876 -537 0
-539 -616 996 0
-544 141 -470 0
-959 471 459 0
-420 223 205 0
-932 164 736 0
-764 832 -904 0
-860 -386 -884 0
307 -998 -586 0
433 -923 144 0
-215 782 287 0
-523 781 -542 0
850 -409 -163 0
-923 -783 311 0
846 415 -752 0
614 425 -821 0
-975 735 -698 0
-745 -543 -663 0
-903 89 615 0
-156 768 -956 0
-683 369 -487 0
505 -386 -784 0
-103 -265 -296 0
-544 668 294 0
74 -20 -558 0
-39 327 -19 0
-70 -698 -815 0
564 -326 529 0
-144 806 968 0
437 -866 156 0
-555 932 271 0
789 864 -729 0
155 576 -146 0
-412 191 269 0
614 -308 338 0
990 948 126 0
-786 748 840 0
-151 -889 620 0
-158 -352 -242 0
-79 697 -710 0
-32 687 85 0
-803 -219 968 0
468 -274 34 0
-721 -425 325 0
-232 -679 -224 0
230 56 22 0
286 138 -770 0
684 988 52 0
-154 272 116 0
960 893 -294 0
-15 -654 -942 0
-520 88 -407 0
203 -858 -846 0
809 994 280 0
-162 -670 235 0
785 -417 -180 0
-660 -74 -178 0
652 286 477 0
-75 -53 614 0
-206 193 -215 0
536 102 -310 0
933 -525 369 0
-795 772 397 0
-103 322 29 0
113 504 538 0
444 313 -164 0
178 574 991 0
3 652 385 0
-606 369 476 0
577 -992 -31 0
-878 -762 -49 0
-808 -314 -282 0
994 -860 167 0
674 459 44 0
-950 -475 -321 0
730 -220 -96 0
676 -377 -170 0
-631 492 -893 0
603 433 -854 0
-197 957 -282 0
156 25 115 0
-999 -690 105 0
848 -817 -599 0
318 548 364 0
-370 637 -75 0
580 936 518 0
-525 489 95 0
-640 228 -529 0
-29 -731 -384 0
-292 110 -734 0
791 -260 -891 0
-540 42 896 0
483 -848 -230 0
-628 -950 -33 0
461 -443 54 0
-336 608 420 0
288 691 279 0
826 817 15 0
-586 -596 -484 0
696 122 -618 0
170 121 -633 0
862 -58 436 0
5 -169 973 0
-976 591 716 0
55 685 72 0
-737 43 898 0
95 859 967 0
-90 -550 -803 0
-544 295 68 0
539 696 497 0
641 -300 -770 0
-610 327 225 0
-712 104 384 0
-649 -817 -20 0
336 298 756 0
826 74 -13 0
-464 -665 641 0
858 -925 503 0
219 -593 551 0
18 -782 382 0
-925 905 -900 0
-810 63 992 0
359 1 -727 0
-39 51 -574 0
-499 -205 422 0
49 -42 61 0
818 579 -127 0
-636 -805 -322 0
-476 -288 -809 0
-883 899 -295 0
756 984 79 0
472 -176 -726 0
-533 354 -779 0
544 531 -229 0
467 -458 -747 0
-744 59 -141 0
103 -537 977 0
845 -477 382 0
-935 582 -973 0
-793 -292 -465 0
77 -898 403 0
-632 -450 -787 0
817 -519 908 0
-34 477 -513 0
702 306 982 0
851 -821 223 0
-903 15 212 0
-96 -865 -925 0
913 -460 377 0
-468 893 -426 0
-83 18 599 0
-543 -50 162 0
-324 84 -75 0
-606 292 481 0
521 -927 85 0
835 787 644 0
931 204 -755 0
-201 592 -358 0
-293 201 -72 0
-899 748 433 0
289 -622 -206 0
814 636 165 0
181 -178 4 0
-29 726 799 0
468 109 -616 0
769 -656 -338 0
-889 178 832 0
-681 616 107 0
743 -332 -5 0
-963 -28 -533 0
-892 -563 -358 0
376 302 636 0
882 -847 -805 0
977 633 681 0
-568 -436 -678 0
-857 -709 217 0
-832 72 357 0
77 -846 -31 0
-199 325 -741 0
-853 -818 -371 0
334 573 571 0
120 971 36 0
528 -736 -891 0
-100 -518 416 0
-538 -723 -392 0
-125 -278 -337 0
-517 222 514 0
-545 -677 962 0
-823 -388 878 0
-694 758 632 0
-514 458 263 0
-87 -849 385 0
-306 722 -644 0
-116 -983 -831 0
-490 -30 -291 0
-710 846 -284 0
-773 27 -65 0
83 551 35 0
731 597 540 0
-760 -196 -775 0
88 -930 -931 0
809 -709 -179 0
958 -775 477 0
144 -656 439 0
-894 502 326 0
-255 892 -887 0
483 228 348 0
413 505 403 0
740 -979 -939 0
157 921 -715 0
-292 491 661 0
392 -237 38 0
-453 -7 580 0
-492 331 -193 0
-494 -600 -688 0
184 -826 138 0
781 929 -457 0
701 890 -842 0
-839 -397 -99 0
147 726 -664 0
620 62 979 0
106 -221 491 0
-527 660 -909 0
-853 -6 348 0
77 509 -924 0
-93 -695 723 0
598 -235 201 0
698 88 -706 0
198 142 8 0
-85 107 828 0
-312 -790 223 0
-793 -879 852 0
-17 631 -801 0
-513 -68 -201 0
71 792 424 0
-503 628 -432 0
136 -21 671 0
96 942 -262 0
-443 815 -13 0
892 184 -117 0
174 403 386 0
-12 115 980 0
74 747 -774 0
-393 98 -439 0
403 -150 -256 0
-276 -171 409 0
-724 79 311 0
365 448 388 0
175 -658 713 0
-568 -289 791 0
-847 -224 743 0
223 -526 -849 0
107 -720 -314 0
928 333 -863 0
-705 244 -525 0
-14 -35 331 0
-570 271 746 0
372 598 -144 0
798 -915 -940 0
-244 -908 15 0
381 -612 -996 0
976 853 -354 0
405 325 -960 0
-382 -117 -709 0
529 -26 -947 0
-151 520 -554 0
-557 907 903 0
614 903 -964 0
-970 477 852 0
-291 901 -596 0
-824 -127 -267 0
330 97 -143 0
-184 840 201 0
-626 528 802 0
201 -191 70 0
155 47 -425 0
66 201 9 0
-735 -910 590 0
200 -92 730 0
130 225 -826 0
104 -670 372 0
513 -926 325 0
452 -16 -810 0
966 -628 -146 0
-964 -302 549 0
-584 412 159 0
626 680 536 0
-497 -593 379 0
-356 832 741 0
406 53 -894 0
-627 52 461 0
491 920 -549 0
-825 425 683 0
-391 -68 -760 0
918 -265 778 0
-896 -986 94 0
-442 -727 -99 0
4 16 -58 0
-409 266 551 0
-14 553 880 0
823 -435 339 0
-424 778 888 0
718 184 450 0
-323 -633 -602 0
535 -356 -720 0
61 -732 -632 0
787 825 217 0
-444 607 -294 0
-125 151 95 0
70 132 420 0
-847 257 637 0
-30 649 318 0
632 -702 669 0
-157 -347 -935 0
392 883 -898 0
-833 474 615 0
946 -608 258 0
552 606 830 0
-900 -390 -338 0
859 -497 899 0
417 -652 549 0
549 -979 887 0
-258 451 -173 0
949 46 144 0
-775 140 -655 0
79 -318 753 0
-453 978 352 0
707 509 215 0
-768 223 -338 0
-567 482 -42 0
-589 -492 377 0
-263 -268 42 0
-527 517 -666 0
-835 -994 377 0
139 -701 444 0
-632 365 782 0
-408 602 -942 0
736 805 -74 0
158 989 -933 0
-223 115 -224 0
-583 685 -257 0
779 198 387 0
926 -896 296 0
-845 5 -732 0
-530 -53 -20 0
977 -573 -535 0
611 -246 -663 0
90 385 -146 0
982 933 497 0
-596 -941 245 0
418 502 -350 0
32 -863 -86 0
155 353 -633 0
-657 531 -874 0
-749 -329 -551 0
595 381 -125 0
-798 591 -209 0
-699 -833 942 0
-534 -213 -777 0
-751 -70 -752 0
-498 740 -656 0
603 -818 382 0
862 432 503 0
728 -517 -627 0
187 3 -498 0
369 478 910 0
653 306 -64 0
-175 -184 713 0
421 -219 -291 0
-330 -813 -972 0
-29 -370 545 0
123 787 256 0
-564 876 -508 0
614 -637 -565 0
-240 -640 -911 0
-925 -679 -434 0
-296 -68 271 0
813 -640 -932 0
600 -344 -286 0
906 -939 -488 0
-462 163 531 0
-569 -102 567 0
-62 620 -657 0
322 398 765 0
756 -212 -116 0
867 -535 133 0
947 -593 659 0
697 -402 609 0
924 847 35 0
-500 621 395 0
256 719 935 0
-713 962 -757 0
794 375 -131 0
710 -413 624 0
593 -336 290 0
642 -938 -142 0
164 47 597 0
490 887 934 0
930 656 270 0
-911 -149 -578 0
-251 291 -796 0
479 -560 -756 0
-52 574 -940 0
-280 -151 -635 0
-816 -535 96 0
-718 298 -366 0
439 316 141 0
-249 -897 -116 0
144 942 -92 0
109 813 340 0
-198 -273 -12 0
-537 286 358 0
-72 667 328 0
719 419 93 0
26 269 -237 0
-568 -337 795 0
508 871 -932 0
826 -752 457 0
905 667 -12 0
-205 863 716 0
727 -97 -739 0
997 -265 -895 0
-339 734 689 0
567 -607 -681 0
-338 -518 -193 0
496 769 815 0
925 -306 48 0
-243 -852 -200 0
-545 786 455 0
125 342 85 0
-703 529 -351 0
637 -169 543 0
191 584 554 0
-714 491 508 0
855 79 176 0
714 -855 -29 0
-557 -53 809 0
-60 -319 -444 0
-471 -661 509 0
-646 -281 612 0
154 525 834 0
-232 590 -451 0
-25 61 -828 0
757 63 234 0
512 -365 -439 0
-851 -296 203 0
-963 -189 255 0
-123 -57 -740 0
-870 597 -16 0
896 -525 -190 0
901 -955 408 0
-997 -242 -496 0
464 -789 576 0
-330 594 -559 0
-815 -190 -322 0
296 -959 -552 0
-213 54 696 0
-685 -460 92 0
983 593 434 0
312 763 228 0
-218 905 865 0
-354 -617 -457 0
432 -365 889 0
-42 512 -472 0
329 -269 -525 0
322 -652 -816 0
-658 760 774 0
472 783 668 0
-420 -673 238 0
365 -204 521 0
345 674 -259 0
-677 999 977 0
-83 313 -72 0
-956 286 3 0
-300 792 547 0
-750 611 684 0
25 -466 -475 0
404 -520 620 0
200 88 -943 0
793 29 223 0
782 429 -885 0
-52 -919 924 0
348 434 734 0
-561 -666 -782 0
599 -286 -656 0
816 -754 -806 0
-271 564 401 0
110 -74 -540 0
-426 846 996 0
-458 -20 -915 0
441 -920 -524 0
-165 -423 119 0
705 -433 995 0
351 343 52 0
-286 466 -370 0
546 -585 -967 0
-517 -964 494 0
-256 266 -112 0
284 -529 -526 0
-637 -761 -573 0
673 642 872 0
-640 198 -734 0
337 -59 824 0
-512 -783 205 0
180 -674 89 0
-977 963 -309 0
-271 870 -337 0
368 -297 79 0
394 836 -533 0
-489 589 -667 0
-557 620 425 0
984 620 -574 0
10 -910 790 0
-669 -150 -199 0
-520 716 -193 0
104 -111 -806 0
-213 819 -515 0
413 935 510 0
208 -146 -864 0
-348 -523 -900 0
-708 -570 -982 0
952 583 262 0
-696 950 687 0
-1 -424 76 0
817 -636 334 0
322 -897 854 0
-420 -351 290 0
-161 -666 -553 0
-843 267 491 0
929 736 -961 0
480 -623 582 0
-308 -969 -704 0
-865 -187 -455 0
447 236 572 0
-1000 361 10 0
-777 -413 -12 0
-894 -726 -888 0
806 -468 -303 0
522 250 -425 0
274 -901 953 0
-191 -109 584 0
972 -892 805 0
416 882 -142 0
984 -394 380 0
551 -12 -379 0
718 400 902 0
-512 148 -509 0
-165 -392 -630 0
-484 -981 -842 0
176 344 -36 0
-166 -180 239 0
-871 421 -648 0
618 -824 -592 0
972 -594 -810 0
-616 -779 494 0
-352 -709 726 0
17 800 -912 0
312 429 967 0
-364 -61 -263 0
-504 6 480 0
-527 913 -404 0
634 -938 566 0
-152 -957 -421 0
-409 293 611 0
-530 -643 -43 0
441 494 714 0
14 -973 549 0
-892 -386 400 0
995 -674 -755 0
-726 -967 165 0
410 844 645 0
-129 -752 -405 0
-323 -754 -18 0
-497 -780 -213 0
287 985 -674 0
532 470 -607 0
312 -815 -536 0
613 830 -740 0
-11 800 376 0
262 -993 103 0
666 -762 -213 0
-204 408 7 0
-321 327 -632 0
780 -846 -20 0
414 73 -187 0
-850 -229 126 0
418 539 176 0
346 148 -687 0
-678 957 568 0
-902 -293 -591 0
-666 -350 -472 0
-76 -955 -456 0
408 925 467 0
570 706 947 0
-746 955 559 0
-696 -471 1000 0
829 -369 323 0
-42 -971 -985 0
595 270 -362 0
376 549 -387 0
-412 533 -485 0
823 -543 70 0
-9 -475 -406 0
333 -66 -562 0
683 972 -172 0
-432 -312 -255 0
-729 -393 429 0
-304 409 884 0
-230 -816 676 0
-419 462 243 0
-647 -734 -159 0
-229 291 -367 0
540 357 669 0
-466 -188 45 0
-138 250 87 0
689 -627 -406 0
239 -693 403 0
-502 93 -140 0
-946 -439 690 0
-124 -824 896 0
-682 578 -197 0
-189 351 61 0
582 427 -256 0
-138 150 -894 0
-115 -976 -744 0
-385 312 569 0
-581 659 -944 0
-488 -859 244 0
609 -607 704 0
-26 331 -510 0
182 165 -370 0
604 220 563 0
-461 136 531 0
544 144 -926 0
962 518 -211 0
982 -638 321 0
-862 550 209 0
-247 701 531 0
-205 151 -350 0
-37 -498 -11 0
497 -60 -422 0
559 759 437 0
189 251 -62 0
518 431 -94 0
401 44 -910 0
-160 -620 57 0
-613 981 -5 0
-797 -76 700 0
-419 -715 -112 0
34 -542 838 0
803 -196 245 0
634 -453 -254 0
-917 -581 610 0
698 739 923 0
-294 -518 942 0
-893 688 419 0
258 -872 960 0
-341 899 12 0
352 565 -107 0
596 702 765 0
215 -858 -159 0
-476 374 678 0
-162 -271 -713 0
-990 -69 -276 0
574 -778 -366 0
259 148 911 0
-368 429 -725 0
-464 -939 -376 0
-637 16 -337 0
900 -607 518 0
-154 -982 943 0
-615 452 178 0
-37 424 788 0
363 727 -417 0
-136 -19 -525 0
-371 -129 80 0
376 -10 -330 0
-330 358 -48 0
646 238 239 0
-466 3 -994 0
-893 260 812 0
585 762 961 0
-858 -218 341 0
-438 299 -168 0
-719 946 406 0
973 -532 202 0
-970 -354 -925 0
-794 460 985 0
-262 715 -730 0
-782 77 -118 0
-846 301 -14 0
-808 -224 748 0
19 -939 -931 0
-931 95 -526 0
545 560 250 0
-709 -622 -202 0
363 -235 -29 0
-375 850 222 0
-13 354 -483 0
569 -209 208 0
297 -996 711 0
120 623 289 0
957 318 345 0
314 742 536 0
666 -373 -754 0
-842 792 -965 0
-347 287 -11 0
-366 -64 716 0
60 -756 733 0
398 -736 373 0
-541 665 137 0
-725 -283 221 0
-208 -411 599 0
-403 511 -703 0
495 409 861 0
555 -83 383 0
806 244 -156 0
-98 -413 453 0
-314 616 222 0
836 -660 659 0
-793 627 -302 0
-48 -466 633 0
897 404 901 0
-153 944 311 0
903 -109 935 0
-122 -653 -832 0
-716 -70 94 0
-862 -147 -431 0
178 -985 206 0
903 319 -791 0
876 636 306 0
805 -608 461 0
661 -532 -805 0
146 308 -101 0
465 505 162 0
153 -371 76 0
-819 66 -689 0
-969 270 -672 0
-67 -690 -635 0
841 -396 -759 0
-652 849 -925 0
956 744 242 0
765 22 730 0
637 610 -701 0
366 133 -677 0
24 101 800 0
810 -147 -682 0
-731 -208 -879 0
854 -246 -181 0
376 -722 79 0
-166 788 709 0
-560 -638 -559 0
699 -974 -527 0
867 -471 645 0
-234 34 -508 0
-651 -976 151 0
177 247 -686 0
-237 -610 509 0
-550 -64 -853 0
-189 -800 776 0
883 304 -592 0
-966 691 582 0
-811 355 -559 0
522 -263 -501 0
948 -118 640 0
169 -685 347 0
-262 569 332 0
-705 -547 -947 0
641 214 -651 0
-327 983 -24 0
-290 -555 586 0
602 -424 -915 0
525 605 -206 0
-142 678 195 0
-434 590 456 0
939 344 633 0
467 -200 -339 0
773 83 -756 0
465 -484 -314 0
-167 -610 219 0
-637 -196 530 0
870 206 -445 0
228 -218 421 0
700 282 -179 0
47 -708 48 0
499 960 795 0
49 28 109 0
197 -743 520 0
