p cnf 1000 4950
405 -180 465 0
635 257 608 0
-504 -227 -79 0
-113 531 842 0
284 -677 -559 0
-306 29 354 0
646 193 962 0
-435 -731 168 0
-488 -949 -552 0
-789 798 518 0
743 717 515 0
-192 -555 368 0
875 -135 539 0
-536 516 545 0
-332 356 -316 0
495 530 666 0
366 -451 597 0
-698 774 887 0
-281 656 -642 0
513 809 731 0
-642 506 -284 0
761 -428 999 0
370 -614 -426 0
-378 399 649 0
-177 305 -543 0
-535 449 -483 0
594 -316 -12 0
95 -592 -767 0
-231 638 -313 0
-595 444 457 0
-604 -852 522 0
977 -335 -204 0
197 -651 450 0
-79 698 137 0
-192 -406 289 0
-166 -889 -612 0
225 -416 -521 0
906 993 -360 0
-828 610 -166 0
-421 385 807 0
924 -216 782 0
-354 495 97 0
471 -516 846 0
934 -441 -670 0
-837 -574 -573 0
605 -808 -402 0
-142 -69 -906 0
116 -818 65 0
55 614 961 0
-681 -208 -136 0
-461 970 364 0
-473 561 527 0
-222 -244 378 0
-896 -450 491 0
-643 -708 769 0
-502 -201 -572 0
-473 293 -891 0
555 -722 644 0
-714 59 81 0
182 -879 -916 0
-247 673 -932 0
290 -90 -868 0
77 -760 -551 0
-793 -551 340 0
-608 665 788 0
821 -656 535 0
830 886 122 0
-755 649 -575 0
148 438 -158 0
881 648 -407 0
689 563 323 0
415 640 -910 0
536 -310 -4 0
746 750 -445 0
-622 -759 122 0
-920 -4 -138 0
278 -914 -612 0
983 -70 -553 0
-754 415 883 0
908 -600 94 0
-2 855 532 0
-982 -837 -194 0
997 594 -790 0
676 -53 243 0
-403 -163 96 0
172 -51 -259 0
-948 -381 284 0
-197 -496 158 0
170 -699 -792 0
470 395 45 0
556 73 -7 0
654 69 440 0
-289 -603 381 0
-720 616 954 0
-990 -607 -538 0
-219 -271 -204 0
697 781 378 0
692 -566 -738 0
-106 173 -825 0
-335 881 -817 0
-668 -376 282 0
-46 -646 -419 0
39 -10 703 0
405 199 -355 0
-729 17 335 0
-721 243 927 0
-874 -882 261 0
888 -586 -544 0
-449 569 -368 0
894 -352 789 0
234 -559 96 0
309 -113 962 0
226 -203 -104 0
24 41 260 0
511 674 108 0
-521 -887 811 0
-516 74 -125 0
-861 159 330 0
943 -120 -207 0
989 -132 -166 0
189 926 581 0
-452 -682 523 0
-267 -588 679 0
-297 344 -39 0
-902 889 -293 0
599 -57 174 0
-657 792 -106 0
23 731 875 0
-179 -444 419 0
-435 -636 994 0
976 618 541 0
388 -499 90 0
854 212 -607 0
-217 -83 -906 0
-632 -648 499 0
998 -127 -268 0
980 806 871 0
-753 89 914 0
-828 -505 -350 0
-650 -469 -476 0
-585 -737 460 0
376 606 -952 0
379 143 28 0
-730 148 -59 0
764 -322 -197 0
-934 226 -971 0
440 -530 -886 0
749 508 415 0
567 -224 610 0
148 188 98 0
119 487 -768 0
354 -717 728 0
129 63 -165 0
944 21 -426 0
-105 190 791 0
108 -624 306 0
-306 654 391 0
-935 638 -320 0
-880 -4 -102 0
167 473 -599 0
-200 -148 -500 0
-451 -710 605 0
-629 -490 520 0
-760 327 184 0
682 355 916 0
-642 10 59 0
419 -610 576 0
-256 -114 73 0
217 926 379 0
-645 920 -563 0
-951 780 -216 0
-845 716 528 0
252 -212 -660 0
-317 240 -583 0
565 814 246 0
326 -233 -856 0
133 646 -4 0
340 -100 -870 0
93 -697 902 0
8 -371 721 0
-342 619 715 0
-490 181 -264 0
752 -88 39 0
668 -75 337 0
-201 -730 766 0
298 865 -660 0
-883 -964 -938 0
-737 313 -395 0
543 -254 994 0
350 663 -989 0
883 474 -701 0
444 791 676 0
338 -120 -155 0
404 -390 -524 0
-975 -312 -996 0
286 646 519 0
-911 816 -260 0
-506 -70 809 0
-40 -548 -550 0
-635 -924 -923 0
-388 -829 -612 0
412 -848 -475 0
433 -36 -203 0
-314 -709 612 0
562 44 -793 0
558 -648 -332 0
73 146 -440 0
178 436 -772 0
-674 -713 -290 0
-292 364 966 0
-839 308 706 0
812 -264 646 0
432 949 -92 0
-318 723 331 0
-442 676 78 0
-821 -338 -830 0
-295 298 327 0
936 -669 -8 0
767 -359 -316 0
231 -350 -589 0
853 -185 877 0
-718 -110 213 0
-776 398 -513 0
298 -378 -623 0
997 -511 -775 0
-497 -638 -829 0
-91 -329 -760 0
940 -210 -89 0
132 -99 -172 0
786 215 802 0
-821 877 -881 0
115 452 794 0
-200 797 61 0
951 -219 -131 0
932 436 717 0
-477 52 254 0
612 -592 206 0
202 910 322 0
12 -199 920 0
409 575 -206 0
954 -209 -691 0
-584 221 -779 0
-933 389 57 0
-953 352 250 0
-502 -534 24 0
523 249 -150 0
-331 445 -841 0
976 829 453 0
923 939 711 0
-17 -3 716 0
642 69 -379 0
373 959 -192 0
70 -894 -898 0
-51 -494 -805 0
77 383 164 0
-987 -812 -746 0
-14 940 -664 0
509 -804 619 0
-533 312 841 0
-842 667 -361 0
308 -396 419 0
-271 -132 -135 0
-602 623 941 0
11 812 -764 0
863 770 72 0
-101 -541 -574 0
-408 560 144 0
418 -526 -849 0
-704 -497 231 0
6 -119 -704 0
-108 798 -332 0
656 -127 745 0
-439 -803 -956 0
162 915 855 0
740 582 -9 0
-714 320 -377 0
8 408 -12 0
279 -267 703 0
328 -454 911 0
-556 230 -630 0
-843 -201 387 0
270 -894 -932 0
-783 533 -592 0
62 799 920 0
534 -805 406 0
-934 -740 -856 0
-393 713 -633 0
857 -850 -476 0
131 -788 301 0
-577 -237 -917 0
796 567 867 0
680 -241 -277 0
252 -345 -567 0
-208 -684 489 0
-132 346 953 0
567 778 806 0
951 824 -897 0
21 163 272 0
317 -566 399 0
-879 220 -44 0
-842 -860 68 0
-326 -765 785 0
-651 -4 859 0
189 806 -469 0
935 496 140 0
565 -408 -699 0
-177 -970 -859 0
318 -220 -665 0
-402 26 -45 0
-381 -992 680 0
731 286 701 0
930 -377 -316 0
919 -169 432 0
-713 904 969 0
217 72 -983 0
106 901 933 0
496 -827 -349 0
-526 369 -307 0
732 48 992 0
383 -841 204 0
655 -911 522 0
-242 53 -975 0
-924 -244 399 0
-520 -213 562 0
197 711 -232 0
502 310 342 0
-987 -287 -302 0
-88 319 -553 0
-412 878 -43 0
867 -678 -941 0
900 -283 -838 0
-163 -242 379 0
-941 791 -638 0
-144 294 110 0
-389 -468 140 0
655 -780 160 0
843 -449 100 0
-495 -148 -692 0
-142 295 569 0
-59 456 -427 0
407 -437 930 0
169 -270 822 0
-522 974 -567 0
-454 -934 -558 0
645 615 -358 0
664 -471 -736 0
-570 -37 136 0
524 469 -771 0
-374 575 791 0
-69 872 755 0
321 111 -206 0
600 172 60 0
596 -831 -679 0
-703 -326 -859 0
583 586 99 0
942 169 -331 0
-449 -530 -133 0
178 715 -730 0
-675 -469 -454 0
273 -55 -753 0
221 619 19 0
-198 119 -179 0
-436 227 731 0
251 752 753 0
164 332 42 0
711 -428 579 0
-4 -28 -214 0
550 -270 623 0
-441 -868 125 0
-535 510 308 0
229 761 -438 0
915 599 -177 0
-351 984 499 0
856 -11 259 0
-555 -435 -445 0
-949 -85 -669 0
385 -171 -497 0
88 564 106 0
420 281 -987 0
552 868 -284 0
-927 -104 293 0
-848 639 436 0
-804 69 923 0
-750 -908 -276 0
-661 -370 368 0
707 606 -281 0
536 517 -806 0
196 -367 -569 0
-878 117 996 0
-590 -19 186 0
403 730 -9 0
121 -40 -766 0
-575 541 947 0
-728 -199 53 0
-93 295 -911 0
707 340 -939 0
-938 -546 532 0
-749 -694 -806 0
681 217 -460 0
965 -707 912 0
-435 -630 -333 0
-865 109 163 0
-625 490 40 0
78 -408 560 0
-610 849 179 0
465 -556 51 0
558 793 514 0
-222 -143 582 0
210 558 350 0
-74 864 371 0
-414 -336 -733 0
-1000 58 -496 0
979 471 841 0
-536 21 -617 0
172 56 701 0
506 419 592 0
-625 -903 -742 0
159 644 924 0
-393 -808 -781 0
-541 -101 354 0
551 464 593 0
-992 -326 599 0
-138 -369 527 0
-190 812 901 0
-697 387 -975 0
-859 94 -894 0
-283 -199 -456 0
660 -818 -683 0
-608 167 -697 0
-126 675 536 0
-575 676 846 0
460 -228 -573 0
-291 780 494 0
-610 -212 180 0
-462 -979 -330 0
-785 801 -25 0
166 -151 -193 0
573 -891 794 0
-428 -513 -711 0
955 903 308 0
257 -424 -868 0
-2 746 -120 0
-5 629 588 0
-579 -418 -750 0
202 671 280 0
-984 -314 -987 0
588 -218 901 0
-563 -265 443 0
-419 -353 775 0
-247 -693 642 0
533 304 -362 0
609 -932 969 0
621 379 114 0
-638 589 32 0
523 -596 -760 0
808 -998 -603 0
77 -410 247 0
892 368 48 0
420 -864 365 0
-234 -440 261 0
404 -754 176 0
639 774 -970 0
-862 -440 301 0
-411 -374 719 0
329 -263 973 0
-641 -530 909 0
655 -108 955 0
892 97 77 0
816 -701 538 0
-32 515 587 0
-703 100 -527 0
472 854 824 0
624 230 -972 0
-947 637 890 0
-56 978 266 0
754 -109 15 0
943 -503 -878 0
-100 -561 626 0
912 -756 -229 0
580 314 397 0
471 -63 -433 0
-692 -255 -569 0
65 105 -744 0
182 463 392 0
547 -286 841 0
-404 -321 -291 0
637 92 294 0
621 -401 -837 0
612 -584 -496 0
-553 343 950 0
-26 -383 -77 0
71 -485 623 0
-320 -422 -637 0
146 855 690 0
-493 -641 500 0
489 811 -760 0
-923 437 873 0
578 -442 -830 0
369 729 -9 0
-852 -62 -942 0
492 -681 55 0
565 -637 181 0
112 -571 866 0
-506 492 -728 0
704 -366 -117 0
352 -627 770 0
606 -737 -499 0
339 -805 931 0
-312 921 -246 0
-29 -664 -166 0
-573 610 385 0
-361 430 -857 0
-642 -363 334 0
205 -407 477 0
778 306 -756 0
-905 -9 990 0
868 397 -386 0
172 441 -900 0
-50 958 -190 0
-526 -471 -568 0
381 315 356 0
-101 -505 -64 0
83 -612 770 0
-609 -601 205 0
915 924 680 0
450 -334 -161 0
-7 -127 -995 0
275 947 939 0
751 864 -680 0
260 410 407 0
259 -297 -623 0
58 -853 -222 0
339 215 479 0
136 -636 871 0
415 -645 -763 0
-77 498 439 0
-928 28 908 0
-56 953 -267 0
-587 775 -542 0
798 628 370 0
-728 725 -361 0
-646 170 -93 0
868 788 735 0
-610 -387 566 0
539 939 -881 0
-360 10 -414 0
-590 -182 -149 0
-623 282 -117 0
906 -587 855 0
802 297 539 0
-719 -524 -839 0
-169 224 -957 0
47 -962 532 0
4 791 -253 0
-492 579 -808 0
19 -977 357 0
-883 -427 317 0
977 371 -490 0
688 627 -920 0
67 -99 204 0
-844 284 66 0
306 -449 -798 0
428 -989 -994 0
903 272 -255 0
258 -199 -170 0
-405 253 703 0
656 -967 921 0
596 394 691 0
-355 781 722 0
762 -498 -391 0
517 522 -980 0
985 -297 -246 0
835 619 -713 0
694 -450 753 0
-905 881 -596 0
-757 -449 -987 0
637 -511 937 0
724 -838 596 0
439 118 208 0
-963 -335 -257 0
88 -819 701 0
737 529 -926 0
205 -6 -727 0
974 -765 371 0
-494 -268 -76 0
-707 -519 -87 0
-563 829 36 0
385 -240 -996 0
640 381 -397 0
-732 746 -302 0
786 610 -851 0
-516 -779 -248 0
788 940 698 0
652 374 -104 0
-232 -58 572 0
618 465 -273 0
-381 408 -686 0
-748 199 -329 0
378 -506 -417 0
334 -627 425 0
476 -699 -540 0
217 990 477 0
-528 784 227 0
921 731 -115 0
237 538 -657 0
-716 -750 -845 0
847 -336 70 0
-445 540 351 0
952 -147 879 0
-872 211 200 0
407 -519 229 0
-482 208 -155 0
841 -328 -905 0
-965 308 400 0
536 656 -122 0
133 941 -267 0
290 -300 549 0
554 -244 186 0
71 -206 -747 0
520 -674 -416 0
-166 329 -131 0
-573 757 -681 0
-676 760 462 0
-386 352 -632 0
732 411 -837 0
699 70 119 0
832 850 -319 0
298 -165 87 0
-731 -437 470 0
286 592 -170 0
-661 774 94 0
-878 321 323 0
759 -219 -59 0
41 107 -146 0
-473 -244 -998 0
-725 797 -694 0
947 524 -850 0
-11 895 -56 0
-505 201 254 0
-614 915 992 0
-577 535 -776 0
-737 -923 806 0
826 -171 640 0
453 -640 306 0
-158 -655 -69 0
760 -999 329 0
-624 482 431 0
-290 974 -941 0
966 306 -787 0
910 436 402 0
-203 816 247 0
-275 -560 -948 0
-696 -735 34 0
599 -339 675 0
-360 82 211 0
-202 -392 -471 0
-756 -212 -173 0
178 983 42 0
-239 930 588 0
-950 874 -968 0
834 -525 -393 0
-867 334 357 0
-156 847 -53 0
-749 674 195 0
-271 -111 -869 0
-209 -960 -266 0
-150 -841 -378 0
49 -367 501 0
907 41 204 0
502 -881 644 0
203 972 -269 0
-485 840 -403 0
645 286 -270 0
-445 313 448 0
-47 350 -37 0
-580 -462 37 0
771 105 972 0
-477 627 308 0
876 -398 -225 0
-104 -275 -594 0
834 578 -556 0
478 270 -848 0
156 -38 -732 0
491 224 -785 0
-658 618 -192 0
490 -324 358 0
231 711 657 0
-552 939 275 0
-77 607 -260 0
347 -218 87 0
696 844 462 0
-182 187 -708 0
-289 -612 119 0
893 501 -629 0
-561 -640 8 0
-125 -12 -159 0
523 -255 -945 0
406 -76 84 0
663 4 354 0
789 -927 -572 0
-286 -14 -758 0
354 609 998 0
797 453 34 0
130 880 823 0
-454 276 679 0
127 44 558 0
-954 -454 -129 0
-679 -409 756 0
-526 -822 648 0
-852 -297 -517 0
-770 259 -970 0
-74 249 557 0
534 66 -622 0
33 -358 178 0
303 130 -234 0
-70 979 330 0
449 -438 -482 0
742 -337 987 0
821 -264 -190 0
188 524 -672 0
-233 -570 890 0
-148 -398 -667 0
-778 261 938 0
650 -402 491 0
-233 -475 391 0
177 884 -655 0
109 -316 697 0
535 -854 -474 0
634 505 378 0
579 28 23 0
489 -309 705 0
-429 126 -795 0
586 95 -23 0
-869 677 856 0
-696 -761 661 0
97 -473 791 0
-475 361 -588 0
-23 330 -304 0
416 -125 -119 0
-367 -408 452 0
142 -19 -369 0
268 -329 -495 0
702 -270 696 0
-714 204 -286 0
400 -113 451 0
314 -380 -318 0
-417 -951 945 0
100 -663 -421 0
-136 -490 335 0
-792 692 -176 0
113 200 -376 0
-570 -622 -56 0
-663 -59 6 0
926 565 -54 0
-692 -868 -330 0
776 -638 -454 0
-538 146 513 0
-260 -51 341 0
896 524 270 0
266 -991 539 0
346 -62 252 0
-728 -69 434 0
-342 687 200 0
738 -214 128 0
-452 347 922 0
-442 14 9 0
369 -694 -194 0
-79 -559 -704 0
525 -38 -850 0
980 -94 -242 0
-304 528 -256 0
943 -750 -719 0
811 694 -353 0
-728 -526 40 0
-688 247 -628 0
-91 -569 -993 0
-260 690 -674 0
-486 588 -324 0
820 -993 -912 0
-289 -959 112 0
-354 680 -286 0
-773 -260 459 0
947 -464 183 0
59 288 -217 0
-231 -43 141 0
628 -445 -519 0
843 -620 -755 0
-618 -472 648 0
-857 -312 -222 0
876 -532 286 0
638 -882 -97 0
682 -401 11 0
326 -465 -229 0
545 852 -460 0
-66 131 675 0
-182 289 758 0
-882 326 -747 0
-600 656 804 0
-99 568 334 0
458 -672 951 0
726 240 -224 0
-151 -598 -812 0
-805 -544 -150 0
-314 152 -177 0
-638 -864 294 0
109 -568 -146 0
-286 -562 -895 0
-444 544 780 0
313 -398 -280 0
-615 421 -903 0
-730 -77 -306 0
581 935 -805 0
414 75 -131 0
790 -39 -488 0
-293 694 -229 0
989 440 458 0
-811 744 923 0
734 319 -160 0
-608 -681 -586 0
-903 -420 219 0
529 950 157 0
254 64 392 0
-734 70 -897 0
-900 935 -300 0
91 -827 -479 0
-299 -945 426 0
447 -419 605 0
439 218 -637 0
-621 110 907 0
-739 283 77 0
781 764 -6 0
-360 -698 219 0
-997 512 -221 0
-257 86 408 0
903 -423 -994 0
-685 752 -473 0
395 -264 311 0
318 -491 180 0
741 329 355 0
-697 591 -38 0
827 785 148 0
-7 -605 383 0
617 761 960 0
90 -275 -291 0
225 -132 26 0
972 74 -476 0
-841 691 681 0
-213 260 -32 0
536 868 -171 0
-488 -301 852 0
-854 -2 -905 0
-683 718 53 0
-48 660 369 0
647 -347 -871 0
-82 -20 990 0
-196 -695 -859 0
-864 758 -533 0
693 -868 360 0
-674 -759 510 0
216 -706 -251 0
-303 -296 319 0
659 935 495 0
-107 -996 837 0
-878 749 215 0
107 -851 297 0
-38 -865 934 0
182 -957 136 0
25 -615 -809 0
806 865 808 0
-545 423 430 0
278 -139 -570 0
726 411 864 0
-293 407 774 0
881 771 978 0
658 647 -733 0
915 -202 -319 0
34 -528 685 0
-838 361 -616 0
229 -50 550 0
698 914 -993 0
69 111 999 0
-857 -482 -391 0
289 554 840 0
-996 82 -854 0
-649 766 -990 0
-256 -490 -125 0
-342 -822 737 0
419 954 -842 0
207 499 -339 0
-877 -26 -476 0
627 -44 434 0
457 22 177 0
62 -8 595 0
-1000 -496 101 0
649 471 -751 0
-289 -283 -483 0
-636 -942 -48 0
-50 598 857 0
658 790 736 0
650 -120 -528 0
325 695 269 0
-392 331 765 0
993 -542 -120 0
347 55 -925 0
-739 525 -263 0
-296 211 -507 0
836 -953 949 0
111 -769 637 0
5 -335 269 0
-225 -37 577 0
-99 727 873 0
-335 -412 -131 0
377 -832 631 0
439 -619 371 0
653 -701 -219 0
-814 -175 -152 0
-187 -219 567 0
-924 -646 -383 0
-458 -96 808 0
-908 -252 460 0
-541 477 -425 0
697 -451 -973 0
-841 418 664 0
700 -73 -626 0
172 356 845 0
183 49 -236 0
400 795 -11 0
-91 366 -998 0
154 -411 -931 0
-959 -71 336 0
-140 928 -635 0
18 -402 474 0
688 -666 -478 0
-929 442 299 0
-574 104 -149 0
71 -352 760 0
-697 640 102 0
16 -764 573 0
-926 985 -65 0
-174 -466 -699 0
-29 -665 900 0
-708 -165 -536 0
886 547 913 0
-863 748 -415 0
-662 130 -832 0
-455 -182 46 0
-893 640 -258 0
937 -507 -526 0
28 -220 -126 0
351 637 -379 0
-557 22 -622 0
114 693 -17 0
604 215 463 0
-693 -547 25 0
-818 236 -535 0
-252 285 -487 0
-99 943 139 0
-236 -840 630 0
-91 206 -669 0
-651 267 239 0
453 -299 792 0
-660 730 335 0
535 -816 -224 0
885 864 -859 0
-148 -955 -598 0
-220 805 -852 0
-726 -899 222 0
410 -718 -223 0
-648 -762 465 0
-76 -610 -227 0
448 -571 841 0
-465 320 508 0
-39 669 -336 0
323 952 -286 0
-438 947 -751 0
-484 -45 -339 0
245 10 364 0
250 -22 -817 0
-18 -425 -667 0
572 -16 -124 0
33 -628 600 0
970 -695 432 0
-523 242 -738 0
553 -609 -396 0
335 608 -551 0
-328 -76 -529 0
-786 164 -483 0
578 -47 -660 0
-36 631 797 0
740 -98 404 0
-985 -55 362 0
-141 72 -238 0
-414 962 -994 0
-183 -24 83 0
-272 -558 -408 0
140 -356 -232 0
-257 476 168 0
-577 216 -75 0
990 957 357 0
734 319 -43 0
-206 929 -771 0
-175 102 -610 0
704 384 -528 0
-735 591 -530 0
980 353 -780 0
-181 -213 -143 0
-474 -220 581 0
751 -652 85 0
-151 -800 333 0
-756 -6 95 0
-559 -277 494 0
805 991 816 0
-73 498 -410 0
198 -357 -527 0
430 241 -4 0
233 18 349 0
858 -902 202 0
-572 -478 790 0
149 807 961 0
211 -994 -618 0
927 -113 443 0
-214 152 73 0
-910 -197 -119 0
-506 812 530 0
-238 396 -990 0
872 -784 -1000 0
-799 564 104 0
-732 -137 539 0
-338 227 -575 0
-532 143 -151 0
-721 1 -631 0
501 -316 -190 0
79 754 -309 0
933 -352 -993 0
3 -94 -986 0
137 542 -325 0
992 186 -310 0
-594 -254 217 0
345 -434 -525 0
-683 -308 867 0
-958 305 635 0
41 -316 76 0
527 928 -405 0
314 986 -649 0
-313 584 840 0
-406 800 -572 0
-331 -366 -851 0
748 344 727 0
-926 -913 471 0
750 -699 -207 0
121 620 -45 0
425 -569 806 0
-531 903 390 0
148 852 280 0
693 -528 114 0
-446 712 821 0
-62 -745 -985 0
409 -622 980 0
-540 191 -334 0
677 -560 454 0
964 956 731 0
492 930 -218 0
251 -964 -626 0
-86 284 81 0
429 -886 -611 0
-609 858 757 0
161 233 -62 0
-904 246 -442 0
-398 7 -308 0
549 305 367 0
-850 -328 -631 0
-150 242 -195 0
829 -224 261 0
-153 -730 415 0
-976 198 -161 0
989 514 140 0
-709 474 677 0
-491 239 447 0
778 -267 -510 0
-307 -467 -317 0
538 -401 830 0
-569 123 403 0
-864 -442 -630 0
859 -685 525 0
233 464 163 0
-202 540 4 0
101 -727 -826 0
-737 573 -198 0
-30 -141 -124 0
549 -400 -195 0
-490 -680 -343 0
314 -978 -60 0
-330 530 876 0
-783 407 89 0
985 733 312 0
-391 -451 -853 0
-952 182 131 0
-996 -15 -181 0
644 -771 -911 0
699 172 -277 0
-351 770 -668 0
-304 -811 408 0
-299 -872 -500 0
-616 49 -237 0
-751 968 -624 0
-440 160 295 0
-837 -997 -852 0
-461 232 -945 0
-159 -738 212 0
-196 -375 189 0
642 200 701 0
-119 -668 -417 0
533 258 301 0
76 -411 -48 0
696 313 21 0
419 -545 -706 0
268 638 -647 0
-572 606 335 0
-274 637 915 0
629 -890 284 0
-86 -932 -389 0
18 967 -35 0
493 -388 -113 0
-17 738 958 0
-904 -280 -143 0
724 -861 765 0
892 -544 443 0
999 -501 -450 0
-683 400 786 0
487 462 46 0
25 943 -31 0
-180 -899 982 0
721 979 452 0
373 176 127 0
919 641 -648 0
-781 953 492 0
-131 691 193 0
-50 723 -334 0
-775 -164 294 0
955 -998 -961 0
-298 226 334 0
-784 896 -512 0
-91 -881 989 0
-920 -468 792 0
-606 -907 -26 0
844 -537 -247 0
-977 -931 104 0
-858 -468 672 0
-256 -67 -136 0
496 801 -467 0
1 242 295 0
644 766 -944 0
72 333 -645 0
214 713 164 0
-223 -629 440 0
426 -146 -617 0
140 -571 759 0
97 -509 -829 0
662 -847 -504 0
136 -514 17 0
-907 867 -649 0
-84 -680 392 0
787 -761 930 0
-384 16 -328 0
485 -961 453 0
890 535 721 0
-393 395 -871 0
493 46 289 0
-132 484 293 0
641 997 701 0
378 65 452 0
486 -82 214 0
765 243 708 0
817 -42 -362 0
244 986 496 0
-960 390 -230 0
-757 -928 238 0
-286 294 370 0
-436 -494 -883 0
598 -337 -131 0
656 -624 509 0
-723 -486 -425 0
-926 230 681 0
949 45 352 0
728 -524 95 0
628 -988 -959 0
216 -491 -257 0
304 -420 -160 0
943 -574 -942 0
267 -387 -709 0
-327 523 613 0
899 -668 835 0
-69 135 823 0
-667 433 430 0
62 834 415 0
773 978 488 0
-732 -597 -765 0
-886 -905 161 0
-509 799 -674 0
400 -827 -655 0
-301 -24 202 0
-99 347 -431 0
780 345 -201 0
246 119 556 0
-351 -354 843 0
-367 27 -6 0
-519 -794 150 0
23 439 -138 0
-859 720 913 0
-518 98 142 0
-302 63 708 0
211 70 -913 0
-467 411 -721 0
-994 212 -879 0
66 419 -102 0
-679 631 -738 0
-776 -147 909 0
328 98 38 0
-368 425 194 0
589 332 -98 0
-838 -961 116 0
347 -906 -590 0
138 169 851 0
-881 965 -460 0
-944 -910 -382 0
-377 -910 266 0
231 786 888 0
-545 961 -292 0
-580 -317 -340 0
739 -17 823 0
-92 797 -822 0
708 898 -606 0
-549 -811 95 0
-260 -325 767 0
-486 495 974 0
-127 646 229 0
559 592 -522 0
-104 219 437 0
-772 2 -366 0
9 -574 904 0
420 -571 -598 0
-746 485 -384 0
-499 -360 -982 0
216 -771 561 0
-683 160 -91 0
947 -584 -526 0
-204 726 -689 0
-342 248 779 0
-182 -477 904 0
796 -586 -365 0
-524 -229 958 0
883 -805 217 0
-368 26 -31 0
220 -28 -586 0
-596 365 197 0
-526 -865 288 0
547 598 90 0
730 -605 847 0
-939 -201 -557 0
-426 -293 304 0
380 -714 -446 0
491 801 -43 0
-666 -351 -780 0
-542 -888 -191 0
-713 -225 -965 0
-815 467 -649 0
-401 168 816 0
551 -59 238 0
-724 -90 699 0
-853 -57 -67 0
-940 -777 -117 0
545 -215 699 0
857 -704 -197 0
-769 -255 -975 0
810 963 -64 0
-634 561 318 0
849 762 -822 0
341 -3 -789 0
561 130 528 0
798 -342 -492 0
-500 110 -484 0
-388 932 -529 0
232 -100 330 0
-215 954 506 0
-392 835 836 0
501 -98 -188 0
-339 -41 -684 0
-664 -570 209 0
-911 -376 -419 0
-80 -875 205 0
234 -829 290 0
-116 -488 552 0
-45 -950 -589 0
-353 787 -559 0
931 812 997 0
-319 846 -865 0
-28 -604 149 0
-92 -617 -671 0
-265 -368 609 0
-44 -43 604 0
-126 -56 -67 0
-849 890 968 0
342 -487 -846 0
-955 139 688 0
426 301 -474 0
315 -789 173 0
-443 265 -754 0
873 -281 539 0
-106 -607 159 0
-844 -49 -238 0
717 192 -157 0
-740 781 -514 0
-690 568 619 0
75 271 746 0
-194 912 545 0
701 601 -35 0
887 575 -675 0
-904 -975 -168 0
849 -316 -1000 0
104 -301 314 0
775 -551 545 0
192 868 -459 0
-802 505 711 0
21 848 756 0
-594 699 -334 0
820 187 906 0
-377 155 840 0
273 685 640 0
-951 -785 80 0
-389 -212 -268 0
208 273 -197 0
162 931 -355 0
870 -853 610 0
-771 -631 832 0
-451 -77 76 0
-165 -155 343 0
982 -895 154 0
-742 -507 164 0
-804 -243 -983 0
-712 603 -996 0
912 -84 -766 0
432 384 823 0
-381 -553 178 0
674 -523 -318 0
-822 -904 210 0
-896 -573 -633 0
146 -44 -891 0
327 -202 -9 0
-470 126 544 0
-490 544 367 0
-422 -219 -207 0
142 -334 671 0
132 323 767 0
-821 -717 611 0
237 -361 349 0
-591 40 -468 0
-431 794 -285 0
-705 -780 -875 0
423 -478 -252 0
-794 369 -90 0
290 530 -895 0
-455 439 -102 0
732 -214 944 0
292 -502 421 0
258 -439 165 0
279 816 -673 0
-574 -834 845 0
929 223 900 0
254 416 241 0
648 -11 -873 0
-659 -397 -239 0
560 836 873 0
-792 960 366 0
598 -124 663 0
701 295 108 0
-129 554 538 0
893 -757 -592 0
133 -726 37 0
-753 230 791 0
387 -555 -268 0
-759 798 30 0
753 754 580 0
-644 508 -826 0
-295 -27 631 0
-453 -252 933 0
562 538 -512 0
91 -263 979 0
221 284 -622 0
718 289 241 0
-127 35 -935 0
721 -373 99 0
862 -823 -339 0
-984 67 149 0
-969 -688 -727 0
-613 -118 471 0
-515 -421 19 0
388 733 -202 0
-1 -908 -609 0
452 -108 95 0
816 194 -157 0
-349 809 297 0
538 -614 752 0
-257 -57 -918 0
453 -331 -309 0
638 830 -846 0
-158 -837 456 0
-108 554 481 0
484 250 -214 0
574 939 268 0
-150 300 72 0
-10 172 -862 0
-425 -33 -275 0
491 548 163 0
941 -78 -737 0
-837 121 815 0
-847 947 -216 0
-109 -507 140 0
-321 -495 869 0
34 -65 -833 0
388 -691 563 0
-71 830 -200 0
-316 49 -411 0
-995 -439 -104 0
-915 -852 -356 0
123 397 509 0
-929 -40 -676 0
-7 730 659 0
401 809 865 0
-40 -15 -500 0
-210 -3 -150 0
-625 124 -433 0
-360 893 -886 0
-52 -131 -804 0
623 -802 881 0
-834 -761 818 0
-408 -439 -304 0
-15 175 99 0
-291 -953 828 0
-827 -59 148 0
94 -24 728 0
143 799 54 0
-872 -423 640 0
297 -54 546 0
-578 -527 738 0
-352 795 242 0
-892 736 -759 0
729 -713 875 0
866 655 759 0
-286 168 -43 0
343 -275 526 0
131 302 466 0
-235 -795 837 0
-401 679 -513 0
103 10 43 0
243 -843 903 0
77 -189 -555 0
-435 -437 13 0
-818 574 907 0
470 459 410 0
-539 965 524 0
869 -519 444 0
-848 -984 942 0
435 485 242 0
675 648 -809 0
613 -68 240 0
314 776 -855 0
798 535 -364 0
-895 -471 -675 0
893 -83 -732 0
870 635 147 0
345 569 -584 0
-968 -206 810 0
-832 -627 -274 0
288 254 975 0
260 622 95 0
338 16 794 0
-609 808 20 0
828 -898 132 0
-145 322 270 0
827 -270 -127 0
-967 -394 74 0
-892 76 813 0
916 -967 20 0
895 737 975 0
-154 651 -74 0
-339 932 -494 0
-827 -565 -349 0
412 223 -99 0
104 829 -85 0
-198 -93 -873 0
-7 -968 650 0
-481 -701 -926 0
623 -88 -71 0
-664 595 651 0
242 -949 -260 0
-137 -880 -571 0
898 721 -491 0
172 972 234 0
382 -55 -539 0
148 -429 -160 0
364 -877 -201 0
-659 -845 371 0
887 -352 -596 0
-544 -778 342 0
-439 581 824 0
158 966 -908 0
-534 -89 729 0
-122 -839 753 0
19 -324 -360 0
672 -841 332 0
13 690 723 0
359 679 -117 0
-756 -124 -55 0
52 -630 521 0
-758 -658 126 0
-222 839 -230 0
39 -722 -277 0
-612 99 -269 0
199 -430 -726 0
-239 698 306 0
-322 14 296 0
774 635 -950 0
-28 336 47 0
602 -704 178 0
-627 620 623 0
-911 -918 -648 0
613 984 777 0
17 -837 -646 0
-814 535 -225 0
795 -676 77 0
-415 522 -629 0
-865 431 833 0
212 -188 -667 0
280 319 160 0
-229 -622 -779 0
-770 773 -962 0
-773 915 -884 0
-412 45 958 0
-44 -382 599 0
769 -901 -770 0
-270 404 212 0
-202 -80 738 0
66 994 -973 0
-545 -953 909 0
-217 375 102 0
408 312 551 0
-47 823 135 0
-991 -828 85 0
-823 960 -175 0
857 437 558 0
-414 -374 -665 0
539 519 873 0
172 -909 -369 0
-814 -45 -927 0
32 326 396 0
370 354 -309 0
-179 -175 374 0
-239 -42 317 0
765 -905 -417 0
-84 -836 -832 0
394 248 -879 0
300 -437 107 0
-432 -717 300 0
-845 -391 -242 0
-383 699 428 0
-63 924 -240 0
323 467 -296 0
-562 -758 -298 0
-577 993 924 0
101 -992 -839 0
104 389 -717 0
335 -231 -479 0
-33 996 847 0
839 887 69 0
982 -700 -529 0
328 522 213 0
464 -811 961 0
652 926 -254 0
-490 -369 -960 0
-934 -283 -978 0
-240 -393 -83 0
-807 -183 -399 0
822 -722 132 0
-872 158 641 0
-850 201 107 0
-125 872 -197 0
733 788 857 0
-897 262 -514 0
-352 -757 -179 0
-122 -235 -982 0
-317 587 -894 0
-496 954 -817 0
250 767 830 0
-990 500 769 0
431 165 -16 0
-642 -858 462 0
-1 192 235 0
982 691 -600 0
245 -146 264 0
65 130 -442 0
-163 161 -851 0
-436 595 791 0
559 75 686 0
-50 -364 -369 0
-274 561 -833 0
952 655 -268 0
-811 -39 616 0
992 -298 617 0
634 293 -831 0
-330 190 -724 0
-583 198 -950 0
-418 -599 -447 0
764 822 354 0
739 -592 -339 0
546 346 690 0
-245 464 -687 0
-83 -333 -718 0
-611 386 -766 0
574 -67 -230 0
846 -656 206 0
-117 -844 477 0
-939 215 -12 0
120 466 363 0
-61 -963 -700 0
56 -945 361 0
-221 -524 85 0
-663 -482 -986 0
-410 93 -218 0
636 -578 178 0
-144 -913 211 0
1 -544 259 0
902 -692 -114 0
272 990 487 0
-701 243 251 0
-314 9 -741 0
-373 504 674 0
319 618 -965 0
474 -580 -233 0
-222 117 -191 0
249 972 -6 0
791 591 116 0
-62 -978 -968 0
391 -648 -589 0
567 -113 214 0
334 -928 929 0
420 196 461 0
471 -361 398 0
841 681 362 0
-139 -953 -596 0
-798 717 -420 0
-518 -120 -754 0
-495 998 221 0
409 -120 56 0
254 -462 672 0
288 -83 -90 0
930 876 659 0
-802 -835 373 0
-966 636 572 0
-299 -132 -469 0
651 736 510 0
614 -754 285 0
-34 -801 -319 0
-169 615 448 0
975 314 874 0
-198 -857 447 0
-106 425 -726 0
530 -314 -964 0
-954 -322 575 0
-773 292 -299 0
532 485 900 0
377 -528 -708 0
-569 -118 -906 0
53 -774 -474 0
700 200 737 0
-490 -460 -331 0
-143 -588 959 0
385 894 -219 0
-462 -66 -183 0
419 132 199 0
146 -78 674 0
192 -362 672 0
431 -413 -774 0
-122 414 -869 0
-244 315 909 0
-129 -879 -747 0
-237 -580 843 0
-947 117 994 0
334 -634 861 0
-164 -52 -771 0
643 190 928 0
-522 970 944 0
355 -491 163 0
213 -410 -273 0
-494 772 -988 0
127 -341 -508 0
315 -591 -88 0
-855 -266 -611 0
511 -566 -218 0
138 976 -977 0
-505 626 -583 0
-305 -797 -367 0
988 -865 947 0
577 -195 885 0
-573 785 735 0
-225 -294 -826 0
321 243 14 0
-33 -282 925 0
-258 390 928 0
62 -525 981 0
339 218 254 0
266 933 54 0
-947 870 -222 0
-603 374 -653 0
581 935 -871 0
779 989 502 0
-258 823 799 0
-442 -261 -296 0
-443 873 86 0
-92 -738 -835 0
548 462 -135 0
-736 -518 -20 0
-448 -941 -206 0
86 987 -85 0
-234 899 636 0
355 909 -582 0
-215 721 -435 0
-670 -919 215 0
-702 -85 -838 0
-314 -333 -908 0
-809 -936 -545 0
485 -961 464 0
285 -696 -929 0
277 201 503 0
541 -490 343 0
629 268 243 0
456 -7 -827 0
290 -600 943 0
893 552 -389 0
537 -551 -11 0
-71 135 999 0
-314 -716 -81 0
-725 383 108 0
583 -655 -770 0
627 -666 -565 0
-854 673 -193 0
485 -13 -622 0
349 156 -921 0
-912 383 -408 0
741 -677 659 0
338 535 644 0
-87 551 89 0
-9 47 477 0
-903 628 -750 0
521 762 -926 0
614 739 619 0
631 921 -789 0
889 316 -838 0
-757 -219 -626 0
137 193 648 0
-944 -434 799 0
-4 234 447 0
-801 -425 798 0
-658 685 585 0
-538 795 -193 0
618 -295 980 0
-650 164 718 0
-432 807 -967 0
-979 137 332 0
-30 -956 -10 0
-95 -678 -836 0
412 -953 -396 0
161 -265 225 0
100 -136 -109 0
-238 -944 31 0
-638 254 -588 0
-306 -544 -507 0
-453 859 -845 0
-827 388 -432 0
36 -882 182 0
-242 -904 926 0
657 547 -923 0
193 117 146 0
-738 -464 730 0
763 -728 52 0
75 -217 548 0
-98 -192 -156 0
801 -571 -983 0
-389 352 460 0
482 87 -990 0
407 -741 -29 0
945 358 343 0
-138 52 -857 0
97 659 -731 0
-567 -444 -190 0
160 347 343 0
-551 -271 142 0
189 313 822 0
346 -679 579 0
-971 722 -215 0
-819 853 982 0
-232 -420 -16 0
995 743 239 0
329 299 607 0
390 985 274 0
-217 -40 90 0
603 167 -384 0
129 -973 -101 0
-565 -107 -616 0
703 513 -239 0
-630 -432 -281 0
-802 -950 99 0
439 -548 833 0
94 -772 790 0
281 -586 111 0
-663 -982 144 0
34 356 924 0
-822 37 125 0
-130 -167 914 0
498 126 -724 0
931 -497 -500 0
398 -324 -79 0
-97 -631 -774 0
27 311 188 0
-471 -18 518 0
650 -299 -616 0
403 -21 892 0
-639 -388 548 0
-648 -141 -363 0
-451 572 -628 0
-918 -433 -425 0
-837 -514 -766 0
528 -67 325 0
678 889 754 0
-894 385 773 0
-313 343 276 0
776 54 26 0
-895 -243 809 0
16 -537 715 0
-423 -914 -892 0
357 741 788 0
-382 -599 538 0
980 -24 -623 0
-410 -909 679 0
-572 969 789 0
-168 -678 -267 0
-662 -130 -925 0
-228 330 929 0
141 731 -940 0
-342 411 390 0
-12 -917 -639 0
116 -237 -789 0
628 270 -592 0
745 -409 503 0
355 192 788 0
146 -911 -786 0
-62 165 -55 0
-854 -341 -955 0
33 -268 583 0
695 270 -129 0
-379 -904 295 0
81 -911 -171 0
-622 -723 655 0
-190 239 568 0
-596 -30 193 0
52 -311 -385 0
-644 -978 -524 0
-503 37 -862 0
195 1000 333 0
-465 19 790 0
178 -119 -421 0
909 694 774 0
-630 601 954 0
789 38 -332 0
-56 -561 453 0
268 -74 201 0
518 -179 36 0
42 -327 -127 0
495 124 286 0
-355 -755 224 0
-915 -263 985 0
228 -504 -174 0
-8 999 -895 0
-914 342 -231 0
621 -408 777 0
-203 -488 858 0
320 316 -867 0
660 146 -851 0
-292 895 833 0
-769 922 500 0
-767 790 -405 0
-788 915 -697 0
-923 -161 403 0
-944 917 -232 0
540 706 -124 0
383 762 696 0
-761 558 406 0
693 -244 -175 0
-900 -96 -959 0
-629 383 -254 0
281 81 239 0
-559 892 -911 0
-748 53 -192 0
740 393 748 0
-145 810 985 0
85 -716 -141 0
742 426 -243 0
326 593 -551 0
94 -633 -560 0
194 813 -423 0
414 -885 -165 0
236 -634 843 0
-19 524 281 0
834 397 -754 0
-930 -433 -656 0
-384 -493 401 0
278 -147 777 0
-302 -274 132 0
-984 591 828 0
587 -592 78 0
717 -280 -191 0
-620 278 108 0
270 -345 192 0
-360 -50 101 0
-946 681 -22 0
130 78 -651 0
426 272 488 0
367 -531 -791 0
-331 597 175 0
-69 736 -30 0
263 -577 -610 0
289 -161 992 0
-727 -340 578 0
-201 289 -984 0
-912 824 -981 0
-197 -169 -110 0
-150 460 455 0
474 -233 -184 0
204 -170 299 0
-759 469 -509 0
234 322 -142 0
-788 -601 854 0
-736 -456 -962 0
-326 -596 68 0
-811 -455 913 0
846 791 -703 0
813 407 -306 0
-872 -426 -768 0
-217 664 -385 0
687 -72 380 0
198 193 904 0
204 726 -306 0
703 885 922 0
209 -975 -313 0
-130 -660 881 0
-2 -647 23 0
-363 532 621 0
546 903 373 0
-363 -223 478 0
-61 105 184 0
1 -316 35 0
715 815 -656 0
-199 -217 -522 0
-866 -318 -115 0
684 -2 603 0
310 938 -877 0
897 -137 -663 0
681 -941 -699 0
-988 -458 -377 0
-697 425 -808 0
215 957 -875 0
554 -198 -432 0
-612 -309 -248 0
995 -619 608 0
525 223 24 0
-444 -494 -246 0
-902 166 -18 0
532 640 -295 0
300 314 -474 0
282 -245 -235 0
63 -121 483 0
-270 184 862 0
578 340 -355 0
932 643 847 0
-733 -423 262 0
-682 620 859 0
311 -62 -284 0
455 607 -950 0
-889 706 45 0
919 -595 -236 0
-96 890 -385 0
910 -729 515 0
78 907 -115 0
559 908 180 0
-450 338 481 0
722 252 -413 0
-906 -232 -952 0
947 328 485 0
710 -295 -449 0
-826 -116 -21 0
169 711 -286 0
671 -729 -350 0
978 -522 -5 0
-413 -382 -594 0
301 690 -484 0
473 -955 -460 0
-781 136 -649 0
771 462 52 0
-581 -928 603 0
-593 -249 883 0
498 398 -284 0
-920 414 -160 0
80 -831 -79 0
301 -370 568 0
96 -674 -639 0
-124 -520 -959 0
896 -777 329 0
-609 269 -42 0
428 -433 376 0
-388 933 -469 0
162 -455 -112 0
987 -23 -127 0
89 630 -198 0
-652 -45 -807 0
-347 349 617 0
426 -543 471 0
-8 -882 738 0
-131 -54 -655 0
191 -772 707 0
416 -486 -986 0
723 479 342 0
-487 -776 425 0
62 732 -177 0
461 174 398 0
-368 441 422 0
686 -791 -542 0
659 -552 340 0
982 567 -737 0
-171 -207 -112 0
854 -748 675 0
-214 -507 926 0
-961 317 332 0
652 -503 -171 0
-124 611 -424 0
494 786 -552 0
682 -963 489 0
-109 -302 564 0
-953 -274 -332 0
-954 -343 248 0
348 -14 157 0
-724 634 -957 0
870 -493 983 0
-363 720 461 0
-679 528 -228 0
-304 216 -565 0
713 469 525 0
-175 -85 265 0
626 284 558 0
-735 -826 53 0
517 -861 -426 0
639 469 603 0
372 597 248 0
36 47 849 0
-84 792 322 0
-97 -668 114 0
-149 50 607 0
547 336 -198 0
266 388 845 0
72 -885 619 0
-753 -147 148 0
-379 945 283 0
292 -953 -810 0
-413 946 496 0
550 12 -883 0
442 598 -246 0
-691 176 588 0
600 -586 -693 0
76 122 -227 0
-566 503 -414 0
678 -124 -710 0
-628 -516 -884 0
-98 647 -776 0
-495 -52 -727 0
599 -497 946 0
917 566 884 0
924 -221 117 0
17 -991 357 0
-257 -196 -178 0
-713 646 360 0
-746 -989 -852 0
-566 390 -269 0
-207 -206 573 0
-736 -846 156 0
377 775 -869 0
-417 -270 -584 0
-212 320 915 0
807 -753 513 0
-565 -983 -706 0
-677 -419 610 0
-910 293 172 0
-142 410 701 0
817 411 -906 0
52 -66 347 0
-502 816 -1000 0
-388 -296 994 0
-935 913 576 0
-182 642 -584 0
-674 320 988 0
769 375 -278 0
670 989 -238 0
-749 106 -230 0
465 -494 -789 0
-774 -330 -546 0
710 268 -422 0
218 -214 189 0
-708 -587 359 0
-884 792 281 0
-962 -336 204 0
-352 282 784 0
-993 790 186 0
-803 -538 639 0
-3 -878 19 0
-413 819 -956 0
219 -592 740 0
716 705 641 0
922 408 -404 0
-232 -127 -537 0
170 240 905 0
844 596 297 0
774 149 87 0
907 492 -711 0
495 131 -774 0
-794 690 -317 0
-517 309 107 0
590 -585 -748 0
-271 107 -14 0
906 204 165 0
501 -444 330 0
911 -822 5 0
-591 948 376 0
-702 -52 -519 0
515 -635 523 0
937 -888 -562 0
862 916 -680 0
-349 428 -75 0
806 -186 -371 0
-482 -159 447 0
841 -969 116 0
238 -974 -740 0
882 384 358 0
521 918 294 0
865 1000 -700 0
910 -922 -59 0
729 -399 94 0
-500 480 488 0
-356 771 -363 0
461 -566 478 0
376 -693 -468 0
-184 -416 401 0
823 -679 -862 0
698 -617 -376 0
769 -678 -903 0
-48 655 742 0
-891 -871 176 0
145 -11 -625 0
485 -627 448 0
-352 604 -783 0
724 -406 150 0
881 477 342 0
353 327 56 0
154 576 -545 0
975 -710 -173 0
926 -430 377 0
-94 -704 376 0
-425 9 -99 0
97 -405 925 0
489 -799 248 0
406 915 -237 0
-997 22 700 0
642 -760 -92 0
-129 -331 654 0
-378 -456 633 0
41 495 986 0
543 -287 -16 0
660 -323 614 0
-735 -821 -728 0
117 -82 -446 0
780 84 -613 0
-180 902 -547 0
749 306 331 0
842 -507 -990 0
602 -49 -9 0
605 -688 105 0
-745 555 -748 0
432 713 -392 0
-523 382 163 0
489 -379 -455 0
814 801 301 0
-297 378 520 0
-828 869 -873 0
655 -652 815 0
-169 -244 -401 0
-912 486 60 0
491 912 -120 0
-193 277 978 0
593 992 161 0
153 12 -708 0
705 -995 -954 0
659 -392 164 0
950 501 -391 0
-495 315 353 0
-205 907 311 0
-865 181 207 0
-12 -245 543 0
196 -767 610 0
47 -172 -993 0
-516 -82 493 0
675 312 961 0
-934 319 62 0
-816 245 477 0
284 857 -256 0
-672 840 -701 0
96 916 -133 0
290 435 916 0
-664 937 313 0
174 -124 502 0
955 434 -199 0
-253 -969 589 0
-421 -33 -894 0
-875 427 -338 0
860 798 -1000 0
232 -552 277 0
-764 -753 500 0
545 39 -288 0
823 372 -506 0
420 -592 115 0
90 301 -705 0
-874 -636 -405 0
856 611 -565 0
-364 916 816 0
-43 -227 93 0
202 -442 -613 0
437 -160 900 0
172 -388 -851 0
-283 -60 471 0
-175 -939 -48 0
-523 876 305 0
787 -983 810 0
-113 337 -457 0
313 -94 923 0
-905 133 988 0
-598 -614 -333 0
182 376 935 0
80 -405 -545 0
-113 -984 -89 0
-137 900 963 0
-307 605 -117 0
212 -975 116 0
-363 -367 -160 0
64 -956 192 0
-913 890 340 0
601 144 766 0
-881 -34 96 0
166 242 -219 0
920 486 805 0
297 899 -8 0
73 -415 -589 0
-995 909 218 0
-854 979 -265 0
-452 159 754 0
237 -524 925 0
924 -929 -350 0
214 -480 102 0
581 -262 -356 0
-974 151 923 0
-581 20 -652 0
633 -924 -116 0
68 1000 -153 0
503 -906 780 0
769 438 937 0
-315 251 -25 0
273 40 -386 0
322 341 -986 0
-455 228 -344 0
541 781 867 0
324 436 -636 0
-767 435 468 0
-381 671 -788 0
940 -848 392 0
296 19 770 0
12 377 -68 0
175 73 -151 0
815 -730 783 0
-667 -274 -351 0
-596 -387 934 0
-11 -913 -50 0
553 875 6 0
-899 133 5 0
827 -32 -697 0
279 623 284 0
-453 -934 928 0
-112 -467 983 0
206 -264 460 0
-760 -761 188 0
-719 -485 767 0
-421 112 581 0
-283 -865 -703 0
-689 545 356 0
-663 -971 540 0
508 359 308 0
8 -727 -357 0
370 716 853 0
937 100 -723 0
306 -541 185 0
-945 163 464 0
-822 233 -229 0
-250 -825 -735 0
-361 958 -303 0
477 -387 -242 0
5 -111 748 0
266 -871 -727 0
683 471 851 0
408 55 681 0
50 501 317 0
198 -332 92 0
427 46 -89 0
-67 -233 919 0
617 313 764 0
-21 -300 89 0
-633 221 -37 0
455 812 -371 0
720 521 962 0
-997 -57 -304 0
915 -108 669 0
-647 948 957 0
767 -956 -763 0
947 465 481 0
-343 -965 -869 0
-110 9 198 0
-323 580 871 0
-868 -778 -164 0
-457 -232 -136 0
454 -509 -984 0
-803 -56 -495 0
-413 -214 -744 0
674 -850 -641 0
919 340 297 0
822 -279 882 0
900 -151 219 0
-930 -522 -885 0
-161 572 979 0
700 -44 -946 0
-734 504 -917 0
835 377 -537 0
-395 447 -704 0
848 763 88 0
-235 656 898 0
-712 837 -828 0
-565 9 -598 0
527 -438 -867 0
982 453 -393 0
-552 660 -903 0
-209 -509 -673 0
375 610 -230 0
-511 860 -573 0
-905 997 -429 0
873 -583 -467 0
-332 529 -768 0
124 347 -956 0
-886 326 959 0
-150 -326 762 0
510 -639 -120 0
781 982 334 0
-604 328 -839 0
-278 406 -470 0
-633 325 409 0
-428 602 -55 0
816 602 -491 0
-904 82 715 0
773 779 -879 0
-235 -911 600 0
235 890 975 0
-786 345 -854 0
99 -793 -479 0
-617 191 -777 0
-356 -159 -565 0
-809 166 16 0
988 301 999 0
-610 -740 -436 0
-580 -625 405 0
468 -360 -261 0
-250 101 568 0
-105 -316 -482 0
446 -773 -111 0
-591 479 59 0
456 685 900 0
257 186 -822 0
848 411 -260 0
677 596 -952 0
-498 -451 794 0
-753 -199 -791 0
589 550 418 0
-179 -317 483 0
-361 455 738 0
-596 -25 -166 0
26 643 61 0
-94 -49 -59 0
-104 505 354 0
932 828 89 0
158 -44 -717 0
-133 -558 275 0
461 -775 869 0
183 538 -257 0
-289 995 -434 0
-442 -413 -217 0
-469 931 -817 0
408 -394 918 0
476 668 -999 0
-89 -777 -274 0
-86 356 784 0
-375 -426 -993 0
38 -459 249 0
-179 -285 -65 0
273 -466 -82 0
768 -607 -112 0
-791 -788 -739 0
775 -231 -708 0
-214 -52 767 0
540 885 -850 0
184 125 188 0
-813 858 -782 0
-29 -675 258 0
399 239 929 0
-450 377 749 0
-490 474 313 0
398 -60 -351 0
-616 322 -1 0
-285 -353 -787 0
26 41 891 0
94 -80 -386 0
-660 -803 -80 0
804 -826 -446 0
740 -788 -612 0
752 511 -524 0
461 163 -739 0
-180 -826 634 0
-588 -57 -440 0
-801 525 -112 0
-480 53 457 0
-525 562 -415 0
60 268 -284 0
475 833 -676 0
-168 -66 -768 0
-156 -978 -403 0
744 239 -408 0
-367 -517 68 0
436 431 937 0
567 802 268 0
-458 493 734 0
-578 521 228 0
335 -678 -35 0
-559 -369 -512 0
426 -890 741 0
707 -240 -88 0
99 -865 461 0
-758 -636 310 0
-759 -489 -56 0
-169 451 -808 0
-99 -397 -259 0
-603 -681 282 0
-901 -938 -550 0
-560 437 -943 0
689 -688 73 0
174 -545 -734 0
-458 -175 -738 0
659 -878 -991 0
-615 -116 704 0
65 289 -267 0
-479 5 784 0
-759 536 -296 0
-609 -788 242 0
-91 734 -458 0
275 -660 -486 0
-190 -61 411 0
-226 -633 676 0
-327 940 -191 0
799 -767 499 0
950 -468 -946 0
-420 -60 -454 0
393 670 -67 0
356 769 -234 0
-931 -456 -230 0
-708 -466 904 0
-116 -825 -414 0
723 366 810 0
888 725 -431 0
-369 929 136 0
963 -985 -690 0
-794 -421 725 0
112 -34 659 0
981 69 253 0
-950 -701 789 0
170 140 66 0
-541 -404 878 0
522 968 -498 0
748 272 -669 0
-818 -467 -984 0
-836 143 -795 0
-672 -695 321 0
-735 -948 -899 0
-4 350 388 0
-453 391 -363 0
165 931 -270 0
687 -304 432 0
-618 797 -792 0
-911 -472 942 0
-304 -268 -573 0
622 677 659 0
552 377 -725 0
431 703 -398 0
885 -253 -294 0
727 977 295 0
127 264 57 0
940 -283 943 0
-566 -794 -2 0
-429 464 155 0
193 563 -921 0
-677 -650 932 0
-956 -907 -353 0
-962 721 644 0
195 -891 -648 0
808 892 -900 0
978 238 516 0
-476 -287 189 0
764 -479 235 0
516 675 -57 0
55 -320 244 0
827 -371 -495 0
-999 125 353 0
-451 -427 -327 0
373 -216 686 0
269 718 299 0
544 455 -220 0
554 -412 -672 0
-145 -99 59 0
338 -29 140 0
672 129 55 0
-520 -20 -799 0
-69 -495 -596 0
14 -948 517 0
707 164 -362 0
293 385 -659 0
402 -257 624 0
-720 706 91 0
381 -175 -944 0
414 -998 -851 0
136 987 465 0
-479 124 939 0
616 -776 -891 0
812 -822 419 0
956 -688 -195 0
227 296 -464 0
-714 -110 144 0
-532 -137 -230 0
-975 -809 823 0
660 -395 -700 0
253 -60 394 0
-553 -546 469 0
-823 -704 291 0
884 -766 695 0
60 -23 355 0
-876 -807 -535 0
-247 -382 130 0
-281 437 523 0
227 997 -412 0
442 -23 -283 0
580 -263 -346 0
258 -225 -704 0
-543 870 442 0
792 -485 708 0
-93 3 56 0
-641 -668 102 0
-346 671 477 0
-494 -394 337 0
-964 220 614 0
979 437 137 0
401 -407 164 0
-209 -756 289 0
761 -661 748 0
630 -472 199 0
-243 -554 862 0
-241 -150 27 0
725 192 -608 0
-185 -248 -642 0
847 2 240 0
-30 -327 -474 0
828 623 -396 0
-108 224 907 0
917 -378 842 0
-747 -848 -676 0
-672 -345 839 0
-829 725 -513 0
-251 636 -754 0
-811 -211 122 0
-717 -848 -774 0
-945 -369 -706 0
123 -220 590 0
-959 695 -414 0
-802 -312 -390 0
-846 677 121 0
617 -297 635 0
612 212 -66 0
-493 803 -404 0
-458 87 10 0
-122 -840 -460 0
109 795 676 0
606 -755 517 0
-611 56 499 0
-655 -941 296 0
-252 -168 652 0
-284 476 -348 0
-537 -468 -897 0
809 -469 678 0
358 60 99 0
-215 -974 985 0
861 -995 -581 0
-727 127 -959 0
2 -926 506 0
854 -400 558 0
-360 -258 853 0
91 -619 471 0
-237 773 299 0
-602 -326 109 0
356 -860 598 0
421 -55 -412 0
-680 -134 -702 0
768 464 -380 0
-689 924 -86 0
-650 283 451 0
207 -512 -976 0
331 -55 285 0
-983 -143 790 0
78 -17 737 0
420 -615 181 0
782 -732 -959 0
-567 461 804 0
18 94 -917 0
867 166 -236 0
-454 333 600 0
601 -832 317 0
-981 506 460 0
359 -963 836 0
-710 -683 -930 0
-319 -579 -480 0
-487 824 946 0
756 837 -773 0
642 132 -649 0
986 544 972 0
-48 -467 -109 0
534 -921 -641 0
601 -252 508 0
742 -538 434 0
-977 -841 755 0
-150 -6 64 0
-547 149 -338 0
860 678 -702 0
7 -827 129 0
-750 -216 98 0
-98 -535 -40 0
641 981 299 0
-72 -764 -416 0
323 15 587 0
-178 3 -784 0
-514 -732 705 0
-779 717 253 0
-835 -187 314 0
361 66 391 0
706 -83 161 0
-373 -4 3 0
-846 -359 957 0
230 -47 706 0
925 -516 -116 0
-147 -758 -104 0
-284 -410 -201 0
312 -135 696 0
212 709 -455 0
-373 400 -53 0
-122 -62 -849 0
477 706 573 0
-198 785 -92 0
312 125 611 0
298 740 382 0
-725 -519 -243 0
454 -658 -293 0
734 -368 752 0
-239 -344 973 0
-365 37 -988 0
-541 -142 126 0
619 801 -83 0
237 425 -305 0
-770 331 -310 0
174 -397 -673 0
736 703 874 0
-376 -385 900 0
86 242 -200 0
684 -789 -307 0
778 863 285 0
-733 -526 -9 0
515 -835 920 0
769 -288 -867 0
174 366 563 0
174 154 -135 0
-521 -704 152 0
-925 870 -221 0
-213 -511 -229 0
-437 541 484 0
-174 363 548 0
734 -299 -861 0
-180 -695 -843 0
-129 -171 652 0
-61 502 -143 0
-286 -139 211 0
961 80 -517 0
487 -639 -490 0
-329 -487 -348 0
-698 285 -695 0
-431 -363 120 0
-283 164 506 0
535 -332 334 0
292 505 -100 0
-627 805 736 0
-955 355 -238 0
766 840 -614 0
-486 -628 -24 0
-214 -175 -669 0
486 97 507 0
643 371 140 0
170 -814 791 0
702 391 -753 0
969 800 847 0
225 774 455 0
787 665 -83 0
-914 -461 570 0
598 360 710 0
863 -66 131 0
-139 -792 816 0
-848 -844 113 0
647 -541 -968 0
-54 -305 225 0
-364 -702 261 0
-634 -147 15 0
260 -244 -760 0
482 -712 825 0
-668 246 -372 0
697 -694 -909 0
-529 124 -263 0
455 729 560 0
-953 -548 -738 0
-973 357 5 0
406 950 544 0
893 483 956 0
-855 625 521 0
8 -524 958 0
-831 -210 -173 0
-6 457 -282 0
-754 -268 687 0
130 -748 -894 0
-468 630 -878 0
-836 -978 781 0
-728 347 651 0
965 622 -894 0
708 -125 741 0
-703 764 -467 0
-267 637 -905 0
-291 -462 346 0
133 -283 -430 0
-255 -310 598 0
-690 -609 826 0
217 417 270 0
379 -982 89 0
332 578 680 0
640 330 -170 0
80 185 225 0
751 -657 547 0
-548 72 90 0
547 185 84 0
55 -842 906 0
251 -71 -437 0
-684 805 -901 0
-640 -190 384 0
50 -59 -951 0
76 -503 328 0
42 683 453 0
485 -861 -329 0
-881 -730 -246 0
293 861 -344 0
447 252 -222 0
677 -20 -809 0
116 489 -958 0
-257 899 89 0
-58 529 130 0
285 207 718 0
-378 -100 -187 0
969 -384 860 0
-474 162 -781 0
479 -389 404 0
-442 330 -722 0
168 169 200 0
168 440 838 0
-932 279 35 0
962 859 822 0
469 -60 -731 0
400 -901 -308 0
579 -614 539 0
-146 944 -673 0
820 -649 -938 0
-288 81 -907 0
405 155 121 0
-351 246 721 0
-360 992 91 0
-193 39 -577 0
133 458 346 0
498 820 -673 0
-661 -370 353 0
667 -91 -242 0
791 -676 -298 0
-687 -997 1 0
243 -747 756 0
89 605 -816 0
502 337 -307 0
-166 475 -970 0
99 -755 -574 0
840 681 490 0
-190 749 -642 0
-198 -12 146 0
232 -578 -506 0
829 96 986 0
-894 855 858 0
554 -681 -637 0
-46 228 258 0
-232 318 297 0
-785 -347 -810 0
-910 -932 -934 0
-119 681 21 0
-85 641 -649 0
723 -16 332 0
-416 863 -852 0
668 973 -440 0
907 695 687 0
573 -113 263 0
-79 736 -148 0
657 -905 183 0
-767 920 341 0
675 259 839 0
478 828 -839 0
503 -442 879 0
570 825 -574 0
418 652 -427 0
-100 -200 -865 0
-957 -115 -237 0
-635 684 201 0
-355 277 -282 0
807 533 -624 0
-487 676 961 0
173 42 -541 0
-713 -950 597 0
-268 357 -196 0
117 786 -440 0
92 417 -752 0
-864 623 -947 0
153 -361 -99 0
-922 636 -41 0
-415 -463 234 0
667 -131 -37 0
290 850 -99 0
779 318 813 0
-10 -457 -314 0
-499 -777 640 0
-317 -120 -700 0
-266 611 890 0
837 -902 -353 0
310 -991 34 0
-31 -136 551 0
107 256 -242 0
837 -285 618 0
233 -724 910 0
718 -705 -692 0
-817 147 623 0
997 -549 -346 0
773 69 -563 0
746 -149 373 0
-709 803 685 0
-406 -69 733 0
-943 173 -103 0
606 -862 -46 0
-226 -634 -584 0
431 40 -291 0
-113 -166 437 0
-56 143 992 0
514 625 -151 0
475 -787 -104 0
-457 842 -289 0
425 792 159 0
-234 -979 186 0
203 559 -72 0
979 -861 597 0
203 -745 -572 0
-522 596 -580 0
-312 964 -163 0
792 -695 -978 0
158 -382 935 0
800 -3 885 0
214 -316 121 0
-532 813 -196 0
149 357 -800 0
298 926 267 0
-588 -978 -505 0
-544 -90 -82 0
-672 485 274 0
-158 889 927 0
-257 -454 -835 0
-626 -920 -128 0
-73 -540 214 0
-187 587 650 0
-371 -836 -169 0
-529 429 602 0
5 618 -677 0
-465 178 -153 0
647 133 328 0
-807 87 -169 0
-803 -887 -683 0
-529 -116 337 0
-957 764 416 0
-258 201 875 0
-397 -704 -138 0
-994 78 -295 0
18 796 -401 0
266 -407 -175 0
884 -990 285 0
-795 -957 624 0
827 923 861 0
496 -127 997 0
987 -539 -928 0
49 -331 -416 0
-186 560 959 0
-487 -397 -482 0
-65 -621 927 0
752 -941 43 0
964 722 444 0
-14 429 953 0
-550 -489 -62 0
-114 -289 -609 0
-888 532 870 0
207 -403 283 0
-602 40 -292 0
323 -56 -683 0
-502 501 646 0
-965 581 -721 0
695 -321 -520 0
-711 -979 -93 0
-120 -74 -823 0
900 -44 -744 0
466 -587 432 0
-996 -44 444 0
644 704 -829 0
262 832 -146 0
652 701 137 0
651 928 -593 0
965 690 -140 0
642 340 -881 0
739 -884 909 0
25 830 -335 0
14 739 -548 0
847 -439 88 0
621 -912 -333 0
-450 52 -341 0
-319 -661 -529 0
287 125 -332 0
228 -747 669 0
539 323 137 0
-805 -471 -944 0
996 680 61 0
-586 157 31 0
-494 397 75 0
-248 873 680 0
696 232 -283 0
212 -613 886 0
562 25 -50 0
121 451 -917 0
672 306 633 0
-572 455 121 0
293 -502 -11 0
645 738 401 0
-564 840 -3 0
231 -139 412 0
-562 18 245 0
-416 592 -384 0
-116 -482 908 0
-111 -617 137 0
430 -122 -120 0
521 -565 -161 0
674 732 -176 0
914 -864 886 0
563 -268 -979 0
-791 593 -834 0
-84 530 -678 0
583 803 85 0
-748 344 -757 0
-701 336 747 0
-700 -777 -847 0
24 -288 612 0
-424 109 -951 0
110 807 -880 0
41 598 118 0
974 621 -13 0
262 -75 -275 0
-852 -54 -922 0
450 -205 975 0
-617 455 650 0
530 -964 -706 0
814 -581 -185 0
458 142 156 0
275 -298 -628 0
-164 -101 478 0
509 -645 -594 0
967 323 216 0
-639 -54 -981 0
-673 17 45 0
148 43 -172 0
-267 119 736 0
399 213 -580 0
168 269 191 0
539 -130 709 0
504 93 760 0
-130 612 -519 0
484 541 -330 0
498 247 733 0
160 -998 373 0
-707 460 586 0
659 -27 67 0
-752 -183 -504 0
-804 -48 245 0
82 809 -263 0
200 -285 787 0
379 185 -66 0
-29 667 217 0
-548 -487 -185 0
-281 -811 185 0
-967 -707 -326 0
-915 -749 -260 0
319 63 547 0
-60 -840 524 0
-786 903 29 0
-434 526 -448 0
206 -808 459 0
-304 -751 -561 0
-82 -684 191 0
-782 580 -373 0
663 -610 -752 0
381 371 466 0
-332 -163 -441 0
-649 -643 -123 0
-444 -216 -700 0
50 77 888 0
852 884 416 0
145 89 980 0
-605 32 367 0
-319 -819 263 0
-240 -209 -577 0
212 920 -960 0
107 740 663 0
136 220 -389 0
523 -853 544 0
-130 -229 484 0
-287 -257 -399 0
-240 -773 814 0
-374 730 -46 0
-420 64 -622 0
857 968 -758 0
-899 -302 -965 0
547 -344 502 0
-134 -25 729 0
-363 -328 -507 0
994 962 528 0
-145 -501 -888 0
-947 935 -702 0
743 -140 -787 0
-842 238 565 0
322 -111 646 0
979 83 -562 0
851 -370 575 0
570 -265 -827 0
-857 -740 702 0
-308 -262 144 0
-272 -616 2 0
-28 -670 202 0
-542 925 48 0
-587 -12 627 0
710 -331 -332 0
-951 905 -208 0
217 -146 -422 0
593 910 -102 0
-708 -877 -731 0
-136 -432 478 0
-135 876 -120 0
-978 -759 -551 0
-847 187 -698 0
-563 48 -970 0
777 -56 -515 0
800 535 -892 0
-665 541 553 0
-792 254 672 0
-657 -664 823 0
408 -705 -218 0
509 -587 121 0
785 -706 -525 0
281 887 -147 0
-525 551 -269 0
-29 345 142 0
-726 -714 681 0
-612 494 220 0
-546 521 805 0
-268 894 765 0
-605 -797 -983 0
76 -644 350 0
472 -749 978 0
2 312 -723 0
689 349 798 0
-936 -907 -618 0
-853 880 989 0
-923 354 996 0
-304 317 24 0
-292 -508 -640 0
847 -252 413 0
-998 -574 -50 0
-577 716 448 0
-164 706 420 0
795 -869 8 0
-577 -396 738 0
-643 176 -852 0
354 749 507 0
-279 415 -292 0
-904 43 -542 0
494 -30 -543 0
252 -764 834 0
508 -413 904 0
-105 -649 -452 0
953 -443 -310 0
247 -131 -613 0
708 -949 396 0
-9 280 -737 0
708 876 76 0
377 -434 -395 0
-646 324 744 0
-970 327 487 0
851 -692 471 0
-31 -242 254 0
930 -979 283 0
161 701 -582 0
-477 238 -949 0
-482 779 650 0
193 177 -465 0
-503 -221 -800 0
878 324 853 0
996 114 578 0
667 319 161 0
-619 248 -874 0
144 954 839 0
-951 846 -31 0
217 550 228 0
-167 804 -23 0
-254 -656 687 0
748 -678 654 0
291 -497 851 0
632 -497 -134 0
-124 -315 693 0
-368 673 651 0
-978 855 400 0
407 -923 -22 0
-872 -878 -341 0
101 -664 992 0
-402 630 -775 0
565 -167 79 0
473 -663 -434 0
499 -486 -441 0
607 612 855 0
278 706 -951 0
-914 434 813 0
474 -382 -162 0
635 -682 732 0
821 76 399 0
-23 -540 -905 0
924 260 868 0
205 413 771 0
-437 -657 996 0
-662 -850 -119 0
-495 623 986 0
-654 93 801 0
-667 295 93 0
-203 589 -424 0
80 -231 542 0
-418 438 -277 0
-69 995 -975 0
-653 538 -188 0
641 110 -139 0
-967 3 823 0
-727 751 659 0
-135 -708 -662 0
-677 766 597 0
-824 958 106 0
358 973 797 0
-999 35 -957 0
-2 805 8 0
887 -720 -63 0
-363 820 -293 0
628 990 867 0
829 839 115 0
58 -835 548 0
938 434 -632 0
366 -681 925 0
98 -550 -273 0
-601 320 -536 0
-707 107 590 0
-999 -504 300 0
-775 -455 -132 0
306 569 -229 0
906 -103 783 0
948 -825 -909 0
41 499 647 0
5 -896 -115 0
-449 992 471 0
973 -55 -91 0
-411 786 510 0
806 411 -693 0
-544 302 -374 0
698 -77 -780 0
194 371 -914 0
783 862 276 0
288 559 134 0
409 999 -71 0
862 690 -284 0
615 685 -944 0
262 -877 235 0
400 425 877 0
702 904 303 0
616 -69 882 0
726 511 667 0
522 -654 -69 0
-257 503 -263 0
-822 471 933 0
-7 -251 -712 0
774 -252 395 0
668 859 -212 0
-546 -502 959 0
-494 -461 274 0
-986 -412 733 0
-318 -344 251 0
939 -328 -167 0
42 422 635 0
-287 -784 900 0
293 -55 914 0
-756 -378 -19 0
-355 954 -225 0
708 998 -441 0
168 571 223 0
-15 -815 252 0
-897 -835 223 0
-828 -598 402 0
644 -65 116 0
273 650 -347 0
-15 -652 -359 0
870 -416 275 0
635 -108 -350 0
813 -24 720 0
932 885 -457 0
-669 -547 351 0
-177 -716 263 0
386 825 -62 0
241 690 -201 0
-233 78 -334 0
-853 104 -388 0
967 -312 631 0
537 -87 180 0
897 322 448 0
-449 -4 -365 0
-173 -420 -196 0
2 464 522 0
-406 100 -469 0
-609 -58 985 0
-725 -233 -520 0
-52 -911 -266 0
942 810 288 0
-176 725 981 0
-715 844 71 0
-552 90 -843 0
322 -5 852 0
914 725 -10 0
721 441 498 0
-707 -462 432 0
-447 531 664 0
534 -760 473 0
-544 -660 870 0
-207 850 616 0
-222 191 -628 0
261 -800 -321 0
-607 168 724 0
-296 758 -461 0
658 -710 821 0
-569 423 -824 0
-135 -203 -311 0
-271 -305 269 0
-46 -219 221 0
-670 251 445 0
-136 751 258 0
-272 -685 -224 0
-194 280 923 0
370 -492 668 0
-375 578 -71 0
-794 857 -139 0
373 -946 -450 0
380 87 -522 0
-513 34 -680 0
-655 -907 631 0
-20 -184 680 0
579 215 430 0
645 -428 -976 0
-945 -422 -136 0
-174 -162 -972 0
-607 -22 -605 0
416 -608 919 0
847 193 770 0
-503 -789 919 0
468 266 469 0
476 -710 60 0
905 184 224 0
-28 87 390 0
-479 -392 570 0
-222 536 236 0
18 641 -277 0
890 -550 685 0
-752 -597 70 0
280 -937 41 0
-721 -923 184 0
336 904 -531 0
-574 49 497 0
-170 -379 725 0
-466 -882 647 0
126 -922 169 0
221 986 443 0
746 471 -617 0
457 976 718 0
-477 509 -970 0
259 -454 58 0
-859 988 309 0
821 122 -180 0
-773 961 -282 0
-550 -393 -66 0
957 -730 952 0
-954 406 328 0
351 603 -967 0
-249 680 -218 0
486 821 574 0
-62 -496 -331 0
-135 799 794 0
391 -291 -279 0
62 227 807 0
339 -744 -527 0
-675 457 783 0
480 509 -178 0
-924 -748 -344 0
575 276 673 0
-448 -38 796 0
-305 -631 -121 0
-46 62 -344 0
-904 -139 437 0
39 -68 -872 0
-135 -9 -889 0
-817 -473 162 0
597 998 -637 0
533 421 -400 0
-294 -477 100 0
29 478 -331 0
-648 641 -674 0
251 -393 943 0
343 612 873 0
-949 -308 -464 0
-940 -283 95 0
-550 -17 688 0
812 -833 -246 0
-37 -246 -805 0
-130 299 -650 0
857 -210 184 0
597 632 -354 0
-407 378 28 0
-454 -346 736 0
-160 397 619 0
724 -731 794 0
-810 823 -613 0
-551 -678 -137 0
-8 -126 -365 0
-38 -111 615 0
-86 7 -288 0
-847 358 14 0
-264 166 997 0
-729 812 573 0
519 -242 -109 0
109 -599 -835 0
651 -94 -347 0
796 801 117 0
93 -913 -917 0
800 -537 -41 0
-884 -754 388 0
318 859 -781 0
-491 350 8 0
878 -778 978 0
631 -596 -339 0
-285 -120 696 0
-274 685 -541 0
821 346 677 0
-323 787 149 0
-436 894 264 0
-188 -441 -45 0
-388 135 811 0
-244 510 -480 0
434 607 708 0
193 -420 356 0
67 468 705 0
-593 -665 465 0
-790 -144 641 0
455 -415 -604 0
868 -325 417 0
171 202 -404 0
-920 -17 -978 0
77 384 -158 0
-836 882 -796 0
752 815 -168 0
915 -927 890 0
479 -594 505 0
-836 874 724 0
-909 867 987 0
940 -941 521 0
-483 10 485 0
738 609 -705 0
191 494 108 0
94 62 455 0
129 -967 -50 0
-290 434 -447 0
-311 314 881 0
294 577 -554 0
760 583 -121 0
-615 -600 298 0
-484 838 -259 0
922 -433 484 0
721 -776 246 0
-406 514 -50 0
-872 -35 749 0
326 -697 176 0
856 -880 -380 0
-733 -555 188 0
900 707 -615 0
869 573 756 0
101 -880 -529 0
-397 -396 104 0
918 321 745 0
23 843 -717 0
-482 968 -663 0
265 525 -111 0
242 -31 854 0
-367 816 319 0
136 -450 399 0
14 841 -533 0
-735 212 -196 0
154 -104 417 0
-991 -572 -934 0
-402 -537 -496 0
503 302 -439 0
-482 61 -788 0
826 -354 -517 0
-464 870 842 0
887 297 -447 0
452 514 -800 0
-798 71 -971 0
-513 667 15 0
-947 -631 944 0
727 -471 -305 0
-479 -32 188 0
575 -922 -48 0
-856 -720 590 0
-849 764 -888 0
-665 785 570 0
764 -193 588 0
6 943 634 0
-372 484 -943 0
821 -33 -823 0
-694 975 297 0
841 -69 919 0
-798 -198 -994 0
55 -515 955 0
-719 349 -997 0
-278 762 -526 0
-834 461 -710 0
-408 -753 384 0
687 -948 54 0
433 -322 -411 0
502 196 -476 0
-880 122 -71 0
-321 882 -885 0
252 649 -720 0
-713 -513 208 0
-877 -971 734 0
-849 -965 -795 0
1000 921 549 0
-833 -696 706 0
505 184 -743 0
-103 402 -572 0
352 -998 -579 0
532 -140 -874 0
275 252 -696 0
831 195 -465 0
-968 -215 -882 0
-43 428 -455 0
24 -165 166 0
987 -770 339 0
-688 -680 -771 0
-404 -497 -956 0
-265 24 33 0
986 -343 955 0
904 -860 370 0
812 -680 -225 0
-967 679 766 0
-644 492 694 0
11 -437 -156 0
94 -836 93 0
530 561 403 0
-714 -202 229 0
-34 182 177 0
936 -127 -419 0
-321 -542 225 0
548 -588 517 0
-266 -805 -106 0
-573 -379 -367 0
181 -607 994 0
-252 -946 -77 0
-690 -157 -599 0
-357 -187 -275 0
-642 73 153 0
526 81 941 0
145 328 645 0
527 2 121 0
657 -316 844 0
473 685 -941 0
945 -412 510 0
-233 -52 -244 0
-357 -2 84 0
-40 -258 823 0
97 -371 -618 0
-128 999 -736 0
99 432 -65 0
-936 -70 877 0
-829 -849 -462 0
-462 -208 -184 0
561 118 -329 0
-510 -59 -911 0
245 -226 471 0
-742 -950 -8 0
-477 -123 -927 0
492 380 982 0
253 -972 -501 0
-131 979 296 0
25 -887 401 0
-860 986 -379 0
-600 941 663 0
559 765 182 0
-49 630 -159 0
-292 545 534 0
920 24 179 0
-235 631 -525 0
15 -620 -611 0
865 230 -374 0
144 173 -254 0
424 607 -18 0
681 307 -196 0
-174 -935 -346 0
-535 -387 248 0
-212 237 -594 0
-929 -242 -99 0
334 -498 392 0
727 -412 245 0
-814 749 506 0
-578 979 -546 0
241 -839 568 0
-57 733 -728 0
-209 -380 -255 0
-707 115 980 0
675 23 564 0
39 450 -989 0
959 151 -508 0
102 -280 657 0
855 -574 793 0
837 864 -327 0
388 304 343 0
-289 -579 -25 0
401 154 926 0
671 -443 941 0
176 -697 626 0
-169 -815 542 0
-279 -448 -359 0
154 544 -193 0
907 680 821 0
982 92 599 0
-356 179 -996 0
974 358 436 0
-459 147 858 0
737 348 463 0
-794 68 572 0
-641 821 -548 0
910 -601 -690 0
343 -733 -328 0
-960 530 514 0
275 416 -442 0
-846 -711 -108 0
-983 -407 335 0
22 -995 952 0
-201 998 -183 0
-583 -610 969 0
-806 -958 449 0
523 962 -944 0
-553 -485 -708 0
-572 -540 949 0
529 962 -524 0
686 -788 743 0
754 134 -748 0
529 -852 -149 0
-212 953 994 0
246 681 -704 0
317 -384 -79 0
-742 -444 600 0
-909 676 -455 0
-386 917 575 0
-309 621 -362 0
-322 94 423 0
767 449 485 0
659 517 -417 0
539 -125 381 0
-625 269 -8 0
-517 -77 150 0
141 -134 -326 0
-593 -905 -706 0
352 134 699 0
67 -903 794 0
677 428 -874 0
-98 -111 -230 0
83 -179 -173 0
-127 -29 393 0
-342 698 822 0
1000 -813 -815 0
531 177 886 0
11 570 878 0
-689 591 719 0
85 829 -239 0
-830 -284 -580 0
-847 894 -374 0
385 760 -275 0
122 -327 -42 0
205 244 403 0
767 -504 861 0
-381 416 -259 0
439 -218 302 0
321 -349 -964 0
175 -723 754 0
-487 180 -431 0
-388 -457 449 0
-25 799 -352 0
-320 489 -91 0
290 -712 567 0
-543 -864 455 0
96 275 -986 0
-747 473 -737 0
382 3 -438 0
-452 -382 373 0
-333 -578 -945 0
-135 624 731 0
38 -285 151 0
764 -886 -124 0
358 661 -430 0
-287 -765 995 0
687 57 438 0
-684 -20 968 0
-332 -912 30 0
-383 -90 -716 0
-236 223 -873 0
-767 -544 650 0
848 126 -671 0
562 -177 -789 0
174 740 -604 0
538 771 -775 0
328 615 264 0
-835 -461 933 0
-550 -288 60 0
-792 -584 -150 0
936 -604 864 0
-561 -72 746 0
490 65 366 0
362 -37 -394 0
-970 -272 298 0
284 100 132 0
-198 -378 699 0
427 -5 -627 0
989 100 944 0
-442 875 826 0
-224 27 845 0
-51 -46 367 0
518 474 155 0
-685 618 -16 0
616 793 174 0
439 -568 -852 0
844 179 -200 0
112 873 408 0
7 462 86 0
-562 921 138 0
128 -554 -727 0
-979 236 -619 0
133 -468 -8 0
-289 -288 886 0
-462 985 -570 0
-802 -948 201 0
850 956 -483 0
-732 620 33 0
122 394 552 0
884 124 -154 0
643 809 202 0
-402 -504 -136 0
-604 -191 -921 0
827 -265 90 0
491 -712 -684 0
237 486 694 0
-38 -670 -864 0
-465 -722 -911 0
-208 197 -759 0
883 884 219 0
-441 194 -412 0
-122 -209 -628 0
-66 825 1 0
695 97 -57 0
862 -715 -395 0
627 -549 -803 0
794 -141 -604 0
-713 -590 248 0
150 -236 843 0
-566 580 630 0
981 -309 907 0
-738 -323 222 0
211 357 676 0
337 804 -962 0
974 -657 546 0
15 711 264 0
486 249 189 0
-876 -984 827 0
-195 -830 758 0
-15 -700 963 0
-7 -392 -513 0
-346 476 -233 0
-359 697 440 0
367 -373 363 0
875 -497 -536 0
-407 74 189 0
-205 -210 -866 0
-751 550 -415 0
-821 178 96 0
160 -338 -837 0
666 -280 164 0
-943 388 408 0
-817 -985 398 0
-342 608 409 0
360 19 736 0
-242 859 626 0
801 -737 -55 0
-664 -423 -713 0
186 94 -229 0
434 -539 742 0
8 226 268 0
-60 292 11 0
-785 -928 -852 0
-146 -356 575 0
-309 -81 950 0
670 -542 281 0
429 -928 -788 0
613 442 234 0
864 520 545 0
-567 -366 90 0
-298 204 -924 0
950 988 -906 0
-283 -85 -873 0
-900 -748 -24 0
662 135 -270 0
654 -899 276 0
382 -278 99 0
-909 585 736 0
377 183 56 0
73 576 -433 0
-260 537 -954 0
769 -311 126 0
-258 -246 972 0
-458 30 374 0
98 820 952 0
662 598 999 0
-115 668 451 0
937 -115 619 0
-431 -459 -728 0
-767 804 309 0
501 959 719 0
389 -799 732 0
-339 311 -846 0
-513 276 -576 0
-222 236 779 0
-916 864 537 0
-694 901 -521 0
697 -725 -691 0
-94 822 885 0
242 720 -249 0
-303 263 -675 0
426 -468 -527 0
203 -851 -593 0
322 139 -483 0
372 806 476 0
797 -254 -585 0
-573 -6 43 0
891 -27 -443 0
469 744 -485 0
-157 731 -780 0
3 288 26 0
842 -860 588 0
147 -722 905 0
325 -980 104 0
728 743 -867 0
-449 -364 -752 0
422 325 331 0
578 524 -866 0
-258 539 -913 0
-38 -280 -916 0
-134 871 -407 0
-593 -335 -903 0
958 278 -231 0
564 -541 -894 0
495 107 119 0
770 347 -496 0
517 -63 760 0
-449 -697 702 0
-847 -838 289 0
138 -359 -324 0
636 464 513 0
-230 806 -311 0
513 -676 -818 0
151 670 -142 0
86 398 633 0
758 -456 744 0
-911 -517 540 0
-412 -70 991 0
-335 -778 326 0
-535 -337 -402 0
-525 391 850 0
-580 -116 -907 0
3 -305 160 0
-352 -400 -254 0
401 -886 -747 0
-365 643 263 0
569 -704 -411 0
-342 -90 -238 0
154 58 263 0
-177 -345 -146 0
-540 11 212 0
-490 866 761 0
-926 -564 612 0
-152 -291 -993 0
-97 447 660 0
-630 394 404 0
556 64 -36 0
824 819 450 0
123 -178 -46 0
-533 135 465 0
715 517 505 0
-432 785 372 0
800 725 910 0
675 545 -862 0
-204 -949 849 0
350 -958 135 0
-111 573 779 0
718 287 -848 0
405 729 -201 0
-340 -215 948 0
181 -162 -156 0
105 -48 518 0
-797 -554 -249 0
910 -489 -528 0
-648 728 182 0
145 885 804 0
-601 -711 -639 0
589 -673 894 0
327 -64 360 0
3 403 -317 0
396 -29 -271 0
-653 537 282 0
-760 170 -981 0
920 -947 287 0
-649 -254 -816 0
-923 -127 884 0
531 -162 855 0
225 16 -172 0
-436 -955 838 0
-752 298 103 0
-910 -42 -651 0
131 438 -485 0
827 273 175 0
447 -205 -921 0
-419 830 365 0
-259 -134 -575 0
569 666 -146 0
-34 -556 450 0
898 -510 187 0
874 -383 -560 0
867 -951 -38 0
119 -458 -231 0
75 -318 758 0
442 -984 444 0
-889 73 -236 0
268 630 197 0
-774 749 642 0
-882 677 635 0
-623 796 -722 0
980 392 260 0
339 212 -680 0
150 780 -880 0
477 531 -24 0
218 -954 -759 0
42 796 303 0
876 267 551 0
-67 556 600 0
328 -493 531 0
-747 869 -860 0
-179 37 555 0
761 -448 -763 0
-279 414 -851 0
-423 -409 -871 0
289 -154 -447 0
453 639 978 0
921 979 -42 0
68 608 86 0
-955 723 -194 0
141 320 380 0
574 -27 113 0
271 838 -273 0
-992 -375 -350 0
-216 124 -327 0
-607 768 51 0
910 850 459 0
720 858 237 0
-741 387 -936 0
189 -418 -690 0
-210 -996 -9 0
-608 -363 -310 0
-214 -805 -438 0
682 33 -213 0
626 975 922 0
386 723 -296 0
-77 743 7 0
-587 -293 758 0
594 46 13 0
-413 -991 371 0
-124 -107 437 0
-750 962 -764 0
-591 -683 539 0
487 215 -481 0
-171 -62 -989 0
900 750 255 0
239 -524 -394 0
-265 687 -190 0
-996 -178 -891 0
638 -975 991 0
-990 -936 -231 0
185 802 728 0
467 334 102 0
-934 -674 -266 0
-608 672 223 0
568 499 -212 0
615 896 -890 0
-649 667 -594 0
-215 599 432 0
-56 174 736 0
348 -903 790 0
-907 838 782 0
-790 553 679 0
-535 -188 -837 0
-272 -448 107 0
281 519 -662 0
331 605 -227 0
-837 890 -202 0
896 255 985 0
589 -263 -315 0
-833 779 172 0
-115 504 302 0
-97 773 -714 0
522 -383 687 0
-486 732 -898 0
690 -592 958 0
-780 -714 -743 0
370 -418 514 0
-938 852 -337 0
-523 406 699 0
-689 274 -425 0
892 -37 -718 0
-270 828 -274 0
-598 367 535 0
-393 992 -368 0
972 -100 -37 0
-685 -926 -858 0
-408 -635 -129 0
-717 -887 -754 0
862 173 -871 0
-628 -292 899 0
-68 -158 -874 0
557 598 -375 0
847 115 -483 0
69 -208 -816 0
-689 22 91 0
-842 -979 278 0
-15 -587 269 0
962 -678 -470 0
-729 -391 -915 0
-963 53 -231 0
984 713 366 0
-849 377 464 0
258 750 -757 0
960 -83 440 0
106 969 -299 0
931 524 655 0
723 -15 -546 0
-771 83 450 0
-547 -651 -472 0
-236 281 -158 0
528 -715 -693 0
-833 -798 -796 0
850 -760 493 0
-984 -433 -130 0
-523 196 -925 0
-8 -648 203 0
842 -530 -22 0
-893 -236 151 0
535 -136 840 0
-501 150 -165 0
908 -118 -395 0
384 -510 -879 0
680 -130 147 0
-141 968 387 0
642 665 303 0
-814 -520 382 0
748 -866 785 0
714 227 -765 0
497 -405 -369 0
854 762 -650 0
10 473 -661 0
709 -452 -48 0
-557 891 -435 0
176 -209 271 0
121 -267 -158 0
-584 -87 205 0
-764 669 774 0
-607 713 870 0
948 665 333 0
-922 385 172 0
32 211 -841 0
975 -57 -446 0
-226 -257 588 0
-285 -713 -101 0
665 -819 495 0
-823 814 475 0
-800 776 -297 0
656 -654 -334 0
-576 263 -288 0
391 -31 844 0
646 282 -983 0
177 -541 476 0
-423 754 261 0
-311 -566 447 0
-467 -248 341 0
630 -1000 -839 0
583 269 626 0
350 665 585 0
459 542 -23 0
-86 -382 -649 0
271 -566 736 0
-555 -85 -82 0
-726 -987 -493 0
-187 832 -22 0
-835 273 237 0
285 -435 -877 0
717 -268 132 0
18 -974 795 0
-937 -124 297 0
725 -358 929 0
-75 530 822 0
-110 -858 368 0
-318 -30 -201 0
-72 446 58 0
-456 672 986 0
-139 26 906 0
-876 -290 -312 0
-149 -258 -728 0
-403 576 763 0
-10 -383 113 0
-874 -427 -320 0
-382 321 585 0
69 34 368 0
-170 844 615 0
-305 591 -390 0
-479 533 152 0
809 557 -790 0
658 -638 -144 0
-293 692 266 0
-747 -410 240 0
-329 328 671 0
-872 -816 -568 0
900 -31 -326 0
-612 -564 934 0
-765 -102 824 0
715 426 -459 0
-273 -302 601 0
800 766 803 0
122 -265 41 0
565 -547 -267 0
165 626 233 0
826 -842 -920 0
-678 -119 -996 0
-174 881 16 0
249 -697 679 0
737 -435 -242 0
913 790 850 0
169 -64 669 0
-581 701 410 0
-216 887 211 0
-55 -534 52 0
-382 370 -114 0
-390 -601 131 0
580 -32 975 0
481 -408 19 0
-887 287 891 0
26 -683 -804 0
632 919 -448 0
610 -641 -210 0
-275 -54 -267 0
-591 -437 986 0
-489 944 187 0
1 -561 240 0
-414 -16 634 0
-729 380 -126 0
-418 -967 532 0
-385 63 -689 0
357 -409 -627 0
498 -467 838 0
259 89 588 0
629 954 992 0
-857 865 -88 0
-904 983 -501 0
589 682 -238 0
394 -191 917 0
-627 -738 -756 0
-476 -434 451 0
693 295 -808 0
-701 445 184 0
861 -48 899 0
237 -217 -329 0
-893 -493 953 0
615 -859 553 0
-403 637 -822 0
523 -781 -175 0
-119 -623 -174 0
701 644 -478 0
333 681 42 0
381 134 113 0
-161 307 930 0
254 -739 -665 0
785 -129 -905 0
-242 59 -213 0
789 -732 -752 0
865 -517 -782 0
873 -577 -124 0
-893 780 241 0
518 397 -184 0
-637 268 782 0
415 944 -348 0
-984 553 -908 0
769 -705 385 0
-229 693 -916 0
64 -162 -398 0
751 420 -235 0
-461 -291 -443 0
866 51 -831 0
-892 103 -236 0
-881 -874 360 0
-889 545 -392 0
565 889 856 0
352 553 -911 0
923 910 -955 0
-330 -673 -245 0
-357 -76 -488 0
992 31 917 0
-205 15 741 0
-165 205 -496 0
-254 296 405 0
-626 -866 371 0
-118 966 503 0
-860 147 -593 0
547 229 308 0
-286 -290 -27 0
578 -219 -577 0
158 -589 -287 0
395 -512 30 0
719 981 776 0
252 -460 -768 0
566 -119 776 0
12 365 -963 0
439 144 416 0
549 616 80 0
-254 -724 -664 0
-201 -517 506 0
749 968 323 0
-897 638 -549 0
44 -524 -214 0
-624 -200 -595 0
644 612 -606 0
488 901 526 0
505 -703 -656 0
759 -266 -828 0
599 390 1 0
710 291 123 0
674 -64 794 0
-105 -464 -577 0
826 732 -177 0
944 -837 712 0
-320 764 40 0
562 389 380 0
-775 512 203 0
-734 -135 -557 0
357 546 381 0
-917 -587 -444 0
342 -253 713 0
-714 164 -511 0
573 787 262 0
-296 -559 591 0
954 790 -562 0
-355 -846 275 0
-722 157 55 0
-774 -947 150 0
159 619 974 0
94 -212 5 0
144 264 354 0
463 -832 -455 0
552 740 -103 0
-786 538 -778 0
-239 494 -996 0
859 222 -880 0
-671 -867 -949 0
100 31 -241 0
-449 -819 -843 0
-597 20 407 0
-647 -601 -566 0
-657 771 -423 0
702 509 209 0
283 -747 -147 0
981 -393 221 0
661 276 -324 0
-437 739 -967 0
178 802 -39 0
-291 954 887 0
-579 -355 570 0
534 -349 -281 0
767 802 -512 0
735 469 -383 0
-514 550 180 0
-888 803 -80 0
748 -803 -51 0
455 -499 728 0
-75 44 330 0
451 -394 372 0
-400 -275 366 0
299 140 -830 0
-89 941 -486 0
-453 -870 122 0
671 -6 -11 0
350 628 546 0
416 -792 -312 0
-686 -241 938 0
823 -4 724 0
53 -78 427 0
659 -373 -876 0
-493 354 -697 0
474 57 -605 0
293 443 291 0
29 -166 870 0
-316 -631 286 0
891 -615 -904 0
-158 -174 939 0
300 -109 -305 0
863 861 465 0
-502 847 143 0
25 -483 -739 0
639 796 113 0
-322 193 78 0
-407 673 -133 0
-860 285 -435 0
-739 147 -576 0
-419 -9 -796 0
-246 -864 -275 0
910 -534 -402 0
-828 244 -908 0
-34 -953 739 0
592 -940 -344 0
-368 -548 408 0
891 -672 -54 0
-734 -342 -29 0
-783 945 -64 0
271 733 -612 0
352 -316 591 0
238 674 -262 0
212 -606 344 0
730 -861 -69 0
-651 -745 530 0
-868 366 -234 0
-92 608 -945 0
737 213 92 0
50 -415 465 0
-426 -422 524 0
-212 -456 -943 0
785 -482 890 0
355 115 -166 0
-405 773 739 0
245 -402 351 0
685 511 -196 0
565 114 -625 0
-675 -641 -604 0
-665 -693 795 0
374 146 505 0
-680 -893 -615 0
242 -664 282 0
-937 916 143 0
689 -672 160 0
268 311 -704 0
-462 -177 -990 0
-778 -48 -838 0
-616 483 634 0
505 774 507 0
-851 -94 -802 0
-899 -261 812 0
853 -627 95 0
-515 -39 902 0
-802 702 -622 0
233 -732 228 0
502 939 -758 0
412 525 854 0
355 -971 754 0
-369 -882 -700 0
474 -288 486 0
755 514 -912 0
-934 98 -950 0
-639 100 527 0
-768 269 516 0
-546 35 411 0
-595 478 386 0
-286 -208 74 0
-287 138 759 0
-645 417 -664 0
-187 -752 -620 0
-798 -608 -231 0
-585 -235 -504 0
-769 -658 -850 0
-299 -869 99 0
-519 497 421 0
987 167 393 0
-647 -865 72 0
807 249 -778 0
-676 -891 -414 0
272 330 -922 0
-674 -525 233 0
164 -686 474 0
46 -881 316 0
-312 -792 276 0
18 -113 -819 0
670 177 6 0
-189 -602 495 0
-768 557 -636 0
526 184 321 0
-669 -232 561 0
-415 995 447 0
-691 252 740 0
688 39 190 0
293 978 -940 0
-726 -550 -512 0
-732 -700 712 0
-207 733 -63 0
743 -538 828 0
617 192 328 0
520 479 -700 0
929 -699 -88 0
-608 -319 -503 0
-858 -838 787 0
663 -493 -99 0
567 -873 328 0
748 -88 -307 0
-245 737 564 0
559 538 775 0
49 -386 -1000 0
-911 -304 -275 0
-678 962 177 0
-904 -886 -910 0
987 -183 -424 0
819 -70 -950 0
-496 602 -91 0
748 -289 -989 0
173 226 -177 0
538 -263 250 0
257 -968 -389 0
799 655 480 0
-664 197 173 0
-627 42 -641 0
82 343 -69 0
-659 -145 735 0
-883 189 -156 0
346 544 808 0
507 -2 -9 0
-543 688 -778 0
-66 -982 -6 0
-932 593 -993 0
787 -355 -200 0
807 312 -587 0
873 373 -490 0
-639 -812 -424 0
265 -765 835 0
-45 -946 -242 0
-766 -268 -129 0
-705 199 -647 0
-617 899 59 0
424 987 122 0
-554 -489 446 0
491 -792 -31 0
473 -310 623 0
839 765 -926 0
-148 526 -727 0
649 686 803 0
486 434 533 0
-743 -472 306 0
814 53 -416 0
-475 -755 -658 0
219 -364 876 0
380 -32 941 0
981 99 -909 0
25 980 608 0
-401 433 -812 0
485 -569 -872 0
608 -685 736 0
262 -249 606 0
730 401 521 0
659 891 -333 0
472 21 231 0
58 -597 382 0
75 560 880 0
-707 -318 747 0
-454 229 557 0
611 -272 218 0
-578 500 -768 0
893 935 206 0
-169 995 -64 0
-648 -736 -224 0
-999 553 946 0
-861 334 -440 0
-578 -248 741 0
215 612 -179 0
-485 197 -151 0
-837 959 925 0
-803 606 -394 0
808 908 -856 0
822 -664 -92 0
714 -151 -421 0
-223 991 809 0
-823 -111 -713 0
850 759 829 0
776 988 -420 0
219 682 619 0
-299 -660 -483 0
-980 653 818 0
-334 316 323 0
297 557 932 0
184 586 356 0
-722 236 13 0
426 427 -32 0
720 88 -664 0
59 7 -980 0
-135 724 245 0
-872 -167 -567 0
-757 888 -260 0
227 -133 34 0
-189 -95 297 0
332 -526 686 0
410 491 637 0
-854 -907 279 0
908 -51 -423 0
-121 631 -914 0
246 -616 499 0
-331 57 -735 0
461 -902 648 0
507 472 -141 0
-870 908 764 0
499 -179 559 0
987 -198 458 0
438 72 -608 0
730 934 -719 0
547 -486 376 0
846 -422 111 0
188 511 96 0
-846 -594 -3 0
155 943 961 0
-472 199 -183 0
-117 -103 -918 0
-867 -134 -748 0
-757 -372 835 0
-594 559 -963 0
72 -212 -288 0
-86 776 -451 0
-806 -295 -272 0
-564 -326 961 0
228 171 953 0
758 708 252 0
310 15 46 0
503 829 886 0
-35 835 970 0
-837 765 -578 0
111 251 389 0
-603 -635 -40 0
-716 -193 626 0
-227 35 -102 0
993 582 -733 0
784 -845 -566 0
-642 -543 835 0
560 248 -343 0
-648 -800 -185 0
-805 54 826 0
814 735 436 0
725 -149 404 0
-22 240 -701 0
857 -41 -890 0
497 952 781 0
-963 -242 -652 0
466 -857 870 0
-214 321 126 0
-690 693 -6 0
785 508 -399 0
333 -546 -991 0
853 636 565 0
-425 308 -364 0
-357 433 982 0
141 587 -361 0
-406 -670 -229 0
600 936 996 0
455 -817 436 0
-19 -648 634 0
484 -841 -403 0
-121 -885 -371 0
-300 -137 224 0
627 469 378 0
270 730 499 0
181 -301 -852 0
17 -161 143 0
-87 -429 -433 0
953 -348 742 0
234 -823 597 0
368 55 385 0
597 -117 -974 0
484 -423 724 0
-368 -93 -271 0
79 -68 896 0
-544 -416 -907 0
-491 -908 -845 0
-545 275 -259 0
-180 -395 -546 0
786 -259 -269 0
103 -951 -653 0
-313 -43 100 0
1000 578 471 0
-337 -873 -576 0
846 -427 -515 0
106 69 -195 0
632 179 108 0
-761 -768 835 0
-114 -728 205 0
-201 115 48 0
461 -604 -708 0
612 -226 794 0
-402 755 -554 0
-734 -272 287 0
-231 -740 -267 0
-940 -260 696 0
307 -106 51 0
291 -853 633 0
313 -883 -999 0
66 -236 914 0
34 375 -402 0
-991 773 902 0
-900 179 -826 0
728 3 -747 0
815 -643 440 0
455 -598 568 0
-729 15 -618 0
706 55 282 0
968 858 132 0
681 450 826 0
521 -621 555 0
-730 908 -958 0
-268 -485 718 0
-659 -705 943 0
-660 -767 -497 0
610 985 910 0
965 687 -135 0
14 867 397 0
747 133 478 0
175 940 -766 0
516 70 -762 0
595 -305 511 0
-400 688 917 0
708 -369 -159 0
-378 296 -453 0
-984 265 -464 0
640 359 -765 0
-895 138 67 0
-975 210 -277 0
-953 -553 -310 0
-280 448 422 0
-334 -606 54 0
-325 -408 -288 0
596 268 -547 0
572 -911 -663 0
456 -400 379 0
149 154 -491 0
546 -331 -81 0
426 666 -424 0
617 -716 421 0
-330 227 -94 0
-752 768 674 0
-427 -151 794 0
-414 826 720 0
-239 476 -964 0
-359 -12 99 0
-579 -698 710 0
-856 -692 242 0
-505 -558 490 0
-235 -969 419 0
-958 140 241 0
164 -244 -934 0
-607 40 -309 0
-144 -906 -936 0
964 -450 -718 0
118 -224 -270 0
948 485 -23 0
-4 -108 -714 0
-257 671 -180 0
-149 310 -462 0
-657 955 367 0
975 773 -700 0
-299 -759 -85 0
891 91 315 0
317 -456 133 0
776 -519 47 0
-62 415 407 0
997 895 -808 0
616 -835 377 0
-804 675 560 0
-464 -314 -541 0
-165 583 868 0
-238 -836 225 0
998 -81 -805 0
-865 -6 -795 0
31 947 -190 0
589 -239 218 0
-591 -671 -539 0
16 97 -30 0
903 32 -527 0
-523 725 -825 0
654 244 105 0
937 -183 -217 0
350 454 -432 0
492 839 -138 0
-256 -977 593 0
-554 -758 -301 0
257 -647 -305 0
-860 57 -612 0
512 831 -360 0
739 832 -303 0
-352 415 558 0
703 487 -944 0
894 -972 217 0
128 -348 869 0
593 902 471 0
-608 -441 -548 0
-993 -593 676 0
390 623 -263 0
350 -295 -884 0
854 -233 992 0
561 139 -53 0
-665 707 582 0
282 -150 -181 0
-79 25 -804 0
-296 367 78 0
440 63 684 0
-472 -134 821 0
263 -350 686 0
129 -375 -754 0
642 -781 -900 0
323 233 418 0
60 -481 -117 0
-181 -22 -320 0
-804 -962 115 0
73 -318 514 0
239 -61 -740 0
-469 694 120 0
-888 981 -895 0
-376 940 396 0
-433 -677 -774 0
875 177 -532 0
-211 547 -37 0
544 -339 -351 0
637 -583 857 0
53 -407 -713 0
351 -338 207 0
512 -471 613 0
-468 805 723 0
-285 -752 379 0
100 -988 -234 0
617 -950 -513 0
882 766 385 0
534 -754 -5 0
842 -698 583 0
-475 -920 16 0
-67 194 -287 0
246 690 -679 0
927 -24 998 0
227 583 -601 0
650 -677 -281 0
-122 -791 664 0
-958 76 -64 0
505 -339 -264 0
459 -933 873 0
752 331 -1000 0
991 928 604 0
91 261 -715 0
-427 -585 -846 0
-981 117 328 0
-742 -901 897 0
-247 912 596 0
384 -944 -226 0
-111 431 698 0
233 383 -877 0
-470 -434 -614 0
-549 90 -448 0
525 778 -562 0
-516 367 -314 0
-708 -842 -78 0
-800 571 -687 0
-553 -627 -574 0
393 930 240 0
-644 706 456 0
-350 958 13 0
637 -899 113 0
315 -665 -112 0
256 197 -637 0
119 142 701 0
994 550 935 0
925 -664 329 0
-710 955 -809 0
208 -377 -828 0
385 -398 789 0
13 319 645 0
333 -180 -271 0
-793 674 -174 0
-944 -885 775 0
80 -797 354 0
-879 -255 -104 0
323 -345 8 0
618 332 -295 0
390 -354 -687 0
493 -497 -555 0
735 -724 127 0
61 950 -907 0
173 -351 582 0
783 348 -26 0
-29 341 -986 0
-391 -615 285 0
-382 130 -305 0
921 957 -183 0
-965 -522 -841 0
-716 -428 -201 0
-383 -41 444 0
310 -783 -365 0
891 -854 -718 0
298 295 173 0
-779 -507 493 0
-880 -218 -38 0
-845 -526 -132 0
-903 315 907 0
194 731 -103 0
-161 737 -404 0
945 248 -207 0
898 -231 732 0
-813 -757 881 0
-783 -832 571 0
-286 930 844 0
419 -703 -199 0
563 -82 -66 0
423 394 210 0
538 -122 44 0
253 -254 -862 0
-788 62 -718 0
886 -673 976 0
920 -312 100 0
988 186 -524 0
-727 -848 -308 0
-286 -961 316 0
-53 228 -820 0
-483 -569 813 0
398 -667 -687 0
-841 339 484 0
529 282 297 0
-835 -785 -789 0
935 -295 659 0
-50 -597 390 0
-337 -832 -860 0
687 -835 509 0
974 78 -543 0
-901 492 306 0
-635 614 -416 0
-299 -409 25 0
-51 605 518 0
211 -61 -844 0
494 643 282 0
-549 821 -626 0
-202 -238 853 0
449 1 -250 0
724 -11 -652 0
339 612 -1 0
-235 -740 960 0
-836 204 884 0
75 236 999 0
636 452 362 0
467 -391 -179 0
-802 -523 504 0
-453 -554 2 0
-856 -355 -409 0
659 724 830 0
-213 769 -779 0
-138 613 -708 0
-91 -705 -871 0
88 840 -533 0
159 -570 -55 0
-761 -327 -214 0
528 236 -522 0
-558 -191 -965 0
-568 -618 -253 0
220 -821 131 0
-648 -322 -571 0
-168 -832 -322 0
-361 -624 649 0
919 762 -643 0
-604 976 623 0
-319 -638 507 0
-318 791 419 0
940 -200 -91 0
798 865 -565 0
-266 -977 -468 0
978 -817 -160 0
-316 1 -313 0
-528 -501 459 0
-802 -274 304 0
-893 412 845 0
-429 289 -345 0
804 -198 -949 0
580 -268 -929 0
853 463 -299 0
-161 109 821 0
666 -965 522 0
-986 185 -700 0
774 -87 -234 0
911 409 522 0
324 242 317 0
-68 -783 950 0
-384 -416 -153 0
820 -433 691 0
-8 29 670 0
280 474 564 0
-354 989 -963 0
-725 -554 978 0
-353 -436 -403 0
-30 825 -256 0
866 -942 527 0
-524 137 65 0
342 413 -494 0
801 -319 -406 0
509 -237 -933 0
-544 688 523 0
-348 -167 -191 0
-779 653 752 0
-607 -428 809 0
166 -263 -191 0
-904 651 496 0
841 489 -897 0
-780 -837 -957 0
-85 -122 168 0
-392 -757 -828 0
418 237 -959 0
-941 -680 410 0
979 725 -933 0
-953 700 -777 0
302 728 -376 0
276 719 -989 0
411 259 -120 0
-865 -299 -514 0
-904 -912 39 0
394 -363 -87 0
-522 -248 882 0
8 445 -933 0
-308 689 -681 0
-940 243 126 0
304 23 599 0
-40 -970 870 0
442 -525 487 0
-797 -915 297 0
-165 -870 -637 0
-851 -644 -137 0
664 615 109 0
-815 317 -344 0
401 -477 -451 0
-670 -918 653 0
760 -850 247 0
607 -882 631 0
-814 -871 551 0
-851 437 -336 0
-740 165 496 0
57 478 818 0
671 437 30 0
690 903 76 0
557 382 916 0
584 -94 162 0
-975 -863 71 0
-841 880 -441 0
-14 901 -56 0
-7 380 913 0
