p cnf 200 740
171 182 60 0
136 -175 196 0
123 35 -66 0
-16 -30 96 0
-15 -128 176 0
-40 19 173 0
60 165 -64 0
-142 -127 169 0
-107 11 78 0
173 189 -3 0
-27 -60 -132 0
122 -198 19 0
-30 -165 -95 0
25 19 55 0
6 58 171 0
-95 -42 -58 0
163 -156 -91 0
-79 -65 -87 0
-85 -64 -149 0
-118 -161 135 0
116 -134 -121 0
-123 -64 -101 0
84 -119 144 0
-44 -153 -109 0
141 -76 -130 0
175 71 153 0
63 66 -90 0
-161 -135 -33 0
121 103 186 0
-154 -108 13 0
-116 160 119 0
-27 -150 142 0
162 -90 129 0
-33 18 77 0
4 107 99 0
-18 168 54 0
48 154 -191 0
-161 -119 187 0
43 68 -190 0
-157 103 133 0
82 81 -50 0
-42 -26 31 0
64 -20 -62 0
126 -12 -112 0
118 -146 20 0
-147 -151 39 0
-28 81 34 0
-185 -52 170 0
-115 82 141 0
-196 -142 128 0
-125 -176 -147 0
34 190 32 0
-136 19 -11 0
24 -147 -166 0
159 13 -44 0
-151 20 32 0
97 -102 -29 0
26 -65 -42 0
178 -116 90 0
46 -64 -37 0
106 109 28 0
-86 99 -168 0
146 -40 -169 0
195 123 31 0
-70 7 -180 0
124 -167 122 0
-186 -31 -2 0
-34 127 178 0
-19 199 140 0
2 -70 -175 0
-188 3 -9 0
-169 9 -124 0
98 158 186 0
-54 -199 -23 0
-46 -10 -166 0
-51 -103 160 0
6 149 -44 0
-135 -64 -55 0
33 -179 -199 0
-108 68 181 0
106 -8 190 0
-102 52 42 0
-44 188 120 0
-114 92 106 0
57 -183 21 0
141 157 188 0
-28 -162 -154 0
155 -9 60 0
25 121 -91 0
-56 -88 -190 0
127 -169 88 0
56 84 -167 0
151 -107 178 0
62 142 159 0
131 -42 -60 0
-5 -104 -171 0
-138 -105 -42 0
-89 -172 175 0
192 28 87 0
29 55 30 0
178 -86 76 0
143 197 151 0
-162 94 -15 0
-10 154 61 0
187 -175 56 0
58 32 124 0
-22 49 -196 0
31 -141 113 0
-83 -94 -67 0
152 -150 26 0
-9 123 22 0
123 187 -91 0
67 -1 112 0
-133 160 -141 0
130 -60 -51 0
151 67 -78 0
-105 91 -127 0
132 -179 -198 0
-172 -47 185 0
-163 -162 -184 0
186 76 -136 0
169 -72 -144 0
175 -189 -100 0
-18 91 -148 0
-48 -155 -36 0
-151 -57 -133 0
58 -15 -48 0
71 -73 -42 0
107 172 20 0
131 -8 -72 0
-90 114 -145 0
156 -2 128 0
112 -115 172 0
-63 -173 196 0
67 19 94 0
197 -94 143 0
-1 -149 -198 0
-197 135 -57 0
118 186 177 0
-147 -112 24 0
-125 -102 63 0
-86 84 -20 0
41 -167 117 0
-28 -164 -175 0
-4 -35 97 0
-190 5 52 0
147 10 84 0
164 45 -175 0
-197 18 30 0
-193 -71 -111 0
21 -102 49 0
62 68 46 0
-166 -180 -82 0
19 116 -6 0
12 -8 -193 0
-37 164 -85 0
-92 152 70 0
-101 10 98 0
-59 -13 -99 0
-171 28 -73 0
108 -138 -29 0
-16 -188 40 0
-175 98 132 0
147 -9 89 0
148 -79 14 0
177 -8 -168 0
119 46 73 0
-21 -163 -56 0
-54 -58 -163 0
104 -173 90 0
186 -61 -19 0
-151 155 31 0
91 -111 -130 0
21 128 112 0
30 113 23 0
-193 -151 106 0
-110 152 140 0
46 -137 -67 0
81 62 -58 0
13 128 -6 0
30 -141 198 0
-5 135 98 0
-68 172 34 0
12 -36 -88 0
-71 -97 -197 0
-88 -82 -118 0
37 -49 112 0
196 -83 23 0
109 -111 135 0
43 193 -69 0
-106 200 -139 0
-80 -31 38 0
175 98 -111 0
136 -112 -17 0
-43 -56 191 0
150 -64 181 0
107 -39 -70 0
-28 -120 -66 0
-158 184 -108 0
-20 129 74 0
54 -31 -81 0
-112 85 -21 0
135 49 -193 0
-179 -99 -5 0
-160 125 -157 0
58 -10 111 0
-42 -53 119 0
-160 74 2 0
193 60 159 0
-90 144 89 0
-11 146 92 0
-22 93 128 0
-105 138 -145 0
161 114 -101 0
-155 -157 128 0
-16 -127 -19 0
126 156 -128 0
-10 173 -174 0
166 -157 -6 0
-51 -116 175 0
133 -56 -151 0
58 -167 -151 0
8 49 -21 0
-86 165 133 0
-49 -46 -172 0
84 -11 42 0
38 143 187 0
-62 157 44 0
-125 -142 58 0
-200 -134 -187 0
-170 175 -134 0
130 89 52 0
-81 73 171 0
96 53 75 0
-138 -57 -76 0
-135 72 15 0
156 140 -115 0
91 84 -190 0
-66 -151 154 0
190 195 -2 0
-48 101 144 0
147 13 -31 0
-139 73 96 0
-199 24 -142 0
102 -5 74 0
-128 -94 182 0
-45 -164 -170 0
-63 -180 -153 0
-66 73 39 0
180 22 -44 0
-84 -9 158 0
-181 63 -148 0
-8 -99 140 0
5 137 -142 0
-89 -149 -69 0
-11 -116 -177 0
-109 131 -110 0
-94 -124 58 0
-29 101 -119 0
36 114 -44 0
59 99 -45 0
48 122 173 0
72 -145 48 0
144 -65 -184 0
-123 160 -20 0
-153 -2 -86 0
63 74 -140 0
141 84 41 0
-47 106 -72 0
12 -154 28 0
60 -143 -89 0
66 -111 -23 0
-155 110 -25 0
82 143 133 0
45 -151 167 0
182 18 -39 0
29 -109 -75 0
116 47 151 0
82 80 -147 0
71 -14 -104 0
160 156 133 0
67 117 -143 0
67 -187 -59 0
-12 -101 -102 0
78 -63 91 0
-155 -113 -69 0
76 77 -103 0
-151 53 140 0
188 -43 108 0
-1 56 -15 0
-95 -46 118 0
124 -100 7 0
1 -147 100 0
-45 190 47 0
67 -196 1 0
90 194 -157 0
-110 142 -72 0
-126 133 130 0
189 141 96 0
-34 195 -23 0
-82 162 -79 0
-38 -62 -69 0
143 164 191 0
73 -168 -6 0
126 22 196 0
-138 84 36 0
-39 18 -190 0
175 -188 198 0
25 125 -19 0
-138 -42 122 0
-165 -73 197 0
200 182 -47 0
-148 -9 -182 0
108 -173 139 0
-153 -57 -16 0
-123 -167 77 0
54 -142 -156 0
1 109 20 0
-28 180 -186 0
-44 62 99 0
79 89 117 0
65 155 117 0
-135 -56 -50 0
-96 -38 -139 0
21 -87 105 0
-150 194 -63 0
87 114 -9 0
75 187 -193 0
64 151 118 0
87 61 180 0
-116 47 82 0
37 14 -197 0
-76 101 -50 0
155 -89 -5 0
-192 -21 120 0
-85 -44 -132 0
-198 -195 -179 0
-157 30 -99 0
-30 -68 146 0
-167 91 -22 0
102 183 146 0
176 -133 -134 0
-195 -121 -128 0
194 -117 165 0
148 51 -133 0
-149 152 67 0
134 -196 -72 0
-97 -112 -8 0
79 188 158 0
-173 -189 -183 0
149 -80 166 0
177 -165 160 0
79 -22 -196 0
90 114 171 0
144 -102 -126 0
-86 -143 32 0
31 101 -104 0
174 19 75 0
-54 184 -83 0
-56 -52 -189 0
29 45 -19 0
-61 -38 -187 0
-60 66 -73 0
-26 -12 142 0
-158 25 -126 0
121 54 -149 0
138 -177 -89 0
1 147 9 0
-118 -91 77 0
-71 44 -100 0
172 -19 -54 0
196 74 142 0
-179 129 151 0
175 71 -145 0
-189 -56 -7 0
147 152 199 0
192 -80 -124 0
144 36 15 0
99 -147 109 0
69 -110 -84 0
-37 -197 -131 0
-31 -161 -126 0
98 -161 -101 0
-144 -102 69 0
-195 144 -116 0
95 -160 98 0
26 27 -153 0
138 145 -168 0
-188 -83 -197 0
-117 -96 80 0
-14 -181 200 0
-163 18 -32 0
21 108 147 0
-68 -159 198 0
-12 191 -78 0
119 -43 184 0
-69 -28 51 0
-160 153 -4 0
151 123 73 0
172 -52 -187 0
131 -195 -153 0
-93 -77 -187 0
-179 -125 105 0
-74 -27 45 0
-73 71 124 0
-123 185 -106 0
-8 39 -75 0
148 -56 -52 0
140 -65 -188 0
109 -172 50 0
-27 -119 -53 0
-48 -123 -97 0
72 18 189 0
159 90 -56 0
57 82 -30 0
-149 93 86 0
-67 -139 -140 0
76 -186 136 0
-30 -97 99 0
12 63 171 0
90 69 184 0
8 -42 55 0
29 44 -26 0
11 -96 127 0
-71 107 164 0
-35 38 -149 0
168 -21 -160 0
-148 -6 125 0
-150 -95 -137 0
97 -168 -49 0
100 93 99 0
171 -199 7 0
-18 77 -154 0
-101 -12 -148 0
166 117 4 0
31 -74 106 0
-27 108 160 0
92 197 -186 0
-195 94 -70 0
-86 -11 92 0
-19 -83 189 0
55 -93 -73 0
186 85 103 0
32 11 -114 0
196 96 -189 0
-132 -93 -166 0
-189 134 77 0
83 -162 128 0
22 79 98 0
26 195 153 0
79 -14 157 0
-148 -120 -21 0
155 -78 33 0
43 -95 -44 0
-118 -51 -81 0
-101 -73 -79 0
78 -141 -148 0
-130 132 58 0
133 -138 -58 0
-9 -178 1 0
-187 -85 -164 0
-68 -114 -69 0
41 160 -136 0
152 -62 -124 0
114 -200 -6 0
-33 -85 107 0
200 197 -159 0
144 63 -100 0
167 89 125 0
151 107 -171 0
77 150 -15 0
115 98 106 0
90 35 -63 0
-49 -68 181 0
71 136 35 0
-68 20 -52 0
-120 168 28 0
-142 96 -101 0
-46 -198 -133 0
175 199 59 0
66 112 107 0
42 -104 -99 0
-144 -135 -4 0
13 -6 -177 0
-177 80 -78 0
-78 55 69 0
-19 181 143 0
71 -59 -129 0
-109 176 104 0
-93 -89 110 0
33 60 -98 0
6 -105 161 0
132 23 -191 0
6 109 178 0
69 -67 -24 0
114 -33 90 0
143 114 20 0
-126 29 -100 0
-101 -96 -133 0
192 59 -72 0
-40 4 192 0
55 25 135 0
-35 90 60 0
-7 -144 -146 0
-158 -183 -109 0
-92 -57 16 0
-182 159 131 0
12 -107 -15 0
72 -155 -150 0
-86 26 -110 0
196 -112 15 0
-36 -23 147 0
46 163 -91 0
143 1 -137 0
-64 2 155 0
111 187 119 0
-118 56 195 0
39 194 -61 0
128 -5 -49 0
-84 -7 -45 0
-107 -165 -73 0
161 95 3 0
183 101 -193 0
-114 -127 133 0
-67 -165 -176 0
71 134 75 0
18 156 -125 0
40 137 -8 0
-107 -99 146 0
-7 -75 -189 0
123 69 -47 0
99 -117 19 0
-166 -16 125 0
-45 93 42 0
-200 28 196 0
154 -165 79 0
-22 -81 -150 0
-182 -150 79 0
33 146 133 0
-196 61 118 0
-140 -165 15 0
-10 44 4 0
87 -180 -50 0
-148 -157 -121 0
-176 -88 79 0
161 164 -94 0
-96 140 -63 0
116 186 -122 0
-134 15 -57 0
-115 91 78 0
-43 -49 -85 0
183 149 121 0
25 -47 -128 0
106 63 -199 0
-31 135 136 0
-42 43 186 0
-6 46 128 0
-66 -140 18 0
160 173 -31 0
117 137 -128 0
54 -95 89 0
-50 -10 -63 0
-47 -171 -134 0
65 -195 170 0
-83 132 29 0
-59 -49 178 0
178 -166 -159 0
-2 35 163 0
38 91 -176 0
98 -94 -72 0
10 143 95 0
188 148 -109 0
-22 -3 30 0
-196 93 156 0
25 140 170 0
123 151 -42 0
-200 -28 -41 0
128 -71 140 0
-194 80 -67 0
78 -55 156 0
-124 -164 28 0
-173 -24 156 0
-112 65 108 0
-151 -25 -154 0
-8 43 181 0
-199 -13 -67 0
-61 2 -75 0
-142 -91 72 0
117 17 -142 0
53 -192 25 0
-156 -26 106 0
-19 -167 188 0
-96 158 -182 0
157 -18 -109 0
-114 -37 184 0
20 55 164 0
-100 26 98 0
-113 -117 155 0
124 -6 174 0
-87 46 133 0
-30 -42 -199 0
188 156 -96 0
-76 123 50 0
161 -94 -147 0
87 115 -30 0
-147 -78 -139 0
-30 -103 42 0
-124 21 -59 0
-20 81 -162 0
129 152 -198 0
36 -135 -145 0
-52 -35 -22 0
102 40 150 0
-95 177 83 0
-83 -149 2 0
-66 -114 125 0
-27 55 -44 0
-21 104 -189 0
176 12 -5 0
-1 65 -28 0
-136 -89 159 0
3 169 -186 0
-93 62 59 0
-101 -99 -31 0
-58 -72 -155 0
72 135 57 0
-18 95 -170 0
-180 30 63 0
-81 42 -86 0
-130 134 -99 0
88 -196 172 0
83 178 -194 0
-71 -7 -107 0
-16 115 17 0
-112 140 -91 0
-17 -55 -49 0
36 167 144 0
-187 -143 89 0
-142 34 32 0
106 -151 143 0
89 -49 -78 0
83 149 54 0
-97 -109 144 0
-187 138 -139 0
-184 -72 36 0
198 -15 86 0
-199 116 -177 0
174 -39 7 0
-142 131 105 0
-179 61 130 0
165 7 -144 0
198 -150 36 0
14 123 -174 0
98 175 -13 0
-186 160 50 0
-30 -127 -192 0
-45 -46 121 0
127 65 89 0
-170 -46 119 0
184 106 36 0
-12 -71 -52 0
-108 163 82 0
146 -5 87 0
-13 113 -121 0
61 110 122 0
176 195 152 0
132 -126 -37 0
142 94 172 0
174 82 187 0
-114 -181 -89 0
198 192 -82 0
-177 15 123 0
-127 -65 -88 0
-82 34 77 0
-185 25 112 0
139 27 -142 0
-8 128 -197 0
133 79 -197 0
51 179 -111 0
-140 -161 48 0
-31 29 -110 0
101 90 119 0
113 73 -48 0
160 156 181 0
-59 125 -153 0
-81 117 131 0
-156 150 -188 0
141 173 -40 0
-118 1 -174 0
-176 197 70 0
-5 -70 -137 0
1 170 185 0
-185 26 164 0
-199 -102 50 0
-186 190 129 0
122 -74 95 0
-20 96 -41 0
11 -185 -64 0
123 136 -39 0
11 -174 -186 0
-117 -39 161 0
-17 16 120 0
66 -11 -109 0
1 -175 -187 0
-18 60 163 0
-106 -26 42 0
-63 -16 34 0
-19 -94 -113 0
-129 -103 -135 0
75 -160 5 0
-72 -160 -144 0
88 -95 -160 0
-151 -55 129 0
-85 -136 169 0
-178 -58 62 0
186 182 139 0
-81 -12 111 0
100 -125 36 0
-40 -124 -10 0
21 48 -134 0
-129 97 76 0
79 -84 -180 0
-90 -116 43 0
-88 -190 -199 0
29 135 44 0
-145 132 -98 0
3 116 155 0
77 -153 175 0
40 65 -161 0
78 -84 -118 0
-83 -143 -129 0
-112 -124 108 0
56 7 -39 0
-76 -72 -57 0
162 119 -44 0
-126 -160 7 0
56 -151 -132 0
55 -72 119 0
162 -95 173 0
-37 24 -63 0
