p cnf 1000 4500
-712 -797 -662 0
-229 -115 -721 0
-511 -892 233 0
-130 664 -332 0
511 698 552 0
-110 272 107 0
432 827 -947 0
-812 143 -386 0
-22 -778 31 0
512 684 -450 0
341 648 897 0
-731 682 -172 0
7 -540 875 0
-711 132 789 0
-603 634 -183 0
-23 718 -807 0
183 -513 920 0
-669 -862 520 0
61 443 -54 0
146 238 970 0
773 553 -151 0
-783 944 -525 0
956 1 -251 0
-67 -836 -477 0
-191 422 808 0
855 -506 18 0
444 -777 140 0
-189 -110 -168 0
126 -854 626 0
265 429 260 0
-684 504 909 0
-815 713 741 0
384 244 -387 0
-987 -498 752 0
-29 -335 678 0
-801 -548 283 0
-54 645 238 0
162 -219 -960 0
-454 637 -952 0
-388 265 -406 0
-989 789 -146 0
-999 -350 434 0
-96 899 -257 0
133 1000 937 0
645 778 429 0
513 -576 199 0
800 -838 -699 0
-845 294 -566 0
761 -677 -73 0
102 -332 -975 0
713 625 873 0
-101 334 -380 0
998 353 -646 0
320 -660 -161 0
-862 578 897 0
359 47 -612 0
-772 -342 197 0
605 726 -578 0
-907 -25 -113 0
461 -59 564 0
88 -433 722 0
754 68 3 0
-748 -385 722 0
-452 -286 608 0
-613 486 769 0
720 362 800 0
996 -599 678 0
658 -526 589 0
-696 -650 -60 0
276 -379 -534 0
-396 659 955 0
-945 378 279 0
810 437 364 0
106 -495 -448 0
864 178 94 0
964 153 822 0
23 -33 -498 0
271 48 -975 0
-914 -160 -251 0
515 584 461 0
122 614 725 0
-766 194 -647 0
136 830 107 0
177 -747 496 0
-786 22 -741 0
961 -416 -455 0
-484 511 -605 0
-242 -262 -30 0
-994 -841 -872 0
-861 -180 -656 0
136 972 -973 0
337 828 423 0
-428 593 816 0
-101 972 540 0
214 -414 -482 0
429 581 617 0
-358 310 21 0
-274 -473 424 0
118 -895 728 0
-691 -270 9 0
-192 -719 18 0
758 -317 -104 0
252 145 999 0
801 674 226 0
-771 721 -850 0
-135 -912 -712 0
471 568 63 0
-359 -88 -450 0
49 -486 -977 0
-459 -343 -213 0
91 535 578 0
639 -392 889 0
-815 612 -864 0
-170 -117 996 0
672 449 171 0
-314 -460 196 0
-369 74 772 0
-318 417 802 0
-254 -899 454 0
850 -414 -854 0
579 -311 -780 0
371 477 -221 0
91 -105 425 0
967 -696 -652 0
-23 733 433 0
-522 -959 557 0
821 -687 843 0
-193 -533 23 0
-535 -270 -477 0
76 -850 30 0
-807 -544 661 0
235 38 -725 0
-993 -996 -619 0
-615 -490 -169 0
703 418 249 0
658 947 848 0
722 -737 13 0
-205 720 -212 0
394 809 -721 0
250 -161 -419 0
-641 14 -414 0
-769 973 185 0
141 537 -149 0
487 880 268 0
145 19 653 0
-490 902 -868 0
-495 -436 764 0
-465 931 -890 0
-563 -710 361 0
176 -552 310 0
271 -368 452 0
580 -295 -449 0
306 -356 -74 0
-48 -156 -60 0
291 -796 -517 0
-581 324 985 0
622 -474 883 0
971 -910 743 0
944 649 299 0
-939 -992 620 0
689 665 498 0
181 43 -788 0
-700 -976 -861 0
-844 812 786 0
-518 278 -767 0
583 574 643 0
647 -62 31 0
134 418 614 0
-547 178 795 0
-697 480 -752 0
56 -548 531 0
394 482 940 0
-57 748 -661 0
-991 511 -422 0
366 -282 94 0
-11 376 759 0
788 177 -841 0
-993 -778 492 0
188 -467 -430 0
476 -820 852 0
-912 -542 331 0
654 728 329 0
532 325 466 0
811 502 -141 0
-98 -173 -688 0
379 5 539 0
130 327 551 0
348 -127 221 0
-753 -683 -10 0
-362 668 482 0
-162 -457 334 0
274 894 911 0
-906 -807 487 0
-190 -624 -863 0
-94 -170 159 0
216 478 -538 0
-993 412 873 0
-103 253 427 0
674 643 -565 0
189 -160 43 0
7 -223 -126 0
679 97 420 0
-976 580 533 0
175 -152 -360 0
756 -573 -269 0
689 291 -849 0
956 963 -377 0
164 656 -203 0
392 839 -3 0
95 -46 -855 0
-395 48 -74 0
-227 969 -687 0
606 600 991 0
-328 -474 -211 0
793 981 801 0
-72 -717 952 0
-382 608 714 0
-522 642 717 0
-225 599 239 0
-981 -859 453 0
-92 831 392 0
602 333 657 0
861 120 -223 0
253 104 30 0
-915 -418 -492 0
473 -169 -115 0
-346 336 -869 0
614 -373 -553 0
38 -746 435 0
-471 -814 -400 0
561 54 -371 0
-205 -641 923 0
289 -146 279 0
-90 960 -645 0
-487 -703 604 0
379 867 547 0
670 -1000 -647 0
-996 663 -527 0
939 -467 119 0
17 -640 214 0
890 -657 966 0
572 -764 170 0
-773 -685 -923 0
980 -444 -18 0
524 951 977 0
-810 254 -465 0
839 101 883 0
890 247 -425 0
-362 -771 -743 0
-54 -610 -922 0
-187 768 -396 0
-959 -787 -595 0
-406 185 74 0
283 -538 345 0
-359 957 121 0
-228 -467 803 0
-604 536 332 0
758 23 972 0
283 -769 -581 0
-775 379 395 0
879 220 135 0
-145 -502 -7 0
413 -636 -57 0
-976 101 1 0
755 190 297 0
854 253 -420 0
44 -700 -489 0
-722 83 -643 0
292 -269 -446 0
-302 534 -271 0
-849 -293 -317 0
654 -780 -604 0
729 322 -160 0
-75 -292 -626 0
751 622 886 0
540 -791 291 0
-119 232 163 0
-412 188 -924 0
833 -411 189 0
546 -569 -308 0
456 -209 -346 0
393 -429 796 0
-682 377 386 0
-222 -127 -134 0
-774 -997 458 0
-765 313 -178 0
-600 -28 -912 0
930 -728 481 0
152 -505 -254 0
-729 -878 738 0
-687 -291 777 0
586 596 -541 0
203 -516 944 0
948 -689 -279 0
-455 -524 -585 0
629 478 -404 0
-838 -752 858 0
-697 -317 920 0
-751 -35 -87 0
840 -460 999 0
-831 -316 186 0
-539 -472 771 0
525 428 -853 0
139 -382 342 0
763 -434 123 0
-80 602 236 0
-653 -862 758 0
-475 -566 -532 0
726 -492 991 0
900 998 941 0
387 778 260 0
-710 570 57 0
970 -343 99 0
716 385 -960 0
-843 -318 -610 0
-782 -931 -631 0
-707 -450 49 0
-944 -184 746 0
-295 -567 -508 0
305 856 62 0
20 557 161 0
-960 430 253 0
589 885 715 0
674 228 86 0
-623 204 -342 0
46 149 -768 0
247 886 605 0
-147 -794 -21 0
946 -966 -322 0
-684 -117 -461 0
-628 -659 -896 0
54 -419 53 0
498 -869 120 0
-967 -593 959 0
601 -494 -981 0
-653 339 903 0
-840 61 -368 0
11 -169 639 0
-548 -335 819 0
913 -177 -662 0
-666 -279 443 0
875 -43 -761 0
420 956 -573 0
218 445 -208 0
619 719 -528 0
108 -886 426 0
633 269 -317 0
-235 551 357 0
-680 396 897 0
42 506 -757 0
-360 382 -974 0
272 -197 -694 0
155 -79 22 0
-472 -406 -491 0
507 -656 7 0
375 -522 -985 0
469 17 42 0
-788 -152 -456 0
-109 865 125 0
934 -536 -314 0
362 -27 -960 0
464 590 848 0
-61 705 -401 0
-652 -450 172 0
-611 -870 35 0
-637 -981 -374 0
935 737 -666 0
-247 -65 -685 0
-57 -410 325 0
-67 914 -202 0
-887 -779 340 0
984 -504 559 0
-656 -135 -616 0
-715 33 586 0
340 -281 985 0
-370 412 -94 0
-781 520 165 0
196 -971 875 0
183 -964 520 0
-498 -265 720 0
-49 647 283 0
439 -954 148 0
841 -728 729 0
18 -460 -834 0
91 519 682 0
-873 -500 852 0
801 417 -694 0
329 111 747 0
586 541 -995 0
-33 615 346 0
901 372 -344 0
-12 -88 33 0
-21 139 -448 0
-736 502 340 0
-465 581 525 0
892 607 274 0
181 264 189 0
-257 316 -206 0
-714 -681 832 0
-535 -232 -67 0
645 -621 -333 0
-429 504 505 0
-622 -298 666 0
-957 -360 -391 0
-226 730 688 0
-594 482 -500 0
420 584 -875 0
141 791 453 0
978 594 -543 0
-354 874 -780 0
741 -50 -527 0
922 825 -130 0
-896 -824 -383 0
-63 765 -508 0
99 219 -145 0
-38 -313 -179 0
768 888 -673 0
300 725 -333 0
-492 -504 543 0
-882 570 447 0
-956 -87 902 0
593 -950 888 0
-184 -716 -169 0
38 -397 -262 0
435 691 -707 0
-731 782 551 0
-177 -751 199 0
-483 771 454 0
-168 304 134 0
677 226 -353 0
726 -958 -214 0
-99 -95 512 0
15 486 -302 0
389 -164 616 0
-188 91 -454 0
276 262 -858 0
-84 699 472 0
-431 752 520 0
-865 333 -773 0
996 384 532 0
239 710 -933 0
30 614 -487 0
584 -919 -230 0
477 65 679 0
-487 -543 -301 0
-862 327 113 0
267 184 33 0
-889 481 24 0
687 -958 -763 0
13 828 -391 0
-276 -810 766 0
-132 -859 -968 0
765 352 -573 0
-480 -686 -216 0
-694 -677 810 0
745 155 946 0
-963 405 456 0
107 -869 -388 0
291 598 -969 0
-238 109 334 0
-390 -53 -690 0
-341 289 -843 0
945 -384 77 0
-21 227 80 0
534 -570 415 0
946 273 -546 0
571 -573 203 0
289 480 418 0
772 -587 -107 0
551 805 -761 0
-618 -10 -968 0
980 -722 785 0
-953 -687 446 0
299 -587 -767 0
550 835 -440 0
-389 401 -778 0
138 -694 -986 0
-591 836 -452 0
935 760 881 0
669 582 158 0
-150 930 898 0
822 684 554 0
-51 389 182 0
-765 507 -541 0
978 -665 73 0
368 -384 367 0
-989 83 334 0
-377 -458 -457 0
-140 742 -510 0
-596 -256 -433 0
-649 415 789 0
229 -632 -870 0
-494 -589 778 0
364 -462 -742 0
-179 -893 388 0
550 -687 129 0
952 -358 -912 0
666 -633 999 0
-785 -898 -556 0
-641 240 -731 0
-876 -496 -401 0
-837 -989 626 0
-868 -874 -476 0
-717 560 -492 0
-759 912 956 0
605 304 -108 0
-99 -528 314 0
764 -572 200 0
-340 -767 561 0
-41 -981 -887 0
41 -277 710 0
-164 468 -966 0
-833 -116 754 0
379 322 522 0
-438 828 456 0
-262 -397 -64 0
606 314 938 0
565 -607 796 0
504 -378 -341 0
388 -110 408 0
544 -816 591 0
202 312 896 0
-11 806 664 0
203 -387 -751 0
902 -13 -297 0
-60 46 216 0
-134 -650 294 0
-852 -838 -155 0
-996 -979 712 0
-883 867 517 0
244 -216 -422 0
-550 -723 -305 0
361 303 969 0
-217 -905 301 0
201 455 -403 0
-700 667 797 0
957 -489 -885 0
824 478 -18 0
847 -139 -563 0
438 558 -119 0
-870 138 -910 0
985 -322 -226 0
777 654 -472 0
-165 -929 -821 0
-922 -89 26 0
775 877 45 0
-949 -314 962 0
792 -106 63 0
463 -704 -78 0
705 -468 -347 0
-179 -169 769 0
268 -285 -128 0
864 -363 -723 0
-832 689 73 0
-364 -361 428 0
-362 -534 -707 0
-284 -689 564 0
-450 -189 -466 0
229 -316 -248 0
558 -258 -15 0
-850 -851 -882 0
-583 -255 434 0
833 -212 -480 0
-963 812 831 0
133 818 -945 0
-537 -776 -828 0
11 17 -430 0
166 -677 -248 0
766 542 161 0
236 -678 661 0
-179 673 -997 0
158 935 -295 0
-113 -162 -375 0
336 11 -698 0
-497 278 -828 0
200 -39 -818 0
-381 -84 -730 0
256 -819 -140 0
470 687 -193 0
359 944 954 0
634 586 -448 0
-109 -870 -822 0
791 543 -835 0
-662 -208 959 0
-753 -608 -450 0
967 -271 -51 0
212 4 -393 0
-264 272 988 0
-430 70 -93 0
405 68 964 0
241 -756 -378 0
-980 439 164 0
-214 622 197 0
890 -761 -218 0
646 43 -500 0
343 837 -373 0
-490 396 -577 0
935 -256 -175 0
-489 724 -70 0
-509 744 795 0
565 -493 64 0
-152 129 -579 0
-703 -812 -687 0
95 100 862 0
441 907 236 0
-934 -970 859 0
-709 626 -877 0
-983 -358 -275 0
704 -165 490 0
876 -313 419 0
896 -511 -21 0
490 -31 -100 0
-771 -723 358 0
920 654 975 0
-692 -274 -957 0
225 569 549 0
442 325 -990 0
443 -694 432 0
812 -552 -581 0
-386 457 499 0
389 -576 -247 0
959 -873 -178 0
-444 319 622 0
314 540 -21 0
226 -580 249 0
-762 841 -238 0
-471 -439 -315 0
-56 37 -93 0
-434 -937 -270 0
459 -414 393 0
-954 -349 -4 0
107 -893 -181 0
-435 -686 488 0
-668 -975 870 0
-234 542 377 0
217 -406 -623 0
-596 621 -473 0
-174 -965 746 0
-923 -639 -872 0
941 -924 -381 0
-7 -942 -859 0
605 740 407 0
-954 14 -680 0
-574 -794 47 0
-971 -955 54 0
584 842 -274 0
-279 719 546 0
778 -441 79 0
-493 -467 -404 0
-702 111 -193 0
569 47 641 0
578 -753 -516 0
-435 -446 589 0
-704 -21 -437 0
-936 159 369 0
263 122 860 0
197 -260 646 0
899 -555 -37 0
-767 125 263 0
-328 767 658 0
819 -619 67 0
490 -527 -211 0
457 -903 -95 0
-121 -710 -335 0
887 -412 -385 0
272 -893 473 0
-5 -937 -723 0
289 956 -895 0
-85 348 911 0
-6 -751 952 0
129 626 -76 0
-631 143 183 0
313 -626 882 0
312 491 97 0
429 829 806 0
164 832 -350 0
-730 -251 -783 0
-481 940 291 0
484 -695 -617 0
-416 446 187 0
-384 -498 -645 0
-582 352 -801 0
-977 123 -686 0
622 -325 -216 0
599 530 520 0
-394 -905 -427 0
547 834 -218 0
643 -987 -930 0
-388 -466 -59 0
-482 669 -150 0
932 -277 -947 0
-670 256 855 0
453 -787 -231 0
745 423 189 0
259 -450 -573 0
-896 407 557 0
601 891 -929 0
145 193 97 0
-981 146 10 0
-877 381 454 0
843 -707 -800 0
-878 795 -341 0
-59 399 446 0
-76 760 -875 0
328 -244 -278 0
-619 563 -706 0
-290 677 -979 0
-517 -251 127 0
945 -916 743 0
90 -920 386 0
-994 -173 -445 0
490 443 -56 0
-330 752 -812 0
856 868 824 0
-230 -962 108 0
630 -502 132 0
-456 -914 -804 0
-704 -68 461 0
638 421 497 0
656 -767 942 0
502 -577 -483 0
519 -407 -32 0
-862 983 535 0
-642 315 697 0
-419 736 104 0
-699 961 -331 0
127 -721 -733 0
-712 -496 -108 0
-726 390 -799 0
-304 -699 157 0
-227 -400 -980 0
726 245 931 0
-860 133 -823 0
235 -111 547 0
-939 516 -717 0
-359 -839 -327 0
-237 -271 -854 0
513 770 897 0
290 -45 697 0
-857 -318 -95 0
903 -949 602 0
-772 -564 830 0
27 -192 261 0
-394 -79 -203 0
-372 820 -522 0
-573 -234 -891 0
-436 -927 -147 0
-522 -874 855 0
-277 -988 -274 0
673 396 -628 0
-49 -510 954 0
-587 -739 140 0
-485 919 -10 0
429 -477 26 0
386 -391 -278 0
-625 -350 2 0
-326 -191 -169 0
277 -864 -869 0
101 461 368 0
-81 -810 -11 0
-47 152 845 0
-513 271 -211 0
314 -921 -615 0
761 -641 -408 0
-232 -535 953 0
687 54 -230 0
590 813 -912 0
625 9 632 0
310 608 149 0
318 783 869 0
-95 935 848 0
506 377 81 0
670 236 -924 0
35 -808 524 0
-401 -189 -719 0
717 777 -453 0
967 84 -671 0
-979 -96 -44 0
-80 -901 991 0
-334 885 539 0
534 -489 8 0
877 -640 -934 0
-832 867 447 0
-381 988 918 0
6 -698 547 0
-278 -971 564 0
283 -600 -454 0
-718 -983 -562 0
-456 938 -681 0
735 938 217 0
-51 -329 -943 0
-169 394 829 0
-106 460 -442 0
346 -602 -422 0
-570 -324 65 0
-104 -658 340 0
582 765 522 0
-464 -436 1 0
-580 -953 -848 0
-982 908 -942 0
485 748 -594 0
36 233 -729 0
-205 -968 261 0
-860 -181 -548 0
-596 -33 527 0
-730 44 -785 0
-197 655 705 0
-17 -991 184 0
-899 -109 446 0
74 -495 696 0
-931 -711 -815 0
-177 -149 249 0
-168 -21 519 0
635 -469 -186 0
202 -692 151 0
-851 474 -912 0
-966 550 -311 0
-413 -13 714 0
152 -402 682 0
-44 -121 -487 0
-541 -3 743 0
-108 376 864 0
-732 746 12 0
152 -462 996 0
-740 5 370 0
577 -312 572 0
-356 -753 -277 0
404 755 456 0
99 -599 353 0
661 -799 981 0
-217 -182 -188 0
188 928 -568 0
351 -584 575 0
-740 -788 -686 0
69 -853 -106 0
-861 648 -256 0
383 708 -545 0
581 -957 -83 0
-470 181 -871 0
-395 275 510 0
315 996 179 0
-803 975 -128 0
-922 280 768 0
781 -629 164 0
50 706 -230 0
37 -223 -347 0
248 -168 850 0
989 -531 5 0
-318 865 -831 0
-405 250 120 0
-700 205 317 0
906 -851 -979 0
-56 -414 -887 0
-631 -794 413 0
-983 30 -970 0
-165 930 643 0
-996 -469 650 0
565 -43 934 0
772 727 340 0
670 -548 -356 0
-566 376 811 0
-212 -190 857 0
-757 -779 -147 0
669 -710 373 0
-909 -887 567 0
80 -889 895 0
264 928 -915 0
-352 -77 -356 0
-272 -124 -374 0
-711 -821 -254 0
353 -159 326 0
87 996 171 0
-889 -500 37 0
-722 89 -17 0
297 -974 -908 0
221 186 -754 0
-661 -290 635 0
-768 -198 614 0
-406 127 743 0
-73 712 -501 0
650 -361 286 0
76 -82 -44 0
232 -11 706 0
-657 252 567 0
894 99 216 0
57 737 -791 0
-467 -46 959 0
516 -396 26 0
965 796 -658 0
-889 567 834 0
-983 893 -254 0
965 545 -263 0
569 -135 298 0
248 762 58 0
909 657 -783 0
-198 877 -170 0
547 268 -791 0
-750 863 809 0
609 -590 869 0
-757 -112 977 0
-841 154 -109 0
631 -15 483 0
632 216 572 0
-14 -447 -539 0
-63 -691 -945 0
189 188 912 0
-822 352 -467 0
94 909 228 0
30 -353 -78 0
-617 90 978 0
-67 -338 936 0
965 -713 -563 0
907 -993 -4 0
205 310 76 0
432 -398 695 0
764 164 -608 0
701 934 183 0
-377 -167 513 0
789 816 795 0
514 280 369 0
123 -78 -378 0
16 -46 341 0
-11 715 -23 0
-631 -767 -376 0
264 101 -489 0
469 -166 879 0
619 -357 754 0
-861 -354 -533 0
509 339 576 0
977 -80 -96 0
839 -778 -858 0
940 82 316 0
-531 553 272 0
-810 811 -569 0
716 -250 383 0
-752 904 647 0
-921 555 -888 0
-6 4 -412 0
900 556 -281 0
520 132 -986 0
-271 -592 -433 0
-541 78 -280 0
-956 -113 -314 0
607 728 -337 0
202 -852 325 0
-669 553 -12 0
-759 -555 946 0
674 -454 -893 0
-113 -303 -662 0
861 -325 61 0
-432 575 -764 0
616 691 -92 0
108 254 -781 0
-524 618 914 0
598 463 -622 0
-350 65 46 0
521 10 -514 0
-503 -726 -865 0
-318 -222 -961 0
999 101 -778 0
-298 757 -4 0
-686 -82 -146 0
958 -652 433 0
886 -949 522 0
-936 463 582 0
-782 -39 -762 0
-432 -226 5 0
953 -257 -84 0
-452 -662 -240 0
-898 -791 345 0
-975 -67 307 0
-772 856 571 0
714 -16 932 0
-197 -972 -744 0
-839 416 -852 0
-979 109 312 0
-440 172 578 0
-624 353 -851 0
452 565 329 0
234 887 308 0
-67 -753 -601 0
-466 580 929 0
-969 -684 421 0
437 -202 -249 0
-438 -612 780 0
-52 -855 -763 0
-875 -939 -67 0
977 473 643 0
721 -164 -380 0
-847 64 823 0
760 -859 656 0
-464 -161 -785 0
314 -159 -170 0
-332 -259 343 0
696 263 768 0
124 -9 -79 0
-244 -489 332 0
971 217 618 0
-794 758 -696 0
-825 984 65 0
584 -280 488 0
-682 -368 -267 0
-667 -436 -592 0
-520 -111 -635 0
-592 477 -933 0
-740 -562 428 0
-960 805 -13 0
318 446 556 0
-230 636 727 0
-980 -903 591 0
-800 -955 58 0
352 373 701 0
-295 -449 -356 0
860 -765 -705 0
-531 509 386 0
171 499 178 0
-53 -563 -665 0
-538 -190 -787 0
-210 -55 -822 0
-409 -467 135 0
305 -679 745 0
-943 -889 16 0
-135 -506 -201 0
340 -423 -509 0
-20 258 -813 0
-468 -258 543 0
-542 -220 919 0
-375 -560 -21 0
401 102 123 0
-690 -319 -411 0
418 224 -817 0
177 11 171 0
926 694 588 0
-206 -184 623 0
-824 780 -579 0
-420 841 -440 0
-312 -835 166 0
-328 -823 -847 0
130 862 -827 0
447 877 576 0
-473 -587 -167 0
-329 75 -174 0
-377 53 -44 0
738 -660 77 0
-205 874 -954 0
-447 -503 -91 0
-977 -310 -107 0
-331 -749 -852 0
-38 -869 -152 0
392 -412 -241 0
66 606 -940 0
719 -440 238 0
-340 -697 48 0
972 275 -613 0
57 437 -915 0
839 526 -269 0
759 -871 338 0
787 -582 -492 0
20 -778 481 0
269 523 -878 0
695 -912 772 0
-661 156 770 0
297 574 -192 0
707 919 -710 0
6 860 833 0
-811 197 173 0
-197 -59 990 0
-436 -726 517 0
-604 -587 -7 0
126 647 895 0
919 99 -864 0
-573 634 324 0
-264 584 879 0
-664 -800 47 0
700 -111 -493 0
854 310 419 0
-728 274 984 0
38 -14 190 0
764 644 -446 0
472 998 600 0
980 -418 284 0
807 -558 -482 0
705 634 764 0
-956 -332 199 0
-790 770 -294 0
-719 -536 -842 0
403 -477 -253 0
-286 836 483 0
351 -973 -93 0
816 -112 410 0
-264 -456 818 0
-560 803 -678 0
723 -491 655 0
-506 -559 -705 0
-195 389 -440 0
-461 361 -545 0
870 171 -546 0
916 347 -242 0
412 511 587 0
412 622 367 0
-286 804 593 0
86 981 -941 0
-828 175 717 0
-410 121 365 0
86 865 -542 0
-992 899 -811 0
-526 -342 -290 0
532 961 218 0
-305 63 459 0
-344 769 -810 0
628 308 -254 0
-263 -975 -908 0
-612 251 -953 0
-616 401 -459 0
262 -986 -42 0
-116 724 -20 0
86 -107 714 0
-715 -248 250 0
715 -878 -506 0
-458 -721 -947 0
232 744 -472 0
-244 -427 -751 0
-556 -888 478 0
-938 242 105 0
-486 -900 783 0
393 966 778 0
-191 304 755 0
-544 -918 508 0
-855 -595 -966 0
278 922 553 0
935 -667 -972 0
497 50 -701 0
891 787 377 0
-419 -643 -544 0
752 -811 -548 0
-384 224 -740 0
627 -550 -356 0
868 195 138 0
356 -76 434 0
-109 611 637 0
-654 209 427 0
140 -681 662 0
-236 -247 15 0
491 831 -922 0
-724 -445 524 0
162 781 230 0
-602 768 -902 0
-18 564 776 0
144 320 750 0
967 -741 968 0
370 102 -41 0
322 -666 -118 0
-189 -344 -757 0
-663 -297 -447 0
-778 -203 144 0
-310 -686 -297 0
440 -474 966 0
989 -824 -499 0
31 203 -762 0
-239 211 -427 0
112 933 401 0
-911 841 -534 0
706 -839 667 0
408 476 582 0
333 -866 780 0
859 -575 -719 0
-409 -582 881 0
501 -748 407 0
50 -210 487 0
-736 975 106 0
-341 -804 203 0
824 -383 602 0
910 161 -728 0
-460 -561 -173 0
361 410 -632 0
317 616 913 0
477 144 617 0
-616 -317 169 0
586 705 694 0
545 -226 -815 0
804 185 -917 0
-903 400 -854 0
-349 33 -85 0
-470 655 55 0
-671 -544 -714 0
289 -626 -629 0
679 -247 463 0
375 711 -744 0
-573 -808 -913 0
-134 -88 -778 0
-903 -621 -281 0
-522 -469 -872 0
488 -196 -636 0
-438 -922 -708 0
639 -913 -822 0
-544 -738 170 0
-586 864 -480 0
989 -364 35 0
700 166 -851 0
-937 -667 -283 0
-999 869 799 0
-12 253 -219 0
973 144 806 0
-712 -868 401 0
-162 507 -693 0
-253 -139 412 0
-817 -484 -542 0
-222 -299 344 0
-847 -134 -361 0
867 -545 -698 0
-268 75 -645 0
39 -488 906 0
-932 -104 -555 0
-628 499 435 0
785 864 427 0
-887 -755 -447 0
793 671 795 0
-625 -383 -288 0
-636 -656 -812 0
227 572 654 0
645 -10 47 0
778 -631 -497 0
727 -960 -300 0
673 16 468 0
-483 -477 341 0
-589 96 -580 0
682 295 -534 0
780 563 355 0
-782 -984 -186 0
878 155 110 0
-973 -993 -156 0
569 468 687 0
494 294 140 0
823 141 299 0
-226 734 447 0
666 313 633 0
182 -825 921 0
108 -563 39 0
52 -969 -882 0
-14 -158 -471 0
-382 -923 665 0
53 849 673 0
270 582 118 0
429 842 -760 0
229 210 651 0
-354 509 -183 0
114 -475 442 0
-667 -639 -483 0
-691 844 -507 0
803 237 61 0
297 -3 -315 0
675 199 355 0
-704 -51 87 0
-9 200 -919 0
-282 -45 -426 0
-752 -153 -59 0
396 235 627 0
937 -50 592 0
626 -672 567 0
126 -272 -561 0
-229 973 -378 0
256 -476 931 0
48 -741 344 0
-849 938 -149 0
-566 392 444 0
615 848 467 0
-196 -486 490 0
-842 456 736 0
-944 903 924 0
920 679 -527 0
147 602 -814 0
-500 893 661 0
-9 296 517 0
762 476 742 0
-879 342 47 0
908 -815 384 0
858 89 4 0
-937 391 923 0
-168 12 926 0
930 622 770 0
-449 -425 672 0
-417 -555 -123 0
-975 -205 397 0
915 -345 -527 0
298 428 -292 0
866 -228 219 0
665 -258 -697 0
-937 46 566 0
471 -210 -581 0
712 540 -228 0
458 262 280 0
-4 -115 -565 0
-493 -40 -251 0
-117 904 93 0
-871 28 -98 0
541 30 -155 0
607 -243 -84 0
479 -652 -956 0
-545 732 708 0
257 -993 911 0
-129 -902 -277 0
251 375 -240 0
609 723 290 0
580 769 -577 0
542 -73 493 0
-169 -469 -543 0
492 72 838 0
-16 -59 380 0
-203 604 658 0
446 -320 156 0
265 730 122 0
892 154 -984 0
-225 -350 -866 0
847 -564 -597 0
-376 975 685 0
342 -217 507 0
-332 132 135 0
-979 732 59 0
-336 -584 545 0
746 -363 -749 0
-629 156 901 0
612 -907 -571 0
677 -891 717 0
-392 -373 261 0
838 -142 -67 0
14 -432 -865 0
-319 193 -230 0
-358 -837 842 0
296 64 -673 0
378 -901 486 0
590 763 -332 0
-556 -35 -41 0
-6 249 236 0
739 486 -692 0
220 896 510 0
-2 -930 337 0
-569 633 44 0
390 -924 50 0
311 667 -69 0
426 544 675 0
120 53 -740 0
113 -283 302 0
-149 -367 -134 0
-556 -918 947 0
-275 205 -14 0
-348 -116 283 0
69 -528 -811 0
965 225 -233 0
749 571 -248 0
-162 525 268 0
-918 463 -750 0
-460 -781 -823 0
968 309 -526 0
968 -482 85 0
-343 -32 -940 0
605 676 -336 0
-980 -521 -988 0
488 -542 661 0
-865 -154 -975 0
-978 -507 284 0
1 -758 -881 0
-694 -400 683 0
544 -84 50 0
-492 -727 -507 0
-644 133 -310 0
-21 -53 -171 0
941 491 199 0
-129 -93 419 0
-427 -233 -476 0
-192 471 181 0
215 -492 956 0
-412 -260 723 0
-323 628 642 0
653 -959 724 0
-1 -453 433 0
8 9 -471 0
575 -418 548 0
-74 431 619 0
-178 -991 -635 0
15 -381 -642 0
269 -307 -367 0
514 -518 -26 0
-968 -417 -860 0
551 -396 -250 0
443 -44 454 0
-25 -642 -680 0
-261 -766 -487 0
-752 -727 -64 0
-638 679 522 0
-895 123 698 0
312 665 -617 0
365 568 -904 0
518 -449 -314 0
19 917 614 0
269 872 847 0
-478 -253 -475 0
-631 650 470 0
463 389 714 0
-942 587 907 0
740 -196 -247 0
-42 839 -301 0
782 -454 294 0
243 -679 851 0
497 -786 -590 0
982 192 265 0
-963 -952 126 0
-125 107 -198 0
-629 -876 -418 0
-171 346 412 0
-541 -782 49 0
230 307 -184 0
-190 360 43 0
-627 -799 -805 0
-675 692 552 0
649 -585 261 0
-861 985 -818 0
-109 -812 930 0
-2 -396 224 0
-128 680 179 0
-591 268 -991 0
723 -286 -357 0
-301 538 -354 0
822 693 -457 0
696 846 329 0
575 -973 -790 0
846 -209 -79 0
-387 -268 -242 0
-39 -235 827 0
87 -83 959 0
-41 998 -224 0
-89 -949 193 0
-453 -925 -495 0
-997 197 -908 0
-560 -522 981 0
-649 -921 925 0
740 486 681 0
-610 302 -944 0
-435 -106 925 0
-893 -701 -227 0
300 -544 -496 0
-754 320 579 0
-596 640 954 0
-956 162 -430 0
620 -405 -442 0
-96 335 674 0
-369 907 514 0
66 -525 16 0
902 844 637 0
581 -390 -428 0
666 -728 -453 0
-293 -708 422 0
663 254 -209 0
201 460 -990 0
137 -934 789 0
-687 -727 -851 0
-78 -364 962 0
-891 506 -110 0
634 -741 204 0
213 -341 634 0
341 490 99 0
-45 585 -553 0
546 355 -593 0
-760 -765 893 0
-661 -4 378 0
-481 -731 -814 0
1000 -360 192 0
-908 -656 686 0
-162 657 589 0
-488 181 -810 0
-822 225 463 0
901 -233 385 0
-286 -43 294 0
-998 167 -704 0
311 -748 640 0
997 333 -395 0
628 -359 877 0
-698 193 -237 0
546 321 956 0
65 -211 -976 0
61 587 414 0
905 108 111 0
271 289 -793 0
-855 646 -402 0
-22 -884 351 0
-898 -577 235 0
178 421 -46 0
655 -486 -101 0
144 -565 -151 0
131 -181 -102 0
561 474 -126 0
-340 -226 85 0
317 -241 -90 0
-78 927 948 0
870 -842 505 0
-98 6 -138 0
488 -295 -487 0
-768 72 -222 0
816 -90 -808 0
785 -950 557 0
986 341 483 0
344 551 531 0
-799 -7 484 0
-165 -934 -548 0
-451 7 -707 0
-567 -820 -441 0
34 598 858 0
479 98 -859 0
816 231 248 0
445 -902 785 0
-636 -968 -976 0
-245 -230 -645 0
-619 784 -232 0
-423 -105 617 0
-365 677 213 0
-678 101 497 0
109 893 -331 0
-648 -133 753 0
-401 -584 35 0
-400 -714 413 0
-704 474 -168 0
-676 361 413 0
-217 746 -890 0
724 987 -767 0
642 -181 -659 0
-838 587 492 0
-40 -974 -755 0
-228 -25 -944 0
-951 -507 -722 0
915 -831 278 0
-989 -888 56 0
-306 -555 -895 0
509 -688 -487 0
914 230 157 0
87 -365 -662 0
421 -972 -825 0
-718 836 226 0
440 711 808 0
-43 718 -200 0
-580 -229 -650 0
-609 -349 823 0
950 -704 -388 0
770 -23 247 0
868 -677 -975 0
209 -640 -710 0
796 -935 -274 0
126 -664 -863 0
175 218 310 0
-127 -594 629 0
-290 634 -766 0
498 -320 443 0
846 554 155 0
454 99 -677 0
-341 984 474 0
912 -872 521 0
-59 979 81 0
155 347 23 0
657 -648 -894 0
906 816 280 0
877 251 248 0
586 540 -26 0
320 555 -59 0
280 -50 174 0
567 -160 32 0
921 946 486 0
-986 821 -224 0
2 472 -102 0
-279 634 -813 0
472 865 -671 0
-757 575 -487 0
415 652 518 0
-645 -411 -836 0
445 153 345 0
-30 429 759 0
-889 527 707 0
76 -377 -380 0
-375 -686 941 0
-41 -625 645 0
-540 -809 -362 0
71 -424 212 0
-192 -590 -848 0
-537 310 145 0
-553 197 632 0
12 -536 -242 0
-459 -901 -267 0
182 -821 486 0
-26 415 162 0
508 -821 319 0
-185 -123 236 0
-861 -653 1000 0
724 -587 -826 0
360 822 -828 0
-326 670 -948 0
935 -529 -677 0
-370 925 -297 0
579 759 137 0
-410 -157 237 0
-464 -779 -448 0
136 -845 -436 0
-116 124 680 0
-232 -364 859 0
-256 289 339 0
-141 -622 -228 0
-372 205 -503 0
-955 -261 530 0
64 587 440 0
696 270 190 0
-783 -840 576 0
660 -439 -11 0
235 82 883 0
-770 238 -794 0
318 961 -996 0
-306 407 -38 0
-116 497 332 0
33 370 -289 0
750 704 774 0
-807 662 571 0
-31 -338 379 0
279 -305 -778 0
-677 -764 613 0
-264 557 -627 0
-371 354 -723 0
-915 -446 954 0
-416 935 -999 0
931 -474 -916 0
-367 485 189 0
-85 633 758 0
-616 -505 -962 0
-511 -515 10 0
155 -403 -29 0
731 823 662 0
-668 -163 -671 0
-930 -434 116 0
309 528 -273 0
-699 -875 -50 0
174 -176 -368 0
455 105 819 0
-426 865 25 0
-509 -116 -291 0
938 -584 -853 0
249 -457 -282 0
-554 -351 204 0
-464 846 308 0
970 -564 342 0
-733 -965 938 0
86 128 -935 0
-516 -734 -529 0
-147 389 -211 0
349 648 779 0
115 423 -648 0
402 -194 573 0
75 -529 722 0
797 -55 -72 0
-54 896 886 0
516 68 -703 0
341 -397 698 0
-654 -730 -421 0
180 152 -486 0
432 880 954 0
444 935 783 0
-356 440 841 0
635 468 -741 0
-821 633 382 0
449 575 -761 0
827 794 -164 0
-163 -951 -921 0
929 -437 -32 0
909 698 -843 0
325 271 832 0
882 510 -815 0
624 -701 -470 0
373 -137 -259 0
924 -120 -524 0
564 340 483 0
973 167 -778 0
951 -841 -941 0
879 -445 -434 0
904 -15 -394 0
-129 30 246 0
363 3 -929 0
-120 -348 -86 0
105 112 827 0
-298 -966 104 0
-969 -262 209 0
986 -87 -114 0
118 783 -116 0
-443 -174 450 0
-986 -647 -266 0
445 808 956 0
319 -290 -761 0
-628 -558 385 0
32 177 221 0
-781 484 -394 0
787 160 381 0
-801 -472 551 0
938 -194 955 0
-30 479 747 0
796 -173 -219 0
-488 912 363 0
-190 -11 -737 0
-933 554 724 0
-885 64 -505 0
149 -868 509 0
-894 80 -735 0
271 548 -916 0
490 65 996 0
-859 -939 38 0
-946 236 -953 0
483 219 -967 0
-282 690 544 0
259 463 991 0
-336 -606 98 0
765 804 977 0
372 -541 411 0
-449 511 824 0
256 970 506 0
720 -230 -538 0
322 949 833 0
-522 -844 798 0
-642 15 -343 0
-356 321 -901 0
-977 932 175 0
966 469 -434 0
962 613 -707 0
-760 661 682 0
-450 98 -873 0
-38 316 610 0
143 -656 456 0
824 453 -961 0
971 -745 594 0
-415 843 -955 0
364 322 754 0
-706 -410 -874 0
431 64 451 0
-425 -118 -600 0
98 -287 506 0
-550 -47 46 0
-884 -839 -846 0
-528 24 87 0
-523 302 436 0
169 -414 -108 0
486 -532 320 0
746 361 974 0
-817 -953 78 0
-857 -309 -327 0
-552 -522 170 0
377 -556 -835 0
-745 872 -70 0
-215 860 289 0
-642 -766 -74 0
845 555 -615 0
-967 573 52 0
625 814 384 0
894 -106 -341 0
576 -914 477 0
689 274 -368 0
-333 -560 389 0
901 513 -557 0
-430 817 9 0
-234 162 -903 0
-410 426 42 0
207 150 333 0
367 -381 395 0
-53 433 966 0
906 472 603 0
-487 983 554 0
-881 200 582 0
116 224 889 0
-321 -919 59 0
127 -172 -386 0
-544 -401 -480 0
-542 74 -88 0
-290 67 596 0
-980 670 -80 0
-464 -648 -506 0
-880 -638 -512 0
462 527 -844 0
-511 -46 368 0
977 861 694 0
-655 -343 47 0
-781 -309 -86 0
206 256 -932 0
-688 -177 716 0
533 847 -150 0
-432 -749 713 0
-429 -120 972 0
448 -396 362 0
950 884 -634 0
449 -252 -768 0
-912 -899 -984 0
-388 -478 760 0
594 162 262 0
-195 -486 -824 0
-447 -971 2 0
671 437 181 0
-199 -12 636 0
-586 -943 450 0
-112 445 -144 0
161 -503 -702 0
527 -128 -81 0
617 884 545 0
979 -626 462 0
-424 255 -683 0
208 -298 -791 0
933 -885 -660 0
163 608 -510 0
453 -387 -748 0
-995 -155 -383 0
905 118 -960 0
2 -856 -481 0
772 -690 -981 0
830 -264 -454 0
-286 613 805 0
-521 462 401 0
-606 -476 809 0
-357 402 270 0
-840 -417 713 0
788 773 -196 0
-658 709 158 0
-254 747 -726 0
-942 -957 -213 0
-579 -52 -759 0
-232 691 214 0
55 961 -890 0
263 892 -362 0
-264 275 -302 0
-732 726 -681 0
-687 -344 6 0
22 -839 -248 0
935 -498 -182 0
-252 -620 540 0
359 -706 -53 0
-727 87 189 0
179 -877 26 0
-951 -468 -877 0
-794 -190 941 0
-629 -929 -589 0
-454 387 265 0
-469 878 675 0
-531 -418 916 0
-884 189 -749 0
200 -446 557 0
906 -821 356 0
-617 130 965 0
490 -556 257 0
-935 -932 505 0
-131 652 -747 0
850 -734 -897 0
953 -684 915 0
-465 -759 -702 0
276 -127 -299 0
-118 -971 -710 0
310 650 -17 0
-846 -721 92 0
583 423 165 0
-298 -420 -174 0
-808 119 282 0
542 967 -379 0
-324 672 629 0
-883 139 -824 0
509 -483 -536 0
973 -834 -677 0
185 -532 -221 0
-423 -467 67 0
114 -245 -410 0
524 407 -253 0
-153 -467 -996 0
-530 801 -597 0
-419 675 392 0
623 74 442 0
-198 761 -312 0
-649 -317 368 0
89 -811 -961 0
656 509 -523 0
113 -33 261 0
477 484 -990 0
502 -759 275 0
-404 637 -263 0
902 -232 553 0
706 -382 349 0
2 -32 -795 0
994 547 -90 0
-103 322 -214 0
-288 951 -664 0
-98 191 -780 0
-824 882 -63 0
446 421 403 0
428 -973 -518 0
-228 -32 779 0
-722 308 -819 0
-682 770 852 0
515 -383 -568 0
916 -328 -451 0
-150 490 -302 0
-891 -135 -280 0
-870 -420 212 0
-409 -785 788 0
696 397 634 0
-101 -905 -563 0
542 267 698 0
-487 932 844 0
-917 -136 823 0
-18 -690 465 0
-856 -621 -853 0
-916 759 534 0
-604 425 -818 0
-175 -808 -643 0
525 686 333 0
39 -779 542 0
184 229 374 0
678 -77 925 0
775 -49 367 0
468 250 -828 0
705 -909 360 0
98 143 88 0
-211 367 -126 0
-323 -361 506 0
-715 -93 -820 0
895 -356 -532 0
-188 -702 -369 0
552 -875 -699 0
-416 403 -160 0
-995 -13 -999 0
-213 -138 -559 0
192 -62 589 0
116 340 -836 0
-31 -410 -973 0
28 116 -799 0
395 -805 -70 0
-378 219 797 0
942 698 -48 0
-582 803 -554 0
-70 620 369 0
-188 -676 745 0
846 978 -896 0
-74 689 350 0
-743 -34 388 0
967 -567 -277 0
857 828 808 0
282 101 860 0
256 298 -643 0
-601 -630 508 0
904 -721 915 0
-373 167 -212 0
963 512 -523 0
-605 923 -430 0
-87 110 267 0
396 611 327 0
721 -818 -297 0
-40 6 893 0
809 606 885 0
77 -416 -381 0
734 -327 927 0
-155 170 -829 0
-447 463 -650 0
36 781 455 0
-341 -280 41 0
650 -665 213 0
-211 -415 93 0
475 -17 378 0
275 201 -859 0
-621 227 376 0
368 731 -421 0
-85 418 -852 0
553 -248 -340 0
-922 -767 -99 0
347 98 453 0
297 -476 602 0
73 416 -956 0
-788 626 -852 0
-438 -871 -718 0
-299 728 386 0
-122 153 138 0
-38 763 461 0
357 711 388 0
721 -695 926 0
908 -492 -888 0
579 309 605 0
-807 -967 -888 0
-477 835 632 0
276 13 -704 0
-881 282 -970 0
253 -163 742 0
-23 -113 -848 0
807 -170 654 0
359 270 -787 0
900 -805 -131 0
18 747 755 0
746 371 129 0
744 19 160 0
-660 -929 162 0
-681 606 -5 0
629 -848 -711 0
-731 952 729 0
838 665 283 0
112 642 845 0
624 592 819 0
-590 607 411 0
846 291 -129 0
773 -593 221 0
-639 -913 -328 0
308 -725 -129 0
36 -257 779 0
680 847 523 0
-464 72 -449 0
225 -285 103 0
101 -771 385 0
252 532 -773 0
361 940 515 0
834 926 -575 0
-871 671 -732 0
-365 -189 -178 0
-966 -89 -131 0
781 -372 760 0
39 -76 -223 0
-519 124 5 0
-502 -961 -508 0
467 35 -209 0
173 130 -872 0
-702 -176 383 0
-522 98 -284 0
-539 -72 -769 0
360 389 10 0
-608 84 -73 0
698 -518 2 0
748 176 231 0
196 -498 24 0
-79 966 -742 0
8 -374 -875 0
-168 -46 -796 0
-689 -142 -288 0
768 577 344 0
217 574 795 0
-660 -233 -273 0
700 -46 646 0
765 722 636 0
194 -954 796 0
-206 -382 -191 0
769 -444 635 0
265 -167 -602 0
-955 40 -349 0
-709 -728 -231 0
-220 115 216 0
958 -200 696 0
-860 -73 885 0
-117 599 -127 0
-571 166 -335 0
-537 826 -351 0
568 -869 246 0
-636 935 191 0
-493 313 827 0
829 586 -567 0
-331 -704 -596 0
684 348 -372 0
510 948 48 0
741 736 -181 0
217 -267 -902 0
-92 191 -879 0
679 657 -866 0
-575 742 -415 0
-792 479 -538 0
405 68 688 0
-792 44 972 0
442 -898 -705 0
289 -759 -917 0
-320 803 -523 0
-186 -445 201 0
-722 -222 219 0
127 240 -738 0
-641 518 653 0
-973 698 -206 0
-316 -530 -427 0
412 -885 559 0
476 -96 -589 0
-140 -183 293 0
-309 673 -872 0
-403 136 -322 0
-237 897 602 0
218 -960 -492 0
-334 -768 -575 0
-327 903 -706 0
195 723 -926 0
57 390 761 0
295 675 -4 0
633 -509 554 0
-809 499 -140 0
932 982 -889 0
-903 -97 305 0
577 -599 -937 0
-207 -654 626 0
-738 395 -740 0
810 -164 312 0
-426 -951 -214 0
327 -536 -132 0
-893 924 -114 0
2 533 203 0
-647 -14 -118 0
-325 -746 321 0
-223 -13 68 0
-500 415 684 0
-924 -878 -191 0
264 523 813 0
329 -846 127 0
-740 -715 667 0
-40 330 -866 0
-680 -221 -886 0
50 -712 456 0
-959 -842 800 0
67 796 98 0
391 -991 -394 0
817 520 262 0
-105 -47 648 0
-858 -222 -609 0
-290 419 898 0
-195 -352 773 0
169 648 872 0
876 -658 839 0
258 -248 -467 0
-264 -429 -439 0
934 272 736 0
678 -631 854 0
-43 -781 705 0
705 -515 -600 0
91 570 -735 0
-173 940 -883 0
661 -153 909 0
656 825 786 0
468 -93 -984 0
570 597 367 0
207 998 -419 0
-442 489 154 0
-423 751 856 0
498 712 924 0
626 753 -770 0
708 -559 426 0
-867 288 -988 0
-444 -822 870 0
-742 -888 614 0
-542 255 -860 0
250 -609 473 0
-881 255 59 0
-587 -504 801 0
686 685 410 0
-395 646 497 0
-370 736 -613 0
-940 981 -32 0
435 -904 -320 0
891 -831 177 0
-965 -42 -601 0
-424 -696 500 0
-949 -209 73 0
-660 -66 291 0
671 234 -33 0
-245 218 205 0
382 269 -175 0
570 -916 -254 0
474 -668 -671 0
383 -117 100 0
-383 135 -741 0
715 -695 331 0
-849 265 33 0
-979 -592 262 0
-544 -1000 338 0
972 -967 -887 0
394 -957 -790 0
57 -291 902 0
-633 -895 536 0
314 387 220 0
285 -819 -405 0
-717 -122 39 0
-501 -961 -639 0
497 100 -335 0
553 -249 -780 0
522 845 -787 0
-507 551 -701 0
103 -559 171 0
559 938 487 0
-414 59 977 0
536 740 970 0
-622 681 -189 0
-701 208 -268 0
-950 -419 979 0
481 -416 -100 0
-889 -115 -936 0
-750 -196 796 0
-612 317 -242 0
41 -70 330 0
772 -118 -45 0
-112 1000 -888 0
-332 62 -557 0
-736 -863 550 0
696 908 -848 0
-628 -495 -161 0
742 -430 -34 0
405 442 -453 0
-158 -458 -501 0
-867 514 -658 0
846 -413 214 0
-687 805 -884 0
-777 -320 78 0
345 -862 548 0
828 -165 369 0
38 -357 -770 0
-455 814 611 0
-707 -283 -438 0
524 499 366 0
-829 471 -357 0
-983 -204 176 0
820 -364 111 0
-219 947 -905 0
335 786 -997 0
816 -926 356 0
-154 877 -292 0
226 -8 -64 0
-438 219 -726 0
-384 486 -410 0
779 702 636 0
-309 -93 -553 0
-520 3 845 0
930 471 711 0
-776 -569 -333 0
-345 438 210 0
-265 -845 398 0
-388 134 -405 0
-397 447 -539 0
-524 438 -42 0
471 -170 464 0
-386 -342 -652 0
-107 442 -64 0
24 -253 141 0
-708 195 583 0
-988 220 359 0
-688 939 114 0
324 -265 929 0
-765 -232 -30 0
721 -165 181 0
369 226 465 0
859 -967 869 0
-438 -340 -667 0
-926 -235 307 0
-488 -289 198 0
-431 307 820 0
-455 -260 945 0
-484 6 71 0
825 131 72 0
-484 738 889 0
649 -80 -36 0
235 252 349 0
485 -447 579 0
-646 -483 -649 0
260 -454 328 0
972 -670 847 0
-438 644 -447 0
-130 -175 -798 0
22 -635 70 0
982 813 69 0
257 -587 -325 0
-349 670 -528 0
70 314 435 0
610 -98 904 0
-264 366 598 0
742 -397 -438 0
-665 181 435 0
410 458 -519 0
901 750 10 0
-323 968 -797 0
348 16 697 0
-968 -843 633 0
-324 -918 -970 0
676 -219 -557 0
-802 472 -297 0
574 480 749 0
737 323 418 0
867 81 -180 0
655 432 -589 0
-944 -135 606 0
609 459 297 0
19 162 -366 0
551 -290 -858 0
-232 553 -160 0
-36 -574 804 0
-734 -467 -612 0
-221 931 514 0
-311 631 -138 0
-556 -616 683 0
27 -774 -736 0
-114 -101 -78 0
-607 16 -223 0
-939 388 -247 0
648 675 -127 0
811 -345 78 0
475 925 808 0
345 -293 188 0
122 -548 -61 0
-815 824 -433 0
59 -155 -347 0
-131 49 294 0
944 747 251 0
-240 -708 -789 0
560 -471 -997 0
-158 -841 -766 0
-463 739 95 0
570 627 43 0
10 -974 -827 0
-595 599 -814 0
558 606 -670 0
-526 602 133 0
2 -356 -853 0
-884 -527 -384 0
349 320 563 0
-819 499 213 0
-865 214 -915 0
954 1000 407 0
-241 706 -323 0
-452 -422 -436 0
393 -691 565 0
97 583 -237 0
73 569 -190 0
199 797 492 0
-375 -228 809 0
468 -314 -104 0
-22 -77 192 0
-65 -106 -804 0
-769 410 -799 0
-505 20 -307 0
679 711 863 0
-657 -913 -550 0
707 -822 -700 0
555 -275 -154 0
-271 209 -193 0
254 -546 719 0
-88 -764 -988 0
-69 986 766 0
781 -904 576 0
820 -271 -807 0
553 884 -225 0
-982 -219 681 0
-277 -43 -142 0
-854 656 -565 0
-163 -928 -152 0
-929 -837 -15 0
420 9 963 0
319 392 422 0
909 -915 98 0
-515 -229 -681 0
-423 -127 -541 0
-592 -597 525 0
210 23 970 0
335 -358 -406 0
-294 -721 736 0
984 269 240 0
769 -603 752 0
739 541 -904 0
657 -244 320 0
-119 -127 -996 0
429 797 -102 0
221 552 868 0
-645 813 933 0
572 -808 757 0
867 -117 -985 0
985 -251 206 0
-572 -38 -271 0
-402 -817 -58 0
-326 949 487 0
-652 150 424 0
385 649 -322 0
-837 774 -291 0
-406 543 107 0
-976 707 709 0
361 -891 769 0
-969 450 850 0
-519 734 247 0
152 -938 469 0
934 -820 -54 0
343 -974 -789 0
-586 859 687 0
201 -818 -262 0
164 796 -885 0
644 -662 -732 0
-216 727 -951 0
-916 -726 -917 0
97 -271 729 0
595 50 609 0
242 -851 759 0
952 -436 -237 0
-311 -914 -582 0
-520 185 -126 0
-669 -544 -82 0
-243 627 590 0
-910 -365 -751 0
-95 -921 835 0
786 -985 570 0
678 -151 -564 0
226 37 643 0
-10 -200 -404 0
411 658 -805 0
-75 -13 84 0
-654 -191 606 0
-339 974 -154 0
-948 -302 322 0
895 773 -766 0
957 -313 -734 0
-261 -362 -723 0
173 -220 -930 0
664 502 772 0
354 219 -995 0
463 940 319 0
346 870 -421 0
912 243 567 0
232 122 -160 0
157 861 -557 0
-26 874 601 0
-123 312 -921 0
-603 363 488 0
313 291 457 0
-829 -334 508 0
860 -607 -769 0
379 390 -82 0
-868 -604 -841 0
-207 327 582 0
-999 -677 769 0
409 17 -271 0
632 -573 -437 0
491 -419 248 0
-426 900 -845 0
503 -741 912 0
399 956 648 0
801 188 368 0
688 -378 396 0
966 337 -897 0
880 508 922 0
838 339 -971 0
442 -180 351 0
-579 513 -750 0
-820 -166 686 0
562 348 -463 0
-859 -949 830 0
668 922 343 0
832 474 758 0
581 -533 -565 0
782 -352 -600 0
852 892 -435 0
508 -473 -772 0
-226 387 -985 0
837 990 719 0
-660 844 775 0
555 -38 -157 0
-944 427 -979 0
-89 -475 929 0
-590 -538 -625 0
362 -73 -659 0
-576 -735 -17 0
-420 878 -717 0
226 -112 -671 0
-324 311 -330 0
476 442 236 0
746 898 -995 0
-26 393 -325 0
799 -40 -813 0
606 128 -462 0
-429 769 -784 0
-750 -412 681 0
401 386 -656 0
974 110 -163 0
-290 -457 318 0
175 -339 -530 0
-425 -440 -342 0
-692 881 458 0
-971 837 -391 0
89 -220 691 0
-429 -585 -83 0
649 -397 710 0
-353 -206 -246 0
918 -538 184 0
-811 -684 -78 0
427 -985 713 0
-227 985 -776 0
39 420 -494 0
356 -832 -272 0
-589 703 518 0
-657 -656 -387 0
85 -335 195 0
-824 654 -746 0
334 -369 -737 0
659 666 11 0
-889 -970 549 0
-792 -878 -788 0
149 -500 -88 0
-656 755 -255 0
-58 -611 -393 0
-359 962 -391 0
290 -74 17 0
-672 -217 -825 0
299 -337 896 0
-905 946 666 0
599 583 -172 0
-178 813 464 0
206 397 50 0
-976 -21 -358 0
-752 -700 -33 0
-707 423 -435 0
-606 681 192 0
-129 467 -797 0
-70 -513 906 0
165 -504 476 0
-14 436 581 0
-435 -598 973 0
-680 -347 -478 0
693 -452 654 0
-67 56 436 0
-732 108 865 0
572 4 -701 0
414 515 -199 0
-181 108 651 0
480 661 210 0
491 -531 28 0
-97 -1000 -346 0
318 -560 336 0
-230 -466 734 0
422 833 -975 0
-953 -260 967 0
40 806 -1000 0
-938 606 298 0
959 930 448 0
-186 -660 -95 0
-931 230 -994 0
568 195 -817 0
208 978 -542 0
-779 89 -429 0
-832 -193 685 0
-523 -647 -447 0
-133 -817 351 0
157 -73 489 0
575 -136 549 0
183 -767 247 0
-680 -128 135 0
312 656 82 0
786 923 -618 0
-856 -89 906 0
-425 841 834 0
501 664 273 0
-940 743 534 0
-424 -651 49 0
966 -176 216 0
-92 516 -56 0
48 -826 129 0
-155 -752 579 0
37 -774 -800 0
441 -880 536 0
-963 -660 822 0
-558 877 -517 0
973 -915 846 0
-656 -636 750 0
839 -519 556 0
-116 -90 39 0
-688 -767 -49 0
-974 -150 -777 0
334 111 25 0
-166 168 400 0
833 -391 93 0
-595 -646 -247 0
-793 -988 -181 0
-510 -873 559 0
-121 787 917 0
17 -327 -560 0
-580 -792 352 0
-312 -890 -647 0
-981 248 -229 0
-741 159 -552 0
243 202 -15 0
164 14 621 0
-165 494 -816 0
-173 -151 417 0
-483 -847 569 0
161 -970 -437 0
799 601 438 0
272 -566 282 0
-501 292 -499 0
-17 460 -843 0
800 -159 140 0
353 31 -584 0
965 -623 323 0
806 52 111 0
-470 280 379 0
-70 -529 -187 0
678 -54 698 0
-347 229 584 0
256 -262 576 0
-967 -704 477 0
-14 311 -558 0
-358 601 -696 0
338 722 -583 0
-816 585 345 0
746 -908 -629 0
-127 962 422 0
-618 906 218 0
224 608 -459 0
59 -604 314 0
469 732 -465 0
-969 -215 -625 0
873 149 -385 0
-124 363 -436 0
719 796 705 0
-589 833 700 0
508 -636 411 0
951 530 -156 0
454 159 213 0
825 -651 -207 0
920 -346 542 0
174 -934 -816 0
258 -555 506 0
941 -866 135 0
480 662 510 0
-729 458 -187 0
-17 454 -575 0
450 753 153 0
-277 632 391 0
176 990 -921 0
754 -360 451 0
-521 -894 -551 0
-483 27 -629 0
510 -409 -2 0
858 263 622 0
-754 887 859 0
769 -198 -108 0
-116 218 -23 0
-647 -186 358 0
-123 -840 -594 0
238 304 -461 0
-129 490 -153 0
-983 565 -365 0
614 -465 -663 0
795 -482 -613 0
335 -237 12 0
901 -114 -604 0
-831 -993 921 0
505 -413 978 0
-518 687 769 0
-702 835 816 0
340 -992 756 0
731 -256 225 0
-844 -547 -86 0
572 470 -8 0
-355 456 -63 0
657 741 -887 0
-935 -628 519 0
57 -874 -548 0
-825 -860 446 0
586 215 -70 0
988 -26 927 0
-692 466 494 0
805 592 -216 0
-195 -287 252 0
-719 -600 -757 0
-408 -764 167 0
849 120 -440 0
-76 -392 760 0
-65 330 819 0
773 -824 802 0
17 788 673 0
985 -840 -330 0
-643 -581 843 0
-564 323 -239 0
-523 221 693 0
911 205 217 0
712 -827 637 0
697 488 -429 0
-79 -846 -269 0
-221 25 -150 0
954 774 -242 0
905 486 -259 0
598 -110 -981 0
1000 192 186 0
526 893 828 0
699 91 295 0
-30 716 598 0
712 556 171 0
-748 -886 372 0
-1 -523 -501 0
-62 169 -500 0
-214 -155 471 0
-653 -568 -707 0
785 -21 687 0
754 230 556 0
642 -158 566 0
551 -716 975 0
441 -886 809 0
468 -964 918 0
377 409 -163 0
-255 822 462 0
-24 -889 -297 0
-283 964 408 0
-74 -979 902 0
392 963 153 0
-627 -141 406 0
544 -63 -832 0
-120 -389 447 0
909 -216 866 0
-648 -247 533 0
846 503 239 0
-600 -478 310 0
-227 184 -561 0
-143 -393 -852 0
684 -649 701 0
-457 -725 -978 0
-121 -548 509 0
923 565 999 0
103 191 -476 0
130 -794 -972 0
-7 272 -650 0
-654 -270 602 0
475 27 -585 0
473 -313 -872 0
-458 160 -840 0
-255 198 -376 0
-314 242 328 0
57 952 -335 0
831 651 -464 0
-719 668 -811 0
-474 108 591 0
960 -502 -422 0
81 763 -630 0
278 508 -931 0
576 -84 -151 0
-354 779 -857 0
359 179 384 0
716 176 152 0
108 122 401 0
-407 476 -913 0
628 -964 869 0
-242 256 -465 0
400 -947 473 0
836 -129 -327 0
104 751 -178 0
-104 849 -216 0
31 893 26 0
496 -698 -609 0
-78 778 -167 0
421 130 -924 0
391 510 -474 0
156 -582 917 0
291 -414 706 0
-71 -474 86 0
-94 -805 -927 0
771 -40 -334 0
-737 -492 774 0
-60 -823 35 0
663 -4 241 0
-36 -868 886 0
-839 425 670 0
-728 553 913 0
-564 228 781 0
429 -541 -226 0
656 -375 -163 0
122 -167 -515 0
-790 502 466 0
-224 -8 262 0
-342 661 359 0
-634 828 367 0
-262 -762 151 0
200 -959 479 0
-393 -402 -702 0
-509 576 827 0
477 -74 67 0
332 248 545 0
-910 -888 222 0
-232 -793 607 0
594 -418 695 0
622 -406 2 0
247 -653 -471 0
-571 828 347 0
498 -491 224 0
925 19 620 0
349 -197 269 0
173 215 -693 0
-746 841 432 0
-475 -674 88 0
-329 787 526 0
368 870 -15 0
283 -592 985 0
454 547 -155 0
-172 -269 -770 0
169 789 847 0
903 -210 -743 0
255 778 15 0
759 -236 -639 0
247 -472 864 0
142 930 -755 0
-856 594 -373 0
776 -95 -547 0
-644 294 -558 0
632 553 -239 0
-968 88 -378 0
623 -641 184 0
-550 382 -937 0
557 759 863 0
92 -343 805 0
434 -520 972 0
866 145 266 0
199 947 27 0
-909 -631 47 0
-598 765 85 0
564 680 -925 0
-465 73 306 0
159 486 470 0
-886 489 201 0
820 302 368 0
899 668 -25 0
303 349 -40 0
835 28 -597 0
-567 -273 12 0
-81 984 864 0
-730 -408 -441 0
317 -499 963 0
-824 569 -249 0
-453 850 723 0
-165 974 642 0
63 943 81 0
487 -690 385 0
129 -469 875 0
124 -427 491 0
221 -103 -778 0
121 -264 -164 0
-649 -655 197 0
587 -70 355 0
382 -548 -562 0
405 -746 -495 0
-126 206 762 0
-142 704 905 0
843 174 202 0
-935 713 62 0
-515 -964 -126 0
918 615 548 0
292 563 -751 0
46 -432 468 0
-768 -736 -677 0
-581 -417 -722 0
4 -371 340 0
355 464 -687 0
19 -326 541 0
25 -750 171 0
-431 -74 -8 0
-435 -175 -170 0
-638 -135 765 0
-154 -807 -596 0
980 611 619 0
590 68 728 0
367 501 373 0
-463 647 -615 0
-227 -120 -24 0
-773 -233 -893 0
271 -876 -773 0
-976 -975 88 0
-572 -987 -234 0
326 -728 -479 0
466 890 -469 0
-973 83 985 0
924 -665 539 0
-656 -596 -466 0
127 -898 -633 0
100 955 549 0
340 -80 930 0
-937 733 -761 0
-658 -260 -252 0
-548 717 -611 0
344 -83 154 0
865 282 557 0
395 -986 313 0
493 -274 42 0
423 290 -168 0
388 552 -569 0
-97 -638 986 0
-491 371 -489 0
-510 218 329 0
-983 -290 791 0
-167 -400 -703 0
133 -608 449 0
-485 387 305 0
-95 921 107 0
-34 413 172 0
106 -392 550 0
-597 533 -754 0
976 218 673 0
-241 -886 -984 0
800 -699 -344 0
324 27 -274 0
857 701 546 0
-213 -745 -255 0
275 -468 -686 0
-443 -817 -524 0
-27 -806 -847 0
91 -102 -742 0
976 629 -239 0
875 -420 -964 0
293 586 269 0
686 -494 -590 0
-115 264 497 0
786 -620 -944 0
-171 44 7 0
473 743 -324 0
-853 623 472 0
828 -203 -732 0
-391 29 939 0
899 -576 -150 0
-31 -816 934 0
-196 986 -897 0
-697 -724 565 0
-162 -612 -540 0
840 -719 -436 0
863 -888 -169 0
414 410 -325 0
-31 -299 -34 0
90 351 -911 0
-788 245 -552 0
-369 -888 809 0
-283 800 369 0
43 250 -424 0
-637 -95 811 0
454 -70 -71 0
797 530 740 0
-77 -339 -919 0
5 -549 517 0
378 -836 716 0
-754 782 243 0
97 424 752 0
551 150 -649 0
694 -881 493 0
264 -169 770 0
294 -243 980 0
-174 -998 -673 0
-562 -682 821 0
-102 727 485 0
862 813 -414 0
709 -404 -223 0
314 495 170 0
705 -605 748 0
-462 653 -507 0
-514 -59 193 0
-617 -439 652 0
256 -513 -273 0
34 -790 901 0
-979 246 -88 0
-297 695 -260 0
979 807 780 0
-981 503 957 0
-619 -165 542 0
816 620 642 0
-46 -192 683 0
-280 -935 -435 0
55 -976 -394 0
596 -992 811 0
-157 838 -954 0
708 660 -378 0
649 -682 510 0
-539 556 31 0
796 -926 -4 0
-71 818 533 0
-899 751 -868 0
82 -718 353 0
-276 -439 -526 0
36 -641 663 0
133 -309 -865 0
705 -182 670 0
-979 -317 -627 0
-315 -709 232 0
474 -734 -62 0
-172 629 378 0
340 986 -165 0
128 588 215 0
-194 331 -963 0
356 -367 -232 0
-592 -396 -61 0
-65 -719 -537 0
484 339 -758 0
-145 170 -37 0
-955 -450 -211 0
-263 -130 -114 0
-997 -298 701 0
376 -30 -565 0
485 239 -230 0
543 -721 478 0
420 854 80 0
626 336 -24 0
426 -972 496 0
535 -112 -351 0
-207 -970 623 0
-225 549 -243 0
419 -264 155 0
-430 852 -429 0
-747 184 -974 0
100 -972 196 0
-333 -539 933 0
405 -329 -163 0
-341 581 234 0
642 -414 183 0
-101 751 250 0
452 -708 -303 0
-524 -18 -296 0
740 557 -19 0
-942 343 -167 0
-323 243 825 0
369 -735 -320 0
31 -846 -42 0
577 397 196 0
-80 -353 809 0
219 854 -410 0
685 42 275 0
19 518 -976 0
93 -839 767 0
-810 239 -23 0
-668 -87 949 0
-454 -717 711 0
566 -509 -525 0
232 -605 -290 0
497 969 -911 0
-184 -67 -806 0
257 -208 315 0
714 796 -848 0
-560 -516 405 0
269 507 302 0
160 409 -566 0
-894 -561 -220 0
504 -662 -773 0
-224 -390 227 0
364 701 287 0
-528 -163 825 0
935 167 -992 0
-743 -871 -544 0
-847 404 240 0
-212 438 687 0
-605 935 -752 0
624 97 -608 0
95 -275 -63 0
-774 -775 499 0
-27 -139 -186 0
-384 -214 529 0
-59 779 -531 0
73 -84 -719 0
776 -90 162 0
-356 -937 -435 0
-903 -182 -571 0
-530 962 898 0
41 269 -130 0
-664 969 -879 0
-814 -220 37 0
669 310 -594 0
704 433 402 0
319 834 -600 0
-11 796 -18 0
334 570 -812 0
244 -558 -712 0
845 902 -676 0
299 -886 415 0
462 583 -767 0
375 178 -564 0
331 -403 560 0
269 -926 725 0
661 -56 537 0
-822 8 -206 0
10 510 -268 0
822 -695 -288 0
-706 -360 484 0
567 260 -224 0
-866 -511 717 0
841 -314 357 0
-482 -637 466 0
777 607 697 0
762 -496 -522 0
575 879 360 0
-319 918 777 0
302 -879 146 0
223 -532 -932 0
853 -349 -384 0
674 619 -912 0
474 -89 57 0
994 -457 -993 0
176 312 869 0
417 -827 531 0
999 672 902 0
704 719 342 0
-824 418 433 0
670 743 -69 0
741 -380 195 0
638 -987 -958 0
-83 708 -973 0
-402 -667 832 0
-178 -336 -506 0
-780 489 458 0
-875 265 239 0
749 632 -691 0
168 321 46 0
325 901 -223 0
-51 229 264 0
-801 -857 -382 0
375 -903 9 0
-942 -102 85 0
-285 -275 -362 0
16 481 -351 0
379 574 -208 0
-907 69 264 0
879 427 453 0
996 54 -743 0
-529 -724 178 0
-446 328 209 0
-527 -391 611 0
362 644 194 0
-281 -329 -713 0
515 -750 393 0
-193 652 -828 0
972 924 365 0
382 863 737 0
-236 885 -267 0
-980 926 -52 0
-665 -821 -205 0
-413 2 -788 0
109 -367 2 0
801 -368 -930 0
-384 -939 892 0
-493 -365 995 0
-7 15 -828 0
-869 -290 -547 0
726 964 794 0
226 67 342 0
642 822 489 0
383 495 563 0
181 -263 -578 0
503 945 179 0
-482 -985 -456 0
481 -265 782 0
-952 -125 -696 0
361 -969 -160 0
797 590 -391 0
77 -971 -564 0
-772 967 975 0
-416 242 415 0
-260 -547 -75 0
584 805 378 0
229 28 -39 0
-1000 619 297 0
-12 -428 115 0
908 -315 -261 0
984 -528 -118 0
5 -722 256 0
151 150 888 0
362 -33 -941 0
530 -585 -29 0
-968 -547 -159 0
-23 -953 883 0
67 -932 55 0
-93 -640 -777 0
-430 -266 -903 0
879 -48 113 0
777 -141 -950 0
-839 -157 287 0
141 947 -642 0
649 880 -447 0
-393 -133 186 0
350 800 -741 0
-782 310 -542 0
645 -805 207 0
745 719 201 0
993 -535 -191 0
835 -18 -344 0
-509 277 230 0
612 -413 436 0
-330 535 585 0
493 722 -947 0
-489 826 -312 0
-199 23 485 0
-597 213 256 0
649 -279 787 0
125 -415 135 0
-863 -187 -836 0
-904 460 349 0
106 -526 -182 0
-958 -173 227 0
436 -402 -492 0
431 -955 -318 0
-534 51 -132 0
-680 391 730 0
-798 596 558 0
212 -772 -101 0
-790 228 385 0
-461 -78 326 0
271 802 -846 0
481 -39 -931 0
634 -704 827 0
185 -767 611 0
-215 -518 982 0
998 -467 839 0
-226 520 -991 0
-7 627 -77 0
819 98 -474 0
416 825 630 0
-617 -480 -540 0
928 -381 894 0
914 -331 -622 0
-580 -376 750 0
-404 -137 270 0
803 -319 -293 0
-20 460 65 0
659 749 -282 0
724 -885 336 0
-150 -797 491 0
761 -489 736 0
251 -756 813 0
-133 53 533 0
-323 -602 895 0
707 -85 -440 0
-190 652 29 0
839 -572 632 0
-967 -714 -72 0
573 757 395 0
-964 665 505 0
232 620 503 0
-699 -941 915 0
-835 -168 649 0
920 990 873 0
-640 -744 650 0
924 -894 90 0
-490 -52 -262 0
872 -7 -258 0
-310 94 166 0
92 660 -95 0
-980 -218 -87 0
-967 740 556 0
-774 -472 -823 0
-993 -370 -626 0
-171 581 -361 0
-929 -593 -921 0
684 24 15 0
-409 -472 -849 0
322 700 -1 0
-11 -178 -200 0
692 -3 566 0
561 -938 914 0
-934 564 -245 0
-685 453 184 0
-106 -189 -727 0
526 -532 518 0
274 -740 66 0
149 -115 482 0
-399 -165 681 0
-161 -579 -106 0
-627 608 -722 0
34 446 849 0
740 -981 -657 0
775 532 -641 0
514 -680 981 0
-150 -27 -502 0
488 -881 674 0
985 -590 414 0
-238 388 -551 0
-941 -258 -732 0
707 61 404 0
621 -648 -784 0
-604 745 128 0
767 -467 750 0
-914 -929 717 0
616 -853 -51 0
826 -172 975 0
132 -707 805 0
-465 300 706 0
-460 -554 521 0
528 -622 -513 0
-352 -135 -865 0
-631 720 -274 0
198 -60 654 0
774 -457 -664 0
61 -885 -903 0
-203 411 768 0
-541 -623 672 0
376 -211 -55 0
-272 -874 -728 0
-242 -362 207 0
-453 -419 458 0
-802 -699 -79 0
778 353 -173 0
446 930 -262 0
-942 385 -346 0
-721 340 -588 0
234 -79 524 0
-120 -522 892 0
-56 -397 580 0
615 860 -682 0
275 383 -992 0
932 560 96 0
143 422 -624 0
875 -467 -68 0
-360 9 -451 0
715 875 -888 0
-361 582 -424 0
-589 -663 -994 0
-31 -436 -207 0
249 -856 -322 0
-410 275 -560 0
-917 -712 -282 0
-868 603 736 0
386 -439 -181 0
-499 -402 427 0
-644 -971 259 0
602 -545 394 0
334 -826 -246 0
-314 -216 149 0
-592 100 -553 0
713 -427 943 0
2 499 -623 0
134 947 -41 0
351 925 24 0
-673 -390 258 0
-670 -953 -451 0
-512 742 -416 0
-528 -989 -658 0
581 -942 414 0
-551 -273 697 0
825 473 153 0
109 308 -35 0
-565 307 -418 0
-785 476 -812 0
-644 262 43 0
759 546 -136 0
-23 -234 -478 0
-872 -816 -51 0
-467 -234 -489 0
-763 847 -887 0
972 -106 -51 0
340 76 -457 0
-508 915 540 0
105 785 -707 0
-496 543 878 0
670 -679 828 0
178 710 -107 0
589 19 -276 0
578 945 -703 0
-582 166 -147 0
231 -641 42 0
984 291 26 0
-195 346 996 0
899 756 467 0
-975 979 652 0
72 -505 59 0
-533 -165 896 0
761 -789 -467 0
-455 -923 542 0
-952 -250 -564 0
-819 -738 596 0
750 -348 952 0
-658 -70 601 0
703 367 -546 0
-768 -647 -510 0
184 -931 691 0
-245 300 -164 0
735 -603 -361 0
596 -592 -10 0
539 119 404 0
-486 613 122 0
-342 -645 -616 0
-160 640 479 0
-388 5 -121 0
258 425 -242 0
-569 341 187 0
-845 656 821 0
-195 -186 717 0
-419 -669 102 0
706 -234 -114 0
430 -847 -991 0
272 14 -910 0
25 738 -752 0
-409 -112 -724 0
723 -104 -916 0
114 275 -857 0
-958 843 -279 0
624 359 17 0
-417 16 553 0
556 -301 94 0
-568 621 783 0
-977 -58 207 0
-981 -935 557 0
-789 268 569 0
672 -817 341 0
-738 -285 -991 0
-463 -722 -720 0
620 815 368 0
806 452 626 0
-512 -528 -360 0
572 429 884 0
392 94 262 0
-583 -511 11 0
266 348 525 0
321 -450 -317 0
674 -848 220 0
-384 890 797 0
-351 -257 585 0
-932 -664 864 0
-237 -803 -290 0
-134 -397 -747 0
-245 -52 -520 0
769 -872 141 0
620 556 -809 0
279 -396 -373 0
-324 -274 -541 0
342 -750 51 0
551 -904 544 0
-173 -118 492 0
-647 544 -946 0
804 436 -246 0
707 525 -521 0
-670 271 -399 0
600 754 739 0
940 566 247 0
337 939 -506 0
198 -750 713 0
-377 870 -694 0
578 396 -151 0
-947 -909 270 0
-879 739 -642 0
-210 -953 -5 0
122 -831 750 0
912 952 -655 0
-641 961 -632 0
366 64 -212 0
691 668 758 0
-73 656 -378 0
-807 289 -363 0
183 637 526 0
64 -387 594 0
454 -183 245 0
-339 -546 -486 0
-810 -759 697 0
-207 -706 -235 0
-229 -576 894 0
-510 -140 245 0
-76 -952 32 0
398 451 -801 0
796 728 622 0
442 512 696 0
-848 432 399 0
473 840 880 0
787 -565 -435 0
557 -793 949 0
404 -307 -542 0
-635 -80 435 0
-104 398 -678 0
108 -606 102 0
400 -59 995 0
-198 792 -678 0
632 -157 636 0
-481 225 451 0
233 -428 -236 0
-888 652 -137 0
-334 166 349 0
380 -567 476 0
706 -652 -618 0
529 -188 849 0
-646 -709 234 0
-469 -652 685 0
456 -160 291 0
443 264 548 0
-929 -71 785 0
-847 698 -610 0
-4 -312 -787 0
285 875 60 0
-84 -874 399 0
200 439 -298 0
-189 -785 -99 0
316 -382 -364 0
844 -387 806 0
-629 472 -943 0
164 384 -64 0
-373 919 594 0
491 831 -743 0
-771 429 315 0
490 -778 -82 0
-198 910 -541 0
169 -404 486 0
958 -971 590 0
370 -890 605 0
-502 414 -767 0
-180 -286 -181 0
997 -891 7 0
-844 -586 -43 0
292 179 439 0
594 -631 -19 0
926 -424 -612 0
-518 -320 846 0
-257 -318 -226 0
40 940 -313 0
802 -603 869 0
807 -913 -16 0
-603 796 -420 0
284 -67 -935 0
500 749 311 0
149 -555 119 0
-941 -956 -784 0
261 562 707 0
391 -913 -527 0
-153 510 -320 0
-898 332 -698 0
407 -100 559 0
-251 -837 -673 0
-910 57 -358 0
736 47 -833 0
303 -878 952 0
807 253 -987 0
-636 -226 -667 0
585 633 -565 0
-174 -58 360 0
-474 646 318 0
893 -459 295 0
-766 614 -561 0
243 952 32 0
951 47 -429 0
863 95 -350 0
-226 216 -814 0
-973 -530 769 0
271 72 -40 0
667 -274 -838 0
711 246 598 0
666 -578 692 0
-422 35 -509 0
-591 262 223 0
-529 3 300 0
251 -793 -297 0
715 350 -604 0
-852 -258 -619 0
682 -945 -203 0
-683 -319 942 0
-220 555 842 0
950 559 -624 0
176 836 -34 0
-702 774 -603 0
101 -587 -578 0
-906 962 -381 0
-790 -121 460 0
-628 -42 -811 0
-286 -401 -850 0
-235 129 -312 0
684 -354 243 0
436 -474 104 0
-475 -694 132 0
-241 180 -280 0
760 -236 98 0
291 149 56 0
-363 -485 335 0
723 669 255 0
-765 -126 -264 0
-710 -487 -250 0
-173 594 -701 0
366 -701 95 0
-103 921 794 0
-834 557 486 0
665 -136 163 0
310 -541 910 0
-596 257 31 0
-851 -51 605 0
-278 209 491 0
163 454 194 0
898 309 -94 0
-928 245 443 0
-815 -503 -352 0
893 334 307 0
-216 440 69 0
-646 -14 738 0
-211 557 -951 0
-55 -387 -130 0
188 -984 -998 0
683 -70 -609 0
-619 -909 96 0
695 685 72 0
-382 359 -10 0
-917 586 -305 0
386 -530 -578 0
-521 -230 -118 0
293 -147 461 0
142 123 867 0
699 -914 -774 0
22 98 756 0
-542 -970 -727 0
86 -646 660 0
-862 15 885 0
994 -440 -831 0
736 -296 -838 0
-421 253 675 0
-888 420 -535 0
865 -690 631 0
426 326 -703 0
-491 -614 -752 0
-526 -243 -159 0
564 380 -953 0
-630 227 -130 0
982 367 75 0
151 547 -563 0
-993 -363 -994 0
155 884 -766 0
-628 -961 -370 0
-516 546 166 0
357 -728 -987 0
-165 709 533 0
374 -241 -802 0
-128 -115 -2 0
437 -855 596 0
887 -603 -319 0
-483 794 438 0
-186 -4 591 0
512 -108 618 0
546 -673 -748 0
737 -704 980 0
230 458 367 0
567 926 -218 0
-623 -832 -395 0
653 -648 775 0
458 415 -344 0
-113 -392 48 0
-505 -145 -747 0
-68 613 -954 0
991 467 385 0
422 782 837 0
-640 942 34 0
-830 157 556 0
27 -839 -260 0
-359 -175 674 0
929 -937 -360 0
-935 -13 -540 0
-729 -648 -338 0
893 849 -629 0
458 574 -328 0
-532 293 405 0
-675 -519 -310 0
-337 740 694 0
-137 792 707 0
-449 -800 -174 0
-558 978 -370 0
-788 -72 352 0
-716 -899 -690 0
-264 669 715 0
501 408 326 0
-278 61 729 0
-606 482 -575 0
-935 -839 11 0
724 -282 -593 0
510 -702 -58 0
-732 -437 700 0
129 -554 780 0
706 -276 570 0
115 771 577 0
-88 -650 602 0
-572 328 834 0
966 58 542 0
311 740 -770 0
889 817 357 0
-861 -577 -993 0
778 265 -772 0
-274 621 -470 0
226 -967 156 0
-692 -155 -689 0
910 -777 388 0
-760 -11 816 0
844 187 37 0
-987 111 -103 0
-954 461 80 0
466 -919 -439 0
980 614 540 0
685 868 608 0
663 930 142 0
961 -857 -846 0
-962 167 -888 0
-97 734 592 0
-513 -274 -875 0
20 -635 835 0
651 596 699 0
462 2 646 0
539 164 -529 0
-39 681 513 0
330 -519 -742 0
232 -247 569 0
-555 -143 -457 0
-578 804 -714 0
906 632 -806 0
403 735 -803 0
699 -848 -626 0
-513 57 893 0
310 522 873 0
327 594 854 0
-47 -820 -235 0
-31 -692 674 0
-840 614 -983 0
379 644 -332 0
-674 -374 218 0
-920 893 14 0
-443 619 215 0
788 973 -136 0
-114 -504 317 0
843 227 784 0
431 434 -430 0
366 520 -668 0
36 -98 -969 0
-843 949 -147 0
-803 630 570 0
8 483 -85 0
382 -369 -125 0
205 688 583 0
-92 -694 -547 0
920 -706 -818 0
927 -7 328 0
-599 46 -238 0
-305 591 -652 0
46 -409 -562 0
276 -861 446 0
291 383 -219 0
64 -374 -371 0
790 429 430 0
994 79 -887 0
648 -554 -559 0
998 -574 464 0
-929 410 -31 0
957 438 484 0
-991 -408 -867 0
-579 899 -987 0
467 322 -16 0
725 470 111 0
858 235 638 0
-158 -105 -608 0
-968 -857 977 0
371 -259 -142 0
-886 53 -944 0
212 -297 986 0
736 535 87 0
-777 850 -784 0
-407 -588 -179 0
-550 -457 378 0
-546 -682 -944 0
364 -796 214 0
585 -258 -703 0
-250 -302 -225 0
726 923 836 0
-463 639 -975 0
338 217 573 0
662 384 -4 0
353 -684 -502 0
170 312 -49 0
-230 -41 -112 0
-631 -118 -365 0
-193 179 829 0
991 518 -596 0
314 -14 -104 0
-725 268 -701 0
-294 -890 202 0
895 -929 -953 0
563 724 -635 0
-619 630 304 0
-179 -687 137 0
-718 876 -540 0
760 726 -169 0
-495 94 -899 0
705 253 -548 0
354 -555 442 0
850 360 451 0
649 876 517 0
425 999 522 0
888 -336 -372 0
247 359 -486 0
-208 288 -12 0
763 118 603 0
398 426 566 0
332 -263 504 0
799 327 664 0
19 633 -167 0
281 -969 750 0
-444 960 -101 0
478 102 -1 0
161 -960 -630 0
-655 -194 -774 0
-3 186 321 0
726 -226 613 0
-736 97 -55 0
-625 -504 169 0
-957 -895 -373 0
-855 136 734 0
100 929 -849 0
-218 -193 -103 0
-845 872 817 0
473 530 -753 0
681 186 285 0
938 -906 189 0
-270 814 -600 0
-12 -118 970 0
-757 -51 -169 0
-656 -210 -468 0
721 -119 -364 0
-744 -336 -544 0
537 324 -212 0
988 702 879 0
-237 739 -726 0
116 850 382 0
323 295 -884 0
237 989 616 0
-622 -500 795 0
703 713 -55 0
-512 495 -780 0
304 -43 -189 0
646 -413 -680 0
-808 616 422 0
339 -759 -84 0
507 857 63 0
-177 -982 -497 0
-438 695 -969 0
132 382 575 0
980 785 -510 0
75 -841 670 0
779 -45 -242 0
-96 590 -41 0
160 -553 218 0
416 863 -562 0
701 -814 -492 0
-645 -627 21 0
446 -785 502 0
-874 -520 -685 0
-680 -526 68 0
127 -298 -555 0
-238 680 368 0
-753 422 -267 0
-543 839 -8 0
929 581 175 0
720 702 221 0
-663 -26 -124 0
967 -229 -173 0
-965 -503 255 0
-388 313 -604 0
427 361 -685 0
134 644 494 0
970 -282 543 0
-682 941 -817 0
732 -996 -351 0
381 -75 983 0
-70 -660 86 0
524 -290 206 0
96 150 538 0
582 -687 -692 0
701 232 -137 0
-676 -894 -9 0
-337 -577 -630 0
-609 -410 -141 0
980 733 681 0
571 -678 -502 0
581 -478 -973 0
-573 -826 144 0
-175 -323 -901 0
-568 -497 -613 0
-487 722 550 0
-796 -134 -729 0
-370 -917 317 0
378 999 -295 0
161 -89 -964 0
-859 985 -237 0
-809 912 -6 0
-108 -749 711 0
704 -14 788 0
842 -6 574 0
-759 -877 59 0
867 497 888 0
-939 -757 910 0
-975 -528 -767 0
-481 57 -43 0
-468 -372 774 0
230 188 779 0
-407 373 309 0
206 -684 188 0
830 458 798 0
-495 234 558 0
111 -825 -948 0
140 -136 234 0
592 151 276 0
-741 455 222 0
7 461 399 0
-875 -409 -799 0
-374 178 554 0
421 567 505 0
988 -742 -133 0
-905 -419 250 0
316 290 -860 0
587 -108 -386 0
448 723 242 0
-870 857 -380 0
626 -119 174 0
815 -622 507 0
-363 -588 -620 0
-287 521 122 0
408 89 -733 0
650 723 -714 0
-993 830 -680 0
267 -900 959 0
191 -462 382 0
736 653 17 0
660 -572 433 0
446 -622 654 0
-722 -796 577 0
-484 713 -743 0
-383 345 154 0
-779 -345 -467 0
758 776 -186 0
-873 -100 -729 0
936 901 221 0
-783 997 -790 0
564 -334 -422 0
-754 -945 625 0
-116 -231 -309 0
-65 726 739 0
74 742 -203 0
-543 -975 364 0
601 233 -536 0
-164 641 633 0
-659 -724 -578 0
-377 526 441 0
-346 -218 185 0
178 330 -713 0
963 -387 265 0
-797 -703 -801 0
957 -688 564 0
252 29 -417 0
950 -400 145 0
-747 271 828 0
-652 -440 541 0
-171 -580 -772 0
622 488 46 0
480 -414 -512 0
415 193 71 0
856 799 -471 0
-432 -141 -776 0
382 380 896 0
-57 -949 -727 0
526 -467 268 0
-392 -728 3 0
479 -740 -409 0
-188 652 -587 0
829 651 349 0
-98 181 547 0
-52 -572 60 0
-230 -680 -862 0
-259 -907 184 0
57 253 575 0
527 242 989 0
-277 -552 411 0
-279 -443 865 0
19 211 700 0
636 -781 -71 0
-540 -572 291 0
884 -821 -167 0
-911 -817 -582 0
927 693 -566 0
-963 -300 587 0
571 -765 741 0
82 421 852 0
339 -442 766 0
-918 -374 993 0
-105 363 -745 0
-12 -922 459 0
-967 -617 165 0
-842 181 615 0
-992 -675 -199 0
860 -19 -841 0
-482 -685 73 0
-519 312 835 0
-637 -820 -121 0
900 -659 888 0
475 6 713 0
-148 828 -963 0
-189 -592 -263 0
-760 -839 99 0
43 478 -227 0
-551 601 851 0
-984 -745 -186 0
-858 -745 -788 0
-643 -752 -750 0
529 975 -174 0
-1000 391 -424 0
-849 -886 -391 0
-729 894 -82 0
754 -635 -9 0
-314 -751 -151 0
-291 -483 987 0
222 -169 776 0
-418 -606 876 0
-631 151 359 0
348 890 105 0
-596 -306 -624 0
151 533 -393 0
-771 843 204 0
-641 1000 223 0
314 853 407 0
566 375 868 0
-124 -853 872 0
-140 -529 -628 0
-216 141 440 0
-443 -179 -858 0
297 -521 -924 0
443 -785 -650 0
513 -889 -610 0
137 -838 -287 0
722 252 56 0
-334 600 -773 0
205 112 780 0
517 -709 194 0
827 -34 -977 0
-887 -219 915 0
-267 826 912 0
-174 427 -147 0
-193 962 -485 0
990 53 -541 0
-356 904 312 0
-52 -847 73 0
-532 687 723 0
544 -146 98 0
-167 -641 -129 0
-540 -491 455 0
842 416 454 0
803 191 582 0
-668 -629 580 0
365 -833 -870 0
-948 891 -457 0
237 -534 -20 0
737 -846 -204 0
794 227 -219 0
75 -245 91 0
196 807 642 0
766 555 539 0
632 -729 389 0
326 -246 423 0
802 798 272 0
486 999 848 0
938 161 -554 0
-77 365 289 0
288 617 380 0
-768 847 966 0
-80 950 509 0
-529 71 -95 0
740 648 -193 0
252 -307 -923 0
817 -931 781 0
-387 969 -77 0
-763 572 -212 0
-457 -703 -643 0
-388 247 -128 0
140 33 -812 0
-924 449 -493 0
-406 381 692 0
-443 -127 741 0
72 -48 902 0
29 -809 293 0
-100 -450 -539 0
541 250 -444 0
-553 11 -107 0
571 -24 77 0
555 -130 -785 0
-70 -368 693 0
-132 252 -233 0
-881 48 -531 0
727 -339 93 0
-559 230 -136 0
564 -740 393 0
817 -303 -537 0
-230 253 785 0
-1 310 12 0
995 859 802 0
-644 760 591 0
-704 459 -236 0
525 -427 492 0
-711 -75 -177 0
470 669 634 0
-928 364 50 0
259 251 -446 0
-176 420 703 0
361 -126 751 0
-369 -566 -524 0
937 -317 213 0
-755 6 -350 0
-935 -284 240 0
-685 -627 -781 0
-937 686 -454 0
-408 983 687 0
-130 -613 -156 0
-676 -605 -617 0
-202 895 472 0
-700 994 226 0
-198 -790 -738 0
-266 970 385 0
551 -597 563 0
-459 -398 -163 0
448 -577 -616 0
-914 -180 -369 0
-85 -313 -657 0
-56 -87 476 0
-210 -64 -861 0
30 -76 974 0
376 704 371 0
18 -346 559 0
-54 -23 92 0
-817 117 684 0
663 -473 380 0
132 -300 877 0
-455 -253 541 0
356 565 -6 0
691 -367 229 0
-64 -674 341 0
155 478 -567 0
-787 429 583 0
642 -321 451 0
791 -870 -906 0
-735 -960 -829 0
-206 143 495 0
-754 -6 -502 0
854 -95 8 0
-749 -688 -408 0
290 363 474 0
-72 900 654 0
-995 -193 -910 0
-850 -924 910 0
108 -396 772 0
619 181 457 0
-878 -119 327 0
-669 861 -208 0
-466 598 116 0
-660 -215 -538 0
183 11 791 0
664 569 230 0
727 -645 137 0
469 -266 239 0
58 -940 -848 0
169 -869 54 0
506 556 828 0
501 780 -578 0
597 -553 -979 0
13 610 -622 0
-111 192 -830 0
127 497 -509 0
-901 -714 -811 0
162 939 300 0
699 -536 886 0
-614 373 -320 0
872 -158 869 0
-495 -143 -356 0
-729 -988 58 0
196 91 -615 0
393 569 627 0
643 516 -923 0
965 -144 -916 0
192 725 -298 0
-752 724 99 0
207 695 656 0
-996 -574 653 0
978 -639 56 0
-211 -113 -951 0
709 850 -909 0
591 493 -973 0
-611 238 99 0
-480 -777 -618 0
-178 -783 542 0
577 860 407 0
-108 -982 690 0
695 958 -824 0
-853 -249 570 0
379 -826 342 0
7 -581 856 0
821 -236 -573 0
-693 452 533 0
166 -775 141 0
-800 601 -566 0
928 766 -842 0
-128 388 -975 0
12 -99 767 0
-612 -53 135 0
443 670 -919 0
502 782 -161 0
-901 -744 -858 0
-500 -180 74 0
844 215 -235 0
-229 433 275 0
-504 -720 -230 0
-914 513 196 0
-217 550 -387 0
165 -962 -319 0
-12 126 854 0
-699 786 -988 0
-671 17 -276 0
133 -961 386 0
983 -521 -145 0
-24 548 190 0
792 215 -44 0
-717 -660 -789 0
-666 -534 265 0
-246 491 901 0
-969 -290 -734 0
4 937 -730 0
-566 862 -108 0
-358 -935 -741 0
78 414 453 0
481 -920 405 0
-407 736 -225 0
-64 402 30 0
-113 -91 555 0
-919 -697 -794 0
-161 351 -512 0
-826 349 -781 0
-996 -954 642 0
-121 140 796 0
755 -13 867 0
284 -689 755 0
-899 -119 -763 0
-886 494 -911 0
861 688 -636 0
-129 784 -986 0
-974 675 818 0
-328 315 -832 0
954 149 -669 0
-778 518 221 0
-887 -967 979 0
-999 6 963 0
197 -274 984 0
-271 504 101 0
536 821 -60 0
703 846 -890 0
-560 531 -568 0
69 866 -189 0
377 -760 -210 0
43 -632 -262 0
-215 241 518 0
23 976 842 0
815 -671 876 0
800 781 628 0
607 -828 644 0
432 -619 52 0
504 -599 232 0
148 -23 982 0
548 236 772 0
-87 -481 -607 0
-322 812 -230 0
-961 426 238 0
-412 -967 -915 0
-720 72 -426 0
436 -441 546 0
-303 714 556 0
444 425 104 0
-959 629 789 0
-306 508 -923 0
282 -723 870 0
-23 -159 -869 0
-49 450 245 0
-904 -624 124 0
53 97 -21 0
740 -917 388 0
-504 -758 -972 0
873 -332 -390 0
-59 662 113 0
210 217 625 0
-870 -120 317 0
266 291 368 0
802 533 -790 0
162 944 634 0
-998 534 -344 0
144 707 -112 0
-764 14 453 0
-747 944 32 0
942 -674 -138 0
793 180 272 0
-167 -80 425 0
-509 -139 789 0
-947 -582 -613 0
504 -410 776 0
170 -173 901 0
-998 -324 -385 0
29 609 -782 0
-563 -768 -872 0
-398 578 918 0
-567 458 640 0
490 579 94 0
-997 613 -732 0
-3 867 -898 0
366 -812 -7 0
-554 944 -774 0
268 52 803 0
225 990 -495 0
-472 326 -99 0
584 44 108 0
-440 -5 -505 0
209 -57 -677 0
930 -516 -77 0
15 -182 548 0
-660 403 843 0
-914 -360 78 0
-509 -60 -383 0
577 731 -16 0
-61 -17 230 0
302 -984 484 0
-624 -579 -629 0
192 -436 634 0
227 367 -820 0
621 -548 -877 0
-600 448 418 0
314 876 -526 0
894 134 -2 0
216 -126 260 0
842 567 -792 0
718 -153 918 0
54 -811 -708 0
-437 314 -491 0
-266 146 -995 0
264 -477 -996 0
-338 256 -309 0
-719 -551 224 0
-134 -767 701 0
-213 369 11 0
-301 269 -361 0
-703 -228 -6 0
191 578 408 0
-560 647 -347 0
-219 -359 40 0
-326 -351 728 0
95 -410 -60 0
-228 281 948 0
613 -752 -308 0
920 133 740 0
849 109 -660 0
-180 -368 -423 0
566 -32 465 0
-680 -941 -771 0
781 88 687 0
-54 631 -651 0
596 -255 -300 0
-366 -415 894 0
867 631 -546 0
522 -188 -500 0
-438 -390 -353 0
219 -111 -202 0
268 413 448 0
823 31 -264 0
485 -924 -245 0
259 32 -187 0
67 -614 -103 0
238 -649 -86 0
451 -377 228 0
69 -504 -392 0
-493 533 -865 0
-269 590 163 0
-287 254 430 0
-30 -103 -122 0
-760 776 -521 0
-535 850 -418 0
-836 -556 -372 0
428 562 512 0
-449 506 -927 0
-508 -749 -53 0
-642 -118 -402 0
-691 321 -690 0
921 -751 -114 0
-84 14 945 0
795 -158 566 0
351 -880 -578 0
256 -816 575 0
-429 169 522 0
570 -300 188 0
230 536 -917 0
708 -387 -356 0
-913 100 -592 0
-920 593 535 0
-670 923 743 0
-819 681 776 0
-440 711 -791 0
274 -461 -227 0
812 -439 -511 0
-738 297 645 0
768 -235 641 0
995 -863 969 0
-540 -683 374 0
-436 537 -335 0
-678 499 97 0
201 481 136 0
545 -929 270 0
-426 -767 744 0
42 -140 -595 0
198 4 -540 0
17 -484 688 0
-996 -647 59 0
-107 -103 743 0
147 201 -138 0
-407 850 339 0
-89 393 518 0
-669 406 -295 0
816 -120 -370 0
269 -586 627 0
-694 9 -954 0
171 -449 -10 0
-331 -530 -428 0
-909 18 -939 0
-696 177 483 0
773 480 -872 0
-27 288 458 0
784 498 864 0
460 687 960 0
183 878 855 0
774 856 27 0
784 245 -354 0
-175 835 -756 0
366 15 -157 0
-908 -351 -141 0
-124 -463 49 0
879 298 -806 0
-875 -225 737 0
-207 -36 -536 0
436 397 317 0
-167 -70 -205 0
-371 -410 238 0
-461 -101 792 0
31 690 -387 0
321 -659 -909 0
-709 473 -695 0
-555 -37 867 0
-893 795 405 0
-939 -130 -177 0
648 -792 403 0
740 229 991 0
798 775 382 0
-331 -13 -759 0
685 701 784 0
-181 713 -286 0
-445 -660 -316 0
-926 -657 -255 0
-872 167 160 0
-250 376 -862 0
318 891 -521 0
-569 612 -56 0
427 966 948 0
-882 -485 -55 0
312 989 280 0
381 64 -248 0
828 -882 -430 0
484 815 -383 0
-115 -198 -723 0
787 743 -831 0
478 993 690 0
-529 371 31 0
-485 691 -143 0
-311 -623 -84 0
-396 -606 -467 0
418 547 -408 0
-770 518 -461 0
-530 145 190 0
631 559 -226 0
-355 651 856 0
743 -547 283 0
802 647 -419 0
626 46 892 0
629 941 -28 0
454 219 959 0
-524 -119 -484 0
218 840 457 0
-23 -877 -237 0
-665 -257 399 0
626 978 -107 0
649 -159 725 0
-182 307 686 0
-168 891 332 0
-548 -94 -799 0
-454 -513 833 0
537 -836 -890 0
155 102 952 0
-619 -630 -588 0
728 -604 -633 0
969 -378 -497 0
999 36 209 0
-164 -876 -63 0
542 925 -403 0
162 374 470 0
121 168 383 0
-416 -174 -248 0
-138 260 993 0
-810 -918 -676 0
-692 566 618 0
-122 -114 -357 0
-993 679 79 0
954 -58 751 0
-906 -291 -863 0
952 -247 -343 0
310 117 -422 0
336 720 66 0
-944 388 10 0
-457 463 -213 0
-443 1000 -57 0
-364 103 -725 0
-466 -918 171 0
829 451 -618 0
-56 -502 -763 0
-141 -673 434 0
-79 -339 172 0
-503 -913 -745 0
275 -625 994 0
-792 -440 741 0
-990 -248 -838 0
-12 771 -211 0
137 -351 -665 0
47 1 -424 0
-479 760 -801 0
790 805 -250 0
