p cnf 100 405
88 32 -8 0
56 -68 69 0
-77 12 -72 0
36 33 -92 0
-49 4 -30 0
55 92 -13 0
-3 -7 -31 0
79 67 -35 0
-99 69 -63 0
-18 60 -41 0
100 39 -22 0
-17 -91 77 0
59 -54 15 0
-79 -94 8 0
42 -88 98 0
69 34 -100 0
96 83 -20 0
-4 100 70 0
-56 31 44 0
87 -22 -65 0
-23 84 -57 0
80 28 -21 0
40 -30 71 0
61 -5 -74 0
27 50 87 0
-39 -64 43 0
73 85 29 0
-57 -19 96 0
-73 -23 6 0
-13 -95 30 0
-13 -66 -24 0
-80 50 -73 0
-97 99 -48 0
98 1 -7 0
4 36 -61 0
28 91 1 0
-95 83 -42 0
9 -95 17 0
26 34 44 0
91 92 75 0
46 42 75 0
29 10 98 0
58 54 77 0
-42 -32 63 0
34 45 -86 0
-49 69 -42 0
20 -68 75 0
52 -1 99 0
-43 94 26 0
62 77 -75 0
-30 -69 20 0
-45 -83 -34 0
85 -41 90 0
-4 -97 31 0
13 10 -87 0
-51 57 -15 0
93 99 -60 0
-76 -98 -7 0
40 -8 -31 0
100 -63 45 0
55 16 -78 0
-91 -85 34 0
67 -61 -47 0
82 26 -4 0
-89 90 -75 0
-68 -31 -30 0
70 -79 52 0
-64 24 -84 0
-71 -48 -64 0
51 53 17 0
-64 -94 -8 0
-66 -36 95 0
20 -66 30 0
-63 92 -23 0
-5 27 89 0
82 16 -17 0
-80 75 79 0
-41 -79 -2 0
78 -16 45 0
-73 -78 -69 0
56 94 -58 0
31 -81 -62 0
18 -84 -25 0
90 33 55 0
18 99 -31 0
85 -49 75 0
30 12 64 0
39 100 11 0
63 82 -1 0
-59 17 58 0
69 72 10 0
-35 -74 -62 0
-38 20 71 0
-74 -54 -80 0
-48 28 100 0
94 56 93 0
31 95 79 0
-47 -25 6 0
-70 -13 56 0
82 68 -37 0
57 83 -63 0
4 -39 28 0
68 67 -81 0
46 -4 58 0
-31 -17 -78 0
78 14 -47 0
53 46 -60 0
86 61 -57 0
76 -42 91 0
16 86 27 0
67 -18 52 0
-95 47 20 0
-43 -85 -37 0
-57 42 56 0
89 97 -18 0
-74 23 55 0
-18 -95 -6 0
-42 87 -86 0
-24 83 -2 0
55 14 -20 0
41 60 54 0
50 86 42 0
-38 -39 97 0
-78 75 -100 0
2 -71 98 0
-69 -1 41 0
43 -37 -15 0
-10 85 -79 0
-11 -18 30 0
35 -64 -1 0
20 -100 51 0
46 -8 -9 0
-74 -77 52 0
22 11 -91 0
-8 -100 75 0
-84 -66 -13 0
20 -19 7 0
-66 -19 63 0
8 41 -52 0
-60 18 65 0
-30 -42 -66 0
91 11 94 0
-3 20 81 0
-90 -80 35 0
-33 28 -3 0
71 35 7 0
-27 99 20 0
-28 -74 57 0
-45 -68 -87 0
-64 -15 66 0
64 23 -4 0
-7 -89 31 0
75 -5 -72 0
-20 -61 -3 0
44 -87 94 0
-72 -75 -26 0
50 -48 68 0
80 -19 76 0
46 24 68 0
95 91 2 0
-9 91 73 0
15 -74 7 0
97 85 51 0
36 86 94 0
-60 -68 84 0
-90 -18 98 0
36 75 -82 0
-91 54 -1 0
-76 81 -5 0
47 19 -23 0
-49 -25 37 0
47 87 90 0
59 45 -19 0
-40 -35 -58 0
-7 -80 30 0
-28 27 49 0
59 23 12 0
43 47 -27 0
-48 -57 33 0
-96 61 -71 0
-9 -80 58 0
-76 -7 -37 0
-80 -15 -29 0
-54 -43 15 0
36 18 23 0
-29 71 79 0
96 71 -5 0
-28 66 -1 0
89 -4 72 0
-32 -17 -70 0
52 79 42 0
-14 -96 20 0
4 63 96 0
33 -29 -72 0
51 13 90 0
2 -54 45 0
-7 -30 -63 0
1 -82 -96 0
78 -99 17 0
37 44 50 0
-9 -38 -97 0
-41 67 -26 0
-71 -18 -72 0
-11 -91 -10 0
-26 -78 -56 0
-8 33 -38 0
-32 -64 -78 0
61 -87 -79 0
-60 27 48 0
64 -24 15 0
-46 77 -92 0
64 25 -73 0
-78 -72 -9 0
71 98 -17 0
33 -75 -76 0
45 70 12 0
-74 70 25 0
46 -39 47 0
-66 -100 71 0
63 -39 -22 0
-25 -31 66 0
52 -88 71 0
-16 -15 -83 0
38 -72 20 0
81 -62 -82 0
-23 -39 -89 0
62 -99 -70 0
2 65 -10 0
-98 -37 -79 0
-1 85 -28 0
-50 -10 -28 0
-4 -78 86 0
-18 -64 -48 0
-86 -6 78 0
-90 25 95 0
90 -31 -49 0
11 67 -54 0
-66 -62 -58 0
-21 94 -22 0
-56 94 84 0
94 78 59 0
-23 -89 45 0
-25 -66 -91 0
-17 100 31 0
44 -61 56 0
-75 -67 -90 0
36 -78 6 0
83 -19 47 0
-74 -87 69 0
-79 31 96 0
61 74 94 0
9 84 1 0
-79 -15 32 0
1 -35 -41 0
57 -42 18 0
-71 18 -14 0
-40 88 50 0
26 -79 92 0
-78 -3 10 0
-15 -50 92 0
58 -79 -49 0
-23 -70 -89 0
97 99 34 0
-33 47 -27 0
-69 -68 52 0
-24 -50 41 0
-2 99 -65 0
24 -97 -23 0
29 -100 81 0
50 100 -30 0
-49 36 10 0
47 -66 6 0
-90 -55 -86 0
-60 84 95 0
9 -48 -85 0
-43 -84 41 0
50 91 78 0
96 -93 63 0
31 -59 -98 0
-97 3 -28 0
-34 53 18 0
52 -2 16 0
95 -31 -64 0
97 30 -32 0
65 -89 -8 0
22 90 -99 0
50 19 -40 0
33 -28 32 0
-13 -21 52 0
-75 -4 83 0
-50 -15 -90 0
38 81 -60 0
74 62 -15 0
24 83 -45 0
71 53 -22 0
72 46 68 0
99 -44 35 0
58 83 5 0
12 45 -59 0
-59 31 -90 0
-31 42 -8 0
-89 90 -70 0
-29 87 -4 0
70 25 55 0
-84 -43 -20 0
6 -64 -87 0
-70 -26 -72 0
27 -53 92 0
41 -10 -97 0
61 8 -52 0
-67 23 -20 0
-41 62 -9 0
13 -53 47 0
21 -42 41 0
-51 -43 -100 0
8 27 60 0
-88 96 80 0
22 -91 17 0
-98 52 51 0
-82 -49 86 0
-72 -46 95 0
91 -96 88 0
-30 -75 -88 0
87 95 -100 0
92 88 -49 0
-40 -27 92 0
-11 -25 -34 0
-42 65 47 0
-84 16 5 0
73 8 36 0
-42 -41 -4 0
-60 -39 65 0
-99 -77 -87 0
42 -92 59 0
42 11 -56 0
-16 -48 12 0
61 86 -63 0
9 91 48 0
77 -75 -4 0
-88 33 95 0
86 -6 -20 0
-91 -20 11 0
45 52 -44 0
-82 6 45 0
62 -20 -12 0
85 -89 -72 0
100 53 -73 0
-95 2 -60 0
12 -34 -67 0
57 -14 93 0
7 64 -74 0
38 94 -77 0
-43 -8 -6 0
-64 69 -66 0
-90 -24 -32 0
37 -6 49 0
36 63 70 0
58 26 85 0
65 85 79 0
27 14 35 0
-72 14 69 0
-2 -60 75 0
9 27 30 0
6 69 -79 0
-94 -97 13 0
87 20 93 0
41 -40 71 0
67 56 38 0
64 -45 32 0
72 -2 37 0
36 -96 -28 0
-65 -11 -38 0
-67 41 -18 0
-69 9 17 0
-31 -83 12 0
-43 -84 -49 0
86 60 66 0
-86 65 -10 0
-82 -19 -36 0
93 100 34 0
7 -85 -39 0
-46 -32 -22 0
-81 -6 -43 0
-62 -10 38 0
-68 84 -40 0
89 -75 61 0
1 -36 44 0
18 36 13 0
96 18 75 0
-95 6 15 0
18 -86 -88 0
-70 -21 72 0
-33 -71 41 0
65 -15 90 0
93 27 -73 0
-9 -75 -3 0
-69 -24 -11 0
44 -9 5 0
-19 -91 77 0
-89 -57 -30 0
-71 58 -48 0
-83 33 -37 0
33 67 -17 0
-59 77 43 0
44 7 10 0
