p cnf 100 405
-45 66 53 0
15 -52 25 0
-6 -14 -34 0
-17 43 -60 0
4 38 -62 0
-73 97 58 0
84 62 -35 0
-62 -6 57 0
-23 64 5 0
-78 43 71 0
33 38 -29 0
-78 82 -72 0
96 77 -11 0
-85 -21 -20 0
47 2 -11 0
-54 -98 27 0
-20 -81 -50 0
-44 -93 -88 0
-84 -71 -35 0
26 22 79 0
-57 84 -99 0
60 -25 -55 0
-4 -59 -24 0
-33 25 57 0
40 73 99 0
43 60 50 0
-21 -66 75 0
69 2 -76 0
38 -8 21 0
-8 -17 -59 0
83 54 -30 0
80 53 -28 0
50 75 -30 0
-56 -2 49 0
-69 -75 85 0
-81 6 80 0
62 -52 -7 0
-53 -52 21 0
-19 13 -14 0
10 -49 24 0
41 35 -53 0
-58 -5 -56 0
-93 100 -38 0
-95 36 100 0
33 23 9 0
73 -99 1 0
69 17 -19 0
21 -89 33 0
-5 -3 -38 0
-82 40 5 0
-95 -34 40 0
50 12 -31 0
-5 -3 -66 0
-46 -62 40 0
-73 -4 21 0
-53 38 -24 0
87 -82 -95 0
-2 -73 67 0
57 -40 -21 0
-19 -89 40 0
-16 90 -94 0
-33 79 -61 0
10 -63 -1 0
60 -51 28 0
-76 -78 23 0
-1 -97 77 0
-89 -98 25 0
-23 49 -87 0
43 55 -96 0
-81 -78 -75 0
92 -35 -25 0
92 -69 28 0
35 27 -36 0
68 60 -100 0
-36 14 -66 0
-24 31 -47 0
52 -60 -89 0
76 -54 48 0
41 13 -51 0
-93 -96 -90 0
58 84 19 0
23 47 3 0
85 6 81 0
93 -18 27 0
-98 -56 -83 0
-43 42 83 0
57 45 -58 0
-89 -39 -50 0
-75 88 -15 0
-89 -57 20 0
-28 -95 -35 0
88 -41 44 0
24 -27 12 0
52 32 -57 0
56 -77 -74 0
-11 -13 -74 0
76 -36 18 0
34 49 25 0
-74 -68 35 0
-82 56 8 0
-50 -78 -43 0
78 -57 76 0
-48 -22 33 0
-97 65 -17 0
78 -3 -98 0
-78 -96 51 0
-51 -59 -20 0
-26 -81 15 0
31 -89 -37 0
-14 82 -31 0
16 -8 -48 0
-45 -9 80 0
50 -40 38 0
-38 -98 -3 0
76 -16 21 0
-96 45 -78 0
-59 -80 2 0
-12 83 -34 0
48 53 37 0
-96 44 79 0
85 -88 34 0
-30 -17 -87 0
-59 -41 -40 0
32 76 74 0
-12 -19 62 0
8 40 46 0
81 -33 16 0
74 95 96 0
96 90 -42 0
-80 30 -93 0
73 33 92 0
-29 2 -56 0
62 84 76 0
29 -31 -27 0
81 56 43 0
87 47 53 0
-57 10 -91 0
-72 -43 -57 0
57 -86 54 0
68 21 87 0
-32 23 -28 0
-39 -29 -97 0
-66 99 94 0
95 -39 -63 0
22 65 -23 0
-35 92 90 0
56 -70 -76 0
93 -20 -69 0
84 -81 -78 0
-47 11 71 0
-90 -25 80 0
-3 33 76 0
94 13 63 0
41 9 -62 0
95 84 72 0
-91 -18 -32 0
93 -12 -87 0
11 48 -24 0
53 56 -50 0
96 -60 31 0
81 83 -31 0
20 55 -4 0
33 -12 98 0
94 -48 -95 0
5 12 -86 0
98 5 -10 0
53 -18 41 0
28 -90 79 0
76 85 -56 0
29 -27 45 0
77 -68 61 0
32 45 34 0
-4 76 -96 0
93 -11 -76 0
-2 -16 27 0
-73 100 -20 0
-55 19 51 0
13 91 -86 0
-92 -8 -98 0
10 55 82 0
82 69 -47 0
-73 37 5 0
-70 25 37 0
30 87 -74 0
-72 -51 -62 0
-31 -16 74 0
-26 -39 75 0
-43 -89 5 0
13 -16 9 0
39 -60 33 0
-50 -18 -38 0
10 75 74 0
-65 -48 2 0
-1 -63 94 0
-68 -5 23 0
-24 91 68 0
38 -58 100 0
-25 -32 12 0
77 94 -74 0
-73 1 72 0
-1 -100 -72 0
-20 -25 -39 0
-96 26 -85 0
-27 5 -14 0
39 -80 -8 0
-55 -77 85 0
81 82 -34 0
-43 -9 10 0
37 -53 -34 0
65 -38 -49 0
-3 -58 85 0
82 100 55 0
16 50 1 0
82 -28 -58 0
77 -11 -91 0
59 22 13 0
94 32 10 0
1 -24 -67 0
-90 -7 20 0
-81 -90 -75 0
-76 -66 9 0
-22 -99 -61 0
-82 38 54 0
-37 2 -59 0
75 66 -26 0
-4 30 -44 0
-15 -12 -84 0
45 -53 17 0
-45 8 -73 0
-9 -42 67 0
37 -10 -83 0
30 -62 -12 0
83 -94 42 0
59 -77 8 0
-76 77 54 0
3 -95 -26 0
-21 23 -65 0
-60 77 -78 0
12 -94 -90 0
49 8 38 0
26 32 -43 0
-96 -92 -49 0
14 -68 41 0
-81 -86 -87 0
62 19 36 0
24 57 72 0
-17 -18 6 0
65 -22 25 0
-94 41 62 0
93 -22 2 0
47 49 -17 0
-84 -25 86 0
95 -42 54 0
-35 -69 -86 0
-79 64 -59 0
36 38 -73 0
77 75 67 0
-51 98 12 0
8 -97 -45 0
79 93 -31 0
12 51 96 0
-97 -59 73 0
-15 -10 -34 0
25 -97 -73 0
-87 81 22 0
88 -6 -76 0
-87 33 -17 0
-99 3 -85 0
43 -84 -97 0
96 72 -9 0
-28 -4 -78 0
57 69 -29 0
-99 -67 -15 0
65 96 30 0
29 5 10 0
74 -67 18 0
-17 -43 4 0
-86 -55 -43 0
-10 -79 42 0
-63 13 -7 0
-47 -42 23 0
35 -5 50 0
19 86 11 0
-68 -28 23 0
52 -78 87 0
-36 -68 5 0
80 -100 52 0
-99 97 -36 0
-43 -48 -65 0
66 -77 56 0
58 26 -91 0
-16 13 67 0
-6 -55 75 0
-80 -94 -37 0
-55 59 52 0
58 -19 -35 0
-46 97 -17 0
-49 -1 -42 0
10 23 48 0
68 5 -84 0
97 -35 -4 0
-35 3 -68 0
98 -70 -57 0
13 -33 48 0
-28 -22 -10 0
-100 94 -12 0
78 -8 37 0
-83 56 12 0
-84 50 68 0
56 -43 -58 0
-92 -76 -58 0
17 69 -21 0
22 62 -10 0
-51 -4 16 0
93 -22 21 0
-92 -35 94 0
-12 38 -93 0
53 -85 -92 0
-15 19 96 0
16 39 -41 0
56 -70 10 0
90 -75 53 0
38 -65 79 0
-61 -35 78 0
-25 22 -29 0
85 -52 10 0
49 -93 28 0
89 74 63 0
54 74 -45 0
-94 14 -36 0
57 -89 68 0
-44 -23 -91 0
-87 73 60 0
63 -6 67 0
37 50 94 0
26 -13 -87 0
-21 -38 47 0
-91 70 27 0
79 -89 73 0
-84 -28 38 0
12 -44 62 0
-97 -89 96 0
96 23 52 0
-66 -7 -50 0
-73 -95 52 0
38 50 -94 0
97 -32 -29 0
-69 -62 43 0
-71 -25 -17 0
37 14 99 0
-67 -33 9 0
98 18 53 0
-4 -76 -81 0
73 -23 34 0
2 78 9 0
22 -79 78 0
-20 -15 -92 0
93 -98 -28 0
56 -25 99 0
72 -70 96 0
-3 -38 16 0
-51 65 91 0
96 -1 -49 0
-93 77 21 0
-63 -8 53 0
79 7 17 0
74 -4 -20 0
-81 -82 -37 0
8 88 -68 0
-30 53 95 0
73 61 -94 0
-39 91 -77 0
-27 83 22 0
-35 -2 -1 0
81 96 -15 0
-21 72 -97 0
-97 -17 6 0
21 -98 -10 0
-22 80 90 0
-93 6 -58 0
-52 30 25 0
-55 -48 -16 0
-34 -50 -84 0
96 90 27 0
100 -27 41 0
-69 -79 48 0
96 -5 -33 0
93 -58 -38 0
74 15 -47 0
-77 55 -12 0
35 90 2 0
85 48 -68 0
-1 79 97 0
-43 10 -32 0
-37 73 -83 0
-71 -25 77 0
-65 -53 67 0
18 3 71 0
92 -97 -28 0
28 87 -25 0
-2 69 92 0
80 -68 64 0
-57 -41 66 0
78 32 24 0
-44 -66 91 0
