p cnf 500 2000
-413 -157 119 0
165 358 -8 0
18 377 141 0
-309 -174 45 0
315 -111 386 0
498 -233 384 0
-269 260 -39 0
241 -27 -467 0
-196 102 30 0
-366 -189 -217 0
-160 355 -138 0
-229 75 352 0
-74 229 182 0
-177 40 -61 0
23 8 -470 0
-470 -44 115 0
300 -335 -475 0
-180 66 -267 0
-470 165 -104 0
376 -235 -261 0
-370 -467 -196 0
56 142 -231 0
-167 -108 211 0
133 -358 -286 0
-334 121 308 0
256 250 358 0
-316 -259 -379 0
54 -309 166 0
372 234 -322 0
500 318 -308 0
-28 -428 -1 0
481 213 60 0
-50 -269 -58 0
475 -251 -467 0
404 120 178 0
341 209 -136 0
-136 255 300 0
-472 -354 -150 0
-290 -60 -236 0
291 -181 231 0
-461 -254 -420 0
-69 -399 -478 0
168 145 -290 0
-392 -77 131 0
140 289 -262 0
234 198 -241 0
-306 -95 326 0
-485 472 214 0
428 223 -47 0
410 125 -3 0
178 -463 -451 0
374 -496 -28 0
-321 166 -291 0
394 -121 211 0
140 -40 -357 0
434 -20 -270 0
-421 -384 -93 0
186 -458 -263 0
248 -431 460 0
182 356 -339 0
-108 -307 -373 0
211 -80 -487 0
-186 2 -67 0
367 365 -350 0
-372 -171 -154 0
-349 112 210 0
23 -155 6 0
265 487 -19 0
-389 322 3 0
-15 -395 -392 0
294 -102 298 0
289 -51 181 0
125 102 123 0
-463 350 301 0
-14 452 368 0
-30 404 -49 0
141 118 -341 0
-319 -196 -154 0
-27 -133 236 0
17 -354 -411 0
310 151 -154 0
214 -375 -165 0
138 -126 -276 0
21 153 479 0
135 -63 375 0
354 -129 21 0
-487 318 305 0
-384 361 -466 0
256 -32 -47 0
-463 439 -37 0
434 486 468 0
-292 172 177 0
370 250 82 0
-12 -43 116 0
217 203 -72 0
-208 113 120 0
17 260 270 0
-475 165 314 0
-9 -92 138 0
-224 -53 119 0
-135 2 -98 0
470 88 399 0
162 -232 -407 0
26 59 -286 0
347 282 -455 0
-18 383 -9 0
42 -48 -148 0
-37 -484 24 0
81 -400 -108 0
125 -418 -223 0
284 19 329 0
-480 -315 393 0
-133 -28 489 0
-157 28 425 0
403 -25 217 0
-40 -186 218 0
-342 289 -33 0
52 82 -304 0
-384 137 477 0
-345 -338 498 0
474 -475 390 0
-100 -70 385 0
-372 17 -157 0
84 -156 -179 0
-327 159 166 0
435 -93 -33 0
-403 452 386 0
-227 -101 249 0
-493 -486 85 0
66 18 7 0
146 385 -134 0
353 352 -116 0
366 -100 152 0
-365 -399 -230 0
23 193 -327 0
-405 -7 72 0
-138 -211 -498 0
88 -51 -485 0
137 232 146 0
121 336 327 0
-385 460 205 0
57 439 87 0
-258 242 -85 0
-310 336 314 0
-266 339 482 0
-336 -204 -282 0
292 42 -354 0
-118 -300 -345 0
161 8 -175 0
205 -424 -466 0
-186 -217 488 0
86 -407 327 0
403 126 428 0
88 -301 52 0
-83 -264 -123 0
-360 -55 -442 0
12 357 -467 0
428 208 -191 0
489 189 -223 0
211 494 -101 0
340 -209 118 0
23 465 -183 0
-359 -476 322 0
-192 144 -357 0
155 388 -490 0
171 -69 146 0
384 -373 -425 0
215 380 317 0
-197 -125 -120 0
377 -464 -67 0
-427 -326 -219 0
442 -57 368 0
69 -382 -183 0
156 -172 -163 0
497 -166 -154 0
-185 59 -489 0
358 291 423 0
168 154 288 0
-426 -45 -371 0
58 263 -65 0
-369 396 -425 0
276 -281 57 0
-120 -128 -64 0
-279 293 341 0
425 -288 194 0
376 459 196 0
311 -438 -415 0
-488 -432 233 0
-378 139 -251 0
257 301 -460 0
-241 -69 480 0
418 98 -222 0
61 -181 97 0
-241 -341 23 0
401 311 -402 0
158 386 151 0
232 347 -394 0
103 -323 -485 0
-244 -76 348 0
497 470 341 0
101 345 29 0
211 -45 464 0
481 88 423 0
358 -449 -91 0
311 -241 -458 0
-18 488 137 0
120 -80 204 0
367 83 -206 0
-33 398 -26 0
-434 251 -35 0
361 -342 160 0
-338 394 267 0
160 138 21 0
-367 203 115 0
-426 95 33 0
159 429 402 0
-132 109 -183 0
-465 290 -318 0
-447 -44 -271 0
-484 352 488 0
-334 56 386 0
245 -277 254 0
-372 -265 -405 0
89 220 -372 0
-382 366 166 0
-366 108 -180 0
-435 470 184 0
335 -167 181 0
-356 -449 -85 0
-455 197 349 0
-235 33 -166 0
-217 -463 433 0
-241 262 -242 0
-269 -378 332 0
-78 -321 330 0
-346 91 -260 0
-479 432 -197 0
-349 168 -477 0
333 -138 432 0
91 458 457 0
-345 403 -442 0
-74 -483 -182 0
411 13 436 0
-27 359 -187 0
125 493 51 0
-145 20 -227 0
-203 312 -320 0
-421 -179 377 0
106 -262 -62 0
128 168 -194 0
171 -145 130 0
295 33 124 0
-425 -195 403 0
-336 -472 -243 0
-164 -487 378 0
-70 390 -437 0
-377 469 -102 0
351 176 35 0
305 381 -96 0
491 377 -417 0
143 437 264 0
-291 -170 -332 0
-319 -357 -241 0
77 82 78 0
-352 234 -186 0
-354 -152 -153 0
415 -71 -497 0
-332 -21 429 0
427 -320 -4 0
-406 473 348 0
168 15 35 0
487 -493 39 0
169 68 -233 0
398 -47 -84 0
19 58 -334 0
-382 195 224 0
62 -372 -406 0
-477 -497 401 0
105 109 340 0
-96 -354 43 0
-446 -445 431 0
10 -84 91 0
-46 -83 -200 0
5 -421 -53 0
-499 91 327 0
347 -378 214 0
-227 411 338 0
119 -151 334 0
414 -215 177 0
-19 14 -205 0
-292 -22 -424 0
207 -449 -201 0
110 -249 418 0
278 -427 38 0
248 270 -43 0
-29 -370 -67 0
314 85 251 0
407 13 4 0
183 73 454 0
344 229 334 0
407 -59 -285 0
-463 246 250 0
-134 25 277 0
404 -58 -468 0
-139 437 33 0
-424 21 223 0
304 191 -396 0
-287 -20 -56 0
-486 -12 374 0
455 -23 73 0
-425 -39 -233 0
114 428 141 0
-202 149 -154 0
-118 490 213 0
69 -108 314 0
323 300 -349 0
-456 167 151 0
150 239 -206 0
-352 410 29 0
212 -203 -50 0
-300 -278 21 0
173 -91 -500 0
20 -406 -314 0
-339 -125 -35 0
15 303 -201 0
-294 243 104 0
-203 165 -223 0
-299 474 177 0
-9 -8 44 0
-177 148 -210 0
406 -360 -35 0
-185 -240 -374 0
-193 278 -90 0
-132 -391 339 0
-16 456 471 0
-485 -83 340 0
495 -410 26 0
-53 210 -160 0
85 -383 -311 0
411 -185 -348 0
-185 205 -109 0
-45 232 -404 0
-386 -64 265 0
280 -341 -199 0
224 469 194 0
379 180 248 0
130 312 -100 0
-399 30 -465 0
-441 304 -420 0
-281 187 -87 0
-92 397 -236 0
327 378 307 0
36 483 -357 0
52 -134 -319 0
-405 -316 454 0
306 70 452 0
26 96 56 0
379 -167 138 0
-403 378 186 0
-47 -56 -291 0
73 354 -162 0
-40 291 158 0
42 -297 146 0
-279 442 -130 0
-422 -228 93 0
261 221 -228 0
433 213 371 0
-229 -340 -100 0
-456 -245 31 0
250 469 7 0
197 -8 447 0
123 351 -489 0
331 -166 299 0
472 -129 -384 0
444 169 446 0
-79 353 -361 0
395 -160 291 0
423 280 -87 0
86 -344 -297 0
142 49 292 0
178 -3 -391 0
-482 235 194 0
-188 363 -390 0
136 -95 43 0
78 149 -146 0
254 121 -473 0
298 434 313 0
413 181 -22 0
-138 142 170 0
-63 -475 -443 0
-32 479 25 0
-6 -27 491 0
215 429 -18 0
-362 -193 -88 0
-382 441 -10 0
-88 228 192 0
-134 -192 -178 0
350 113 -201 0
-177 -483 -479 0
168 393 -264 0
-415 -2 436 0
232 -235 490 0
127 462 -423 0
-164 257 22 0
-140 -47 360 0
164 -408 -260 0
-111 -151 198 0
-192 -186 403 0
-28 245 -352 0
205 -346 382 0
7 441 -81 0
-341 379 -343 0
223 -182 402 0
301 -41 -215 0
459 -327 457 0
474 -22 -416 0
14 316 330 0
121 338 136 0
-204 145 316 0
-329 -421 464 0
379 242 -465 0
-350 -143 44 0
479 232 323 0
-116 12 94 0
355 -420 42 0
-226 428 476 0
214 356 -175 0
112 -145 -159 0
-478 -66 -259 0
396 212 -30 0
-113 39 414 0
-177 425 -452 0
25 -417 366 0
-19 203 -266 0
-348 47 -93 0
-28 25 109 0
58 -382 3 0
153 350 -186 0
204 214 -355 0
-203 -138 -329 0
340 380 123 0
-66 -29 252 0
-38 427 26 0
-90 205 16 0
438 312 -226 0
374 -492 298 0
190 274 211 0
-268 -498 -466 0
384 -71 288 0
232 -52 -161 0
-382 -386 -254 0
-60 -94 80 0
-307 -274 252 0
-112 227 -419 0
-2 168 128 0
-135 -39 -77 0
-219 268 -335 0
482 -219 -45 0
22 -306 -486 0
-450 -424 276 0
-56 417 -427 0
-98 193 493 0
-20 436 -4 0
-293 247 489 0
456 273 28 0
139 55 64 0
-379 121 -434 0
373 218 202 0
199 -406 255 0
-98 -93 464 0
-478 -211 -26 0
-322 173 353 0
-181 75 415 0
157 -95 -184 0
62 353 87 0
-136 -284 287 0
464 23 -355 0
-235 -338 483 0
-218 -301 -331 0
-286 -328 -270 0
-259 -216 200 0
-51 222 -416 0
-459 355 483 0
-260 -257 107 0
172 21 -470 0
-497 378 -444 0
352 95 -313 0
-81 282 -163 0
-327 -334 -219 0
-217 240 105 0
-392 175 -186 0
-207 119 -4 0
396 404 245 0
344 -322 302 0
-434 -155 402 0
-453 -471 305 0
180 -500 416 0
10 105 -241 0
116 187 14 0
182 480 -111 0
-340 -321 148 0
-146 401 132 0
304 175 -131 0
238 79 -170 0
278 39 58 0
380 -63 -345 0
-197 497 -191 0
-356 142 -373 0
-169 -284 10 0
-145 -192 -305 0
-102 -129 498 0
411 -198 -396 0
470 -83 440 0
36 -468 -176 0
395 -100 109 0
473 -189 397 0
251 -215 -136 0
-451 -72 465 0
-97 -204 3 0
-406 148 -220 0
164 446 -209 0
-422 -207 -181 0
-246 -466 197 0
-492 -316 143 0
-158 -67 -469 0
-481 129 465 0
-153 379 -107 0
340 278 163 0
-152 454 227 0
320 -252 360 0
-127 -133 -305 0
-414 257 229 0
276 -393 -357 0
-253 202 275 0
-258 -210 -31 0
346 -479 73 0
-307 -112 -396 0
-356 363 277 0
-157 339 277 0
97 329 91 0
106 -31 280 0
-290 -152 91 0
222 -303 413 0
-414 191 311 0
90 128 255 0
430 -89 -152 0
239 201 194 0
225 -264 -444 0
286 -358 125 0
476 -5 -379 0
499 19 4 0
-373 -7 98 0
494 -371 -82 0
441 -485 386 0
-413 -131 270 0
485 -109 68 0
-111 -468 332 0
-385 234 -280 0
36 -164 403 0
171 263 -238 0
-45 54 -350 0
-156 199 -34 0
-86 -53 48 0
180 74 -22 0
-475 389 180 0
442 347 8 0
-383 -316 -461 0
-328 -114 -131 0
308 -458 368 0
266 415 -447 0
-490 347 -271 0
-410 407 -130 0
137 310 -432 0
288 -256 -190 0
152 409 108 0
-12 49 449 0
-137 -364 391 0
273 -231 -93 0
65 329 487 0
306 132 487 0
345 -383 -496 0
-23 412 -263 0
-438 269 456 0
234 -46 347 0
110 428 355 0
350 -497 -153 0
-304 461 409 0
-173 -4 481 0
-73 -468 -467 0
346 228 156 0
467 262 -408 0
-125 216 -356 0
129 -171 153 0
189 -295 -259 0
289 397 359 0
166 140 473 0
429 479 406 0
464 139 180 0
-199 -99 107 0
-92 103 465 0
156 -476 188 0
-202 236 -498 0
48 312 242 0
-218 419 -176 0
-500 -155 -158 0
-405 472 -153 0
-227 18 -85 0
187 -423 118 0
125 -208 152 0
-19 59 -21 0
-301 314 279 0
352 87 40 0
-437 -357 303 0
328 85 -167 0
-357 152 219 0
-360 -483 -357 0
480 -180 -78 0
249 73 -335 0
406 -477 313 0
-135 312 450 0
493 -229 406 0
209 461 391 0
-168 -195 -45 0
21 500 -432 0
-409 135 -402 0
-344 337 -486 0
-367 -231 -388 0
443 340 -140 0
287 295 17 0
-288 258 -390 0
133 500 473 0
-490 -13 -33 0
7 -287 371 0
491 105 89 0
-139 149 165 0
-153 -110 117 0
-66 471 419 0
404 303 -71 0
-36 -178 377 0
-437 -362 -483 0
34 -220 342 0
-23 -316 -198 0
118 -62 458 0
-190 358 -348 0
327 27 45 0
-45 69 -300 0
100 228 -267 0
29 63 312 0
48 -361 -218 0
-186 -6 276 0
-135 -470 -16 0
-382 409 381 0
287 209 -216 0
-471 292 194 0
121 83 317 0
-393 355 82 0
482 -96 -456 0
-97 464 -152 0
-318 431 -471 0
-491 -127 -295 0
-213 378 45 0
304 -171 -451 0
29 -148 -270 0
-9 18 -301 0
265 88 326 0
-360 398 430 0
79 102 -398 0
471 75 466 0
167 -391 -286 0
-489 75 298 0
-18 -70 -108 0
-186 40 469 0
-241 289 -389 0
-321 104 131 0
-190 237 -264 0
-481 -97 -354 0
-97 -292 -138 0
71 -346 -302 0
-131 -351 76 0
210 -391 -47 0
-184 403 -35 0
153 87 97 0
44 -86 -380 0
356 410 427 0
443 -317 170 0
265 140 90 0
-305 105 124 0
425 -130 -271 0
-295 -292 -222 0
63 90 138 0
-48 -95 206 0
-339 -488 372 0
-197 247 -332 0
-3 -180 71 0
420 332 -7 0
165 320 -125 0
278 -53 163 0
137 -391 -115 0
110 -481 -499 0
-58 -379 269 0
455 -358 499 0
-491 312 -490 0
371 -33 -434 0
-297 223 237 0
-337 23 -464 0
60 -172 470 0
-329 -444 -388 0
106 -174 -231 0
-346 -204 -470 0
254 468 -214 0
332 -139 159 0
-4 495 161 0
396 478 149 0
-390 -80 77 0
-255 213 -151 0
361 -338 309 0
42 -310 470 0
-481 -221 287 0
-102 21 130 0
58 407 348 0
307 -192 -412 0
-387 252 475 0
293 -251 -219 0
-246 145 -482 0
16 380 -3 0
-259 -204 -347 0
-487 -346 -249 0
-229 125 -338 0
-274 442 414 0
424 -270 -279 0
275 -216 -121 0
223 187 115 0
420 102 75 0
497 -240 -339 0
-292 -137 -418 0
-205 311 86 0
-220 -258 336 0
389 -257 -455 0
-131 500 482 0
-43 -464 -477 0
81 240 -64 0
-116 -322 287 0
-209 416 217 0
-324 -400 -7 0
377 472 416 0
-451 412 245 0
140 -436 -409 0
464 78 -405 0
-163 166 55 0
-127 -360 476 0
145 -313 -420 0
311 463 324 0
-181 210 157 0
445 -490 -313 0
286 417 -51 0
-486 -103 -459 0
391 -467 -214 0
122 234 -331 0
-209 -442 121 0
-161 400 -303 0
-147 -466 -293 0
258 -365 -208 0
-307 -140 -494 0
170 -98 -140 0
391 445 145 0
-163 -374 186 0
206 434 267 0
398 3 -180 0
489 -130 49 0
-61 -241 -240 0
-104 -244 -243 0
-409 444 320 0
-223 -498 -368 0
-465 -234 -174 0
-327 266 -296 0
343 -196 -160 0
-437 297 -134 0
-57 484 53 0
-394 -55 -238 0
-491 -460 43 0
14 487 337 0
466 -331 -429 0
-39 100 -490 0
-371 332 -10 0
354 -77 -448 0
221 -410 203 0
433 78 -447 0
-390 -342 -324 0
-340 242 241 0
366 63 -238 0
395 -297 -33 0
-106 -231 -291 0
255 -457 181 0
-17 287 -383 0
212 226 130 0
-46 -331 66 0
-133 211 30 0
316 264 -439 0
-283 -466 201 0
-26 256 382 0
-55 63 -354 0
-154 151 500 0
2 201 93 0
223 15 365 0
-194 490 415 0
-232 -238 111 0
445 476 -40 0
-410 -128 151 0
116 43 -250 0
-262 -343 314 0
114 341 371 0
-329 264 14 0
-153 15 250 0
-303 -445 -379 0
-8 -208 -221 0
14 -144 -409 0
-298 372 490 0
-144 -119 -163 0
300 391 279 0
311 182 21 0
-29 58 -140 0
-122 -126 440 0
-151 458 116 0
304 -192 -432 0
14 -283 242 0
269 -235 354 0
12 -334 -264 0
449 386 -55 0
-68 -323 24 0
-156 -415 284 0
-161 187 -159 0
411 -478 191 0
-95 -276 -389 0
454 -285 411 0
499 -386 -445 0
320 -98 -240 0
248 318 76 0
295 230 -47 0
308 111 -170 0
-444 -277 -497 0
233 -305 -147 0
-415 -419 401 0
-4 -153 -218 0
421 -269 133 0
158 -429 -226 0
307 -350 -312 0
495 272 203 0
-323 -304 177 0
-201 327 157 0
20 260 285 0
368 353 -5 0
-3 -430 36 0
436 -464 -414 0
81 376 492 0
-384 303 239 0
53 -166 -366 0
376 152 -392 0
187 -263 -89 0
-342 172 -245 0
128 -446 222 0
-196 -226 -207 0
451 -390 227 0
-255 -428 -165 0
-485 -268 91 0
-420 -154 -204 0
-482 149 98 0
-295 22 -54 0
475 -49 456 0
467 -14 225 0
-90 395 -67 0
127 29 -375 0
45 -360 -231 0
30 -375 -51 0
-340 -289 90 0
48 480 -488 0
192 227 109 0
-125 336 -493 0
110 477 3 0
-34 -107 336 0
-36 370 412 0
34 344 284 0
291 484 457 0
81 450 473 0
451 -305 110 0
160 22 73 0
376 -315 -364 0
-262 -332 -78 0
437 306 471 0
-267 -83 -45 0
469 -5 79 0
-42 -445 351 0
232 230 -469 0
-29 -340 -231 0
212 303 -333 0
454 112 256 0
320 -346 -377 0
176 -404 -273 0
218 -259 -358 0
90 62 23 0
323 -270 -20 0
343 -81 289 0
-496 -211 -271 0
-208 -462 65 0
-311 413 -460 0
-62 397 240 0
16 445 73 0
-412 -198 -98 0
-322 341 254 0
-213 -77 65 0
267 -348 -36 0
-325 259 101 0
400 242 58 0
-75 197 294 0
-114 -67 -193 0
76 434 -168 0
-345 188 -466 0
-304 368 402 0
-274 -489 -197 0
-290 -203 484 0
85 -430 -280 0
-133 458 -186 0
20 128 390 0
135 -52 385 0
14 292 -39 0
-91 139 97 0
-199 -165 -21 0
-209 120 -451 0
-256 -197 -319 0
-479 167 408 0
-297 -265 6 0
-427 -490 100 0
-73 90 -243 0
150 215 27 0
26 378 -54 0
55 98 -111 0
146 121 367 0
-319 -260 120 0
169 -338 227 0
55 -153 276 0
451 -75 -154 0
262 166 260 0
-134 -430 161 0
229 -193 -20 0
-209 -377 -203 0
-361 223 -246 0
160 248 -125 0
436 236 324 0
-497 289 28 0
467 5 -10 0
27 231 -47 0
-252 401 135 0
-388 69 -381 0
84 382 99 0
129 128 403 0
-309 360 -363 0
-408 -435 49 0
24 2 -375 0
-472 44 419 0
165 52 -67 0
28 -449 445 0
433 -21 -418 0
105 400 171 0
252 -271 -473 0
476 115 179 0
26 -443 479 0
429 -31 -309 0
316 -76 -90 0
-301 494 -89 0
-362 465 -324 0
-107 -57 -499 0
330 -366 -118 0
-446 426 -304 0
-113 -495 493 0
-291 -115 59 0
-92 -300 361 0
292 361 456 0
96 -43 1 0
-143 302 37 0
468 101 257 0
-314 -499 433 0
-212 108 -51 0
261 -301 -135 0
340 377 -348 0
68 -187 215 0
2 57 318 0
-342 -199 -353 0
-129 150 425 0
394 -412 -492 0
368 24 476 0
-80 -170 346 0
126 272 -298 0
314 339 -340 0
54 -496 -463 0
402 72 -42 0
-107 92 126 0
417 419 -9 0
132 -187 -242 0
188 226 -403 0
-127 359 -355 0
498 259 -431 0
70 41 302 0
276 347 -153 0
-300 -486 234 0
424 -381 -481 0
134 343 -182 0
97 24 495 0
-198 -195 385 0
441 254 -102 0
-453 -312 232 0
277 -98 126 0
6 -366 338 0
456 460 179 0
-125 300 134 0
-137 -215 -33 0
36 426 35 0
350 289 -123 0
-282 -441 470 0
-402 -208 216 0
-14 103 -293 0
282 213 483 0
442 156 112 0
206 -421 389 0
-256 -323 57 0
-206 117 21 0
310 -341 -73 0
-490 81 269 0
-120 -330 -274 0
25 -329 -490 0
170 499 -357 0
212 95 89 0
-35 -455 319 0
-240 -316 -466 0
427 232 -155 0
-476 -54 154 0
-323 -12 58 0
308 310 412 0
179 110 385 0
-366 -409 -401 0
238 -170 -410 0
289 -472 173 0
-229 -293 239 0
86 -62 -300 0
22 -487 186 0
-271 341 -218 0
34 359 -105 0
86 -97 456 0
-391 129 -96 0
349 -453 125 0
-433 -338 -7 0
72 -463 2 0
190 -431 -85 0
-260 -316 -103 0
-500 276 128 0
-371 -354 -135 0
403 375 289 0
166 -386 -200 0
-472 366 -362 0
-100 -44 324 0
61 478 -392 0
366 -265 -314 0
297 -321 -254 0
363 413 295 0
129 177 -77 0
-197 243 -434 0
271 327 428 0
-391 242 -124 0
-463 394 -197 0
406 -322 50 0
8 443 -271 0
45 -427 -343 0
422 48 -194 0
-79 469 -170 0
-168 -491 494 0
386 -257 243 0
-333 388 493 0
-451 98 -155 0
-217 -410 63 0
-275 323 165 0
-435 208 25 0
-67 -408 185 0
-426 195 -435 0
456 391 71 0
351 -352 -200 0
-266 -367 -287 0
404 -327 -189 0
-207 -274 474 0
-59 -15 115 0
-387 399 284 0
311 -260 483 0
404 -228 157 0
-113 -459 232 0
486 -372 199 0
-436 380 -27 0
371 37 -77 0
44 66 282 0
-487 -94 -178 0
311 260 -275 0
-53 -424 119 0
-267 377 -15 0
-87 273 101 0
-327 -48 -411 0
-221 -381 -276 0
-140 -200 -363 0
285 118 312 0
320 428 -159 0
-348 151 106 0
464 144 487 0
474 -308 -383 0
-402 -246 437 0
-490 -367 103 0
375 -116 -191 0
-365 480 -447 0
196 120 -24 0
-209 -326 -221 0
114 -299 -129 0
142 -241 -492 0
-443 -256 -47 0
140 339 184 0
4 193 -156 0
-8 68 490 0
-47 -285 -203 0
-311 460 247 0
349 439 262 0
-153 -17 -461 0
-403 73 335 0
-431 -126 488 0
-59 310 92 0
5 434 13 0
255 220 334 0
129 -185 -24 0
184 -384 158 0
-357 -163 493 0
-412 -493 -364 0
-439 282 94 0
16 -56 -223 0
-45 297 -360 0
297 -315 -425 0
135 494 465 0
208 143 221 0
421 234 -252 0
421 149 225 0
397 91 483 0
-463 -288 -102 0
246 -437 281 0
404 331 -325 0
364 -60 116 0
182 401 -319 0
490 -375 60 0
426 64 -75 0
204 492 -256 0
454 377 150 0
-360 40 419 0
55 -64 111 0
-355 325 69 0
170 -160 -229 0
-58 150 -92 0
322 -126 49 0
15 119 9 0
497 -302 219 0
98 149 292 0
141 -204 -236 0
-159 -14 499 0
-312 128 265 0
44 8 -65 0
134 106 -459 0
360 26 -285 0
-300 -177 -489 0
-383 391 314 0
213 422 25 0
-404 265 251 0
29 155 249 0
-489 -114 -181 0
-26 -303 -235 0
44 -114 -481 0
89 -71 -279 0
-22 -474 -340 0
43 184 313 0
-105 47 -68 0
235 -49 -39 0
414 -464 -346 0
-269 -251 351 0
-286 -149 238 0
438 361 -178 0
-53 62 25 0
-390 128 -215 0
-241 -127 -112 0
410 187 -225 0
321 171 -45 0
-305 34 481 0
345 -488 -290 0
-297 155 139 0
44 -157 -336 0
-304 -231 368 0
61 244 186 0
48 -108 225 0
-299 -166 27 0
-425 -13 -384 0
-447 -416 251 0
184 289 -47 0
-50 253 -267 0
419 454 256 0
492 336 138 0
-80 167 -280 0
467 437 -53 0
-444 464 349 0
-428 -413 448 0
326 -92 104 0
328 80 248 0
220 -342 -297 0
-20 -408 500 0
15 203 233 0
496 -80 -405 0
-184 -75 -219 0
-294 -377 226 0
-151 247 47 0
283 209 -397 0
364 -304 -286 0
-460 411 206 0
-362 324 -496 0
-440 260 -127 0
143 -122 176 0
34 411 -117 0
401 -263 111 0
11 109 253 0
-193 79 108 0
111 -209 24 0
-303 -468 227 0
-419 -50 22 0
70 161 122 0
324 58 -92 0
215 -381 168 0
-56 -216 -155 0
234 -320 -422 0
42 -195 -144 0
142 -377 -460 0
273 353 327 0
-153 483 327 0
-464 131 278 0
-467 -417 -269 0
338 305 -404 0
-174 -185 98 0
233 -462 57 0
-396 161 476 0
-477 58 -2 0
10 286 -99 0
125 144 31 0
-30 94 -61 0
-10 -161 469 0
154 -310 25 0
297 -96 415 0
-456 -465 -450 0
-457 -344 -321 0
-416 -253 21 0
-359 467 -256 0
425 -372 64 0
-418 104 481 0
-423 -272 429 0
-346 -319 -339 0
-484 -28 432 0
92 466 401 0
-230 -123 91 0
207 413 299 0
243 -239 -200 0
-238 200 386 0
180 425 378 0
254 370 -197 0
-255 -159 444 0
-307 197 124 0
349 -180 -75 0
75 -119 -166 0
-166 361 -143 0
245 -144 415 0
497 359 -209 0
428 377 172 0
-161 -248 30 0
-428 -268 81 0
-79 194 185 0
-372 -281 15 0
203 -379 -187 0
55 108 -337 0
52 119 -31 0
138 -70 65 0
131 441 -249 0
121 -36 -449 0
-137 392 -483 0
-223 -29 -344 0
460 -3 -195 0
-113 -391 88 0
46 461 93 0
-160 458 54 0
9 139 185 0
293 18 -481 0
89 -256 499 0
450 51 -490 0
-93 366 157 0
-118 -378 -358 0
-246 170 392 0
-318 491 -290 0
466 -198 -212 0
355 193 -360 0
-383 257 98 0
-343 -342 -15 0
204 -200 465 0
-349 -358 43 0
-500 290 -41 0
-247 -153 -311 0
-88 94 144 0
-249 272 -379 0
9 396 99 0
-378 -67 20 0
84 -14 -297 0
396 208 145 0
345 486 142 0
-242 254 390 0
-135 125 -497 0
184 392 -361 0
-204 240 402 0
-384 -110 352 0
161 168 178 0
-290 -419 68 0
441 372 49 0
-118 -182 -459 0
-23 196 -327 0
45 -109 -215 0
327 -262 -17 0
-321 170 396 0
-448 -196 117 0
121 -90 376 0
-323 460 258 0
-157 396 55 0
283 198 282 0
-211 40 292 0
112 -255 -62 0
429 259 191 0
-411 401 -227 0
-411 -353 363 0
420 -162 12 0
94 -251 -32 0
-172 -391 -483 0
-272 246 78 0
-82 -343 191 0
-342 -366 -96 0
364 46 -15 0
32 -437 125 0
494 -20 456 0
-375 80 -91 0
431 210 -339 0
276 362 310 0
-88 -295 336 0
-466 464 138 0
-174 -277 -324 0
41 230 60 0
235 -17 134 0
-352 250 95 0
-61 -112 -451 0
281 331 -140 0
-22 -275 -440 0
-219 269 -276 0
-89 235 494 0
15 152 -3 0
321 107 57 0
-102 -304 -499 0
-83 226 40 0
-459 -84 -241 0
-121 -41 -316 0
-87 218 -202 0
-279 478 -85 0
-202 123 229 0
205 252 333 0
438 495 -105 0
-130 138 -46 0
-134 -277 -412 0
166 212 165 0
-235 392 -245 0
-81 473 -175 0
-144 308 68 0
-21 367 -285 0
-200 431 -381 0
32 -14 -21 0
-498 281 -67 0
290 25 -436 0
96 197 324 0
-390 84 -4 0
118 -111 -50 0
267 -140 -46 0
-165 -156 -207 0
-191 498 -221 0
-42 -141 195 0
-497 -302 -349 0
413 308 -373 0
-42 346 116 0
-237 172 -163 0
-460 118 381 0
-190 113 -365 0
116 -296 -218 0
458 -424 -200 0
-374 -278 -222 0
-48 -193 263 0
197 -376 -500 0
81 -495 -139 0
221 -54 -414 0
-175 488 254 0
-161 439 295 0
-314 -413 -299 0
-103 -297 341 0
-145 425 -214 0
-129 388 321 0
188 432 139 0
-221 -323 461 0
-120 -172 -43 0
-191 -59 254 0
-453 -312 106 0
72 497 203 0
-353 442 380 0
204 -190 333 0
496 -262 251 0
-419 301 -60 0
-182 53 -52 0
-164 333 -64 0
411 379 -488 0
406 -325 176 0
-1 255 -411 0
103 214 145 0
-412 -393 166 0
263 130 -103 0
325 167 -372 0
423 -367 -78 0
-292 -496 -76 0
344 64 -32 0
-64 -265 -6 0
-297 -147 194 0
-339 383 455 0
-256 198 -396 0
155 -326 270 0
-375 360 71 0
-403 -342 222 0
227 -439 32 0
-126 -265 -111 0
206 -27 -156 0
2 421 202 0
-419 -190 -139 0
279 -249 -445 0
266 328 353 0
-367 345 150 0
-21 -134 123 0
-453 -279 -132 0
-424 241 495 0
-228 -248 460 0
-143 -52 305 0
-10 393 -305 0
432 270 28 0
487 -275 130 0
387 -284 -311 0
238 4 32 0
300 -195 -277 0
-449 457 284 0
176 180 227 0
-88 -307 -489 0
-436 377 51 0
-268 -204 -149 0
369 421 -10 0
16 300 351 0
344 -30 -33 0
203 -231 51 0
249 -362 -474 0
497 481 250 0
-43 139 -153 0
441 -496 333 0
-45 338 -411 0
-17 294 -450 0
-332 306 -467 0
258 92 -490 0
-492 -430 486 0
-70 347 74 0
-169 -234 -68 0
-101 254 316 0
334 215 -20 0
27 -227 -347 0
-32 -401 -238 0
203 4 224 0
12 -431 241 0
-375 -203 387 0
-440 331 -126 0
191 -138 -370 0
-279 -225 -306 0
497 -435 377 0
356 -10 441 0
-56 72 -107 0
-191 -119 -129 0
205 249 68 0
-156 -32 27 0
-248 -326 324 0
-359 -181 486 0
183 -473 -323 0
-81 203 -348 0
470 328 289 0
208 160 198 0
-231 -202 406 0
399 218 -282 0
61 148 -67 0
-91 241 401 0
163 -206 -118 0
-396 -238 -85 0
-285 258 -17 0
331 259 207 0
-44 428 -74 0
218 -401 -450 0
-279 -213 -140 0
90 190 -164 0
-154 424 162 0
369 -148 -62 0
377 110 79 0
171 -82 328 0
185 265 -72 0
-212 -210 -232 0
-217 -461 -53 0
317 372 -313 0
396 -115 -492 0
-317 -436 20 0
-75 -35 213 0
491 -222 90 0
-377 417 440 0
-100 370 -412 0
-481 -462 -217 0
61 -177 388 0
392 160 -84 0
59 39 149 0
168 456 -363 0
-346 138 -33 0
-192 347 -195 0
-486 -434 -3 0
336 -57 -121 0
432 448 9 0
-439 248 -16 0
300 -310 170 0
-115 157 124 0
-364 -124 346 0
-96 -218 -47 0
205 -149 -58 0
-330 -15 315 0
-260 415 -345 0
153 300 363 0
-394 -491 -130 0
-175 -135 -268 0
345 -13 -375 0
-281 161 -35 0
13 -40 -481 0
285 466 -476 0
243 481 -458 0
-105 -234 -48 0
-386 -343 -51 0
24 -319 -271 0
401 -436 294 0
193 59 -377 0
-242 -30 369 0
16 -112 248 0
447 399 319 0
-92 94 204 0
-159 -256 7 0
36 256 -417 0
-447 -435 190 0
-249 454 -496 0
-155 185 -319 0
-55 39 -213 0
372 -9 159 0
-89 38 86 0
131 -397 -441 0
236 -147 161 0
34 403 -133 0
-232 340 -75 0
378 -103 355 0
480 243 -456 0
-203 -327 305 0
-112 -288 -454 0
83 -356 102 0
-177 -259 355 0
-41 -149 197 0
-402 -238 -353 0
417 218 34 0
-341 -488 -247 0
-3 -58 -493 0
111 228 80 0
-266 170 385 0
-258 -104 47 0
-155 -161 445 0
316 -247 375 0
193 229 -223 0
-149 -233 -423 0
-54 -307 -472 0
229 365 -11 0
-348 -325 -103 0
-500 -297 -418 0
-403 -211 -224 0
452 43 -18 0
106 -192 -279 0
-25 63 262 0
-366 -252 13 0
267 -70 -472 0
-81 227 -457 0
498 351 57 0
-380 462 191 0
314 280 -82 0
76 406 362 0
-341 344 53 0
-462 -208 -488 0
242 -97 490 0
-460 362 500 0
71 -334 44 0
341 47 52 0
166 -294 436 0
410 -444 -296 0
194 -191 134 0
-132 386 249 0
403 321 463 0
-379 -144 -249 0
-67 -190 337 0
187 -5 253 0
216 -5 348 0
376 -54 -242 0
-151 349 207 0
-390 136 -94 0
-76 2 -220 0
-260 -266 -450 0
-8 -459 -48 0
-207 19 342 0
190 334 460 0
-420 -356 -408 0
128 69 491 0
420 60 -499 0
191 389 -208 0
451 -74 494 0
-1 147 -494 0
132 298 283 0
-60 -407 141 0
69 490 294 0
-426 -495 -497 0
-299 -18 398 0
22 -463 257 0
-481 238 -213 0
227 211 281 0
-153 63 418 0
-342 440 162 0
259 -66 -166 0
-382 -18 296 0
292 96 486 0
318 205 36 0
51 20 -236 0
457 -426 139 0
91 -123 -398 0
-176 -102 -266 0
-287 -208 258 0
52 34 -478 0
-258 78 447 0
49 -293 -385 0
498 -135 2 0
-184 426 -119 0
175 -137 378 0
219 312 386 0
334 294 133 0
-318 -474 -227 0
-392 368 -193 0
306 105 471 0
-217 155 -246 0
-242 174 -37 0
-300 -236 351 0
-44 250 428 0
465 106 -86 0
188 6 -328 0
465 425 -318 0
496 -299 -254 0
73 -348 -498 0
-239 277 420 0
496 -109 283 0
91 37 -313 0
416 -50 469 0
28 30 241 0
-360 -217 349 0
-177 455 259 0
240 -375 -460 0
412 -468 355 0
119 -490 -233 0
309 219 -27 0
-425 -484 276 0
-279 18 -299 0
100 -236 -83 0
466 483 440 0
364 -10 486 0
-34 -310 318 0
344 -131 -67 0
-181 488 -78 0
-12 -130 -296 0
-341 347 480 0
-35 91 -166 0
-345 -33 487 0
-44 -173 476 0
-479 -377 -408 0
414 -268 -108 0
-145 -395 66 0
-45 -399 80 0
-126 312 425 0
495 155 -189 0
122 -375 138 0
250 107 -278 0
22 -345 -153 0
-343 428 -22 0
394 -28 -206 0
29 -38 106 0
-69 74 213 0
-301 -421 30 0
-71 307 346 0
393 355 -159 0
-322 -444 234 0
-435 86 450 0
-37 -338 11 0
-301 -272 -29 0
467 282 213 0
-398 305 6 0
204 488 -500 0
91 472 146 0
307 137 -67 0
-254 310 343 0
164 -1 124 0
120 -241 -401 0
146 386 -355 0
148 -473 494 0
-162 405 241 0
449 -301 -155 0
-460 325 -38 0
-411 262 -142 0
379 429 -246 0
-466 126 72 0
-403 -418 214 0
346 277 -417 0
364 -407 170 0
154 -483 -30 0
140 348 -403 0
-188 -42 -339 0
172 449 -377 0
260 -143 -153 0
-328 -330 -32 0
-456 300 -334 0
-355 331 -162 0
-188 -39 -343 0
219 -349 26 0
496 -439 -481 0
-6 -184 -226 0
447 177 -497 0
-304 -138 98 0
339 -352 104 0
-95 17 -19 0
-247 -326 -383 0
427 -169 397 0
-422 351 77 0
405 130 -272 0
-120 -95 -253 0
-95 -424 367 0
-81 325 300 0
-399 -14 -38 0
-295 84 59 0
208 20 270 0
240 -309 215 0
-425 93 158 0
424 445 259 0
-391 207 194 0
-175 -38 -174 0
320 -68 281 0
182 -374 -137 0
-372 462 -234 0
148 -162 235 0
-139 -70 -277 0
128 456 374 0
-272 -266 197 0
243 -369 -8 0
477 -306 -6 0
8 -305 -430 0
22 43 -184 0
126 -47 -387 0
-23 -234 -207 0
-291 -117 386 0
-476 -172 -453 0
178 211 98 0
351 -298 -24 0
-234 -45 -106 0
-397 -352 44 0
126 2 354 0
-240 -457 239 0
56 391 -290 0
399 -108 -171 0
10 255 -374 0
-418 271 362 0
339 412 -224 0
403 -2 -177 0
-82 -236 325 0
101 -176 73 0
-124 457 -61 0
417 -37 -30 0
-390 -122 -81 0
409 -449 317 0
464 286 182 0
-145 -54 120 0
211 10 -483 0
408 459 -18 0
110 195 -157 0
-497 -122 258 0
-191 460 359 0
-414 41 -198 0
204 441 -415 0
435 -92 393 0
63 340 -33 0
291 -241 376 0
-141 -235 93 0
264 163 336 0
-438 173 488 0
330 -337 389 0
-191 497 67 0
405 -123 136 0
-428 186 421 0
479 100 3 0
31 284 330 0
-201 2 13 0
-152 -230 -376 0
-318 -178 399 0
117 -295 194 0
-121 8 -444 0
73 -194 -426 0
77 407 226 0
-492 -105 -386 0
-453 446 135 0
435 -496 64 0
-93 -296 70 0
420 463 170 0
352 163 -377 0
55 282 485 0
-210 230 -326 0
-208 -174 -32 0
-295 65 102 0
-142 316 -3 0
-414 -102 -52 0
-316 -57 -232 0
-390 -223 233 0
-437 235 284 0
78 -50 -25 0
-424 11 -114 0
155 -197 100 0
-497 -238 174 0
-256 -51 -65 0
454 272 -98 0
-92 348 -222 0
-195 360 -203 0
255 -373 -264 0
-249 91 193 0
-30 -337 98 0
-122 249 254 0
-446 -448 -401 0
-362 217 -486 0
349 200 -113 0
-5 6 -118 0
-176 -31 -273 0
207 136 -29 0
454 -28 -474 0
271 341 -162 0
12 -473 -207 0
-370 464 -101 0
101 -433 18 0
383 -482 -438 0
-279 -372 -440 0
-224 438 -390 0
-32 -202 -30 0
-361 90 -88 0
308 -233 322 0
-283 401 342 0
376 477 -348 0
318 -133 -410 0
-28 -20 -453 0
134 423 223 0
164 -132 136 0
-111 -61 229 0
84 245 309 0
-31 461 -387 0
-290 244 -38 0
-441 -250 194 0
153 -50 -381 0
-161 -487 385 0
39 -177 433 0
334 444 87 0
283 37 486 0
369 69 -461 0
-265 -492 81 0
-436 -346 -96 0
-107 -71 -255 0
71 260 -482 0
-112 294 -98 0
187 34 395 0
-167 59 -450 0
-423 -225 157 0
-134 326 -180 0
-276 2 -263 0
-255 215 79 0
192 388 145 0
402 330 -409 0
-494 -169 -120 0
396 -109 -72 0
215 -20 332 0
211 -264 -316 0
-455 -257 433 0
177 -395 23 0
-487 318 388 0
477 -376 -76 0
-135 -406 134 0
364 328 440 0
33 85 -39 0
-301 -425 -371 0
365 255 -328 0
-242 73 13 0
413 -483 -376 0
187 -292 303 0
143 -372 211 0
239 -358 27 0
35 -490 -115 0
-30 340 -103 0
-134 -383 422 0
224 -250 -34 0
-499 -245 358 0
-20 -499 140 0
395 306 317 0
-401 409 -117 0
467 210 -417 0
213 -455 -363 0
-302 5 -59 0
-279 109 250 0
229 -165 -221 0
264 -45 -299 0
329 -181 -404 0
-198 307 147 0
-271 229 -225 0
-287 6 430 0
41 348 -431 0
428 -26 44 0
263 -194 -191 0
285 -300 149 0
-231 -21 -267 0
-109 -191 248 0
249 154 305 0
281 -174 31 0
-273 -387 102 0
-317 367 391 0
-53 89 -217 0
250 -150 264 0
-259 -311 470 0
-483 -332 195 0
297 444 161 0
-398 309 182 0
284 -324 -188 0
460 -470 -39 0
429 -491 105 0
171 156 -235 0
353 -181 -72 0
-290 -220 -259 0
301 206 119 0
-91 -70 219 0
-463 -96 196 0
99 91 -167 0
204 -461 302 0
61 -57 47 0
-429 -336 -108 0
-36 -287 498 0
-181 94 -405 0
-424 38 -228 0
-206 237 164 0
-205 -47 31 0
165 -43 484 0
-447 -352 -344 0
332 267 303 0
-267 222 -248 0
287 51 405 0
105 25 64 0
268 62 -420 0
-47 407 -462 0
216 -68 481 0
-135 -139 136 0
-97 327 302 0
-408 -436 254 0
58 388 -68 0
87 -159 -193 0
2 -242 -385 0
390 443 -42 0
-396 142 -19 0
-182 297 16 0
439 -199 -411 0
473 -111 -386 0
-374 206 -236 0
-407 -384 -256 0
208 -337 -387 0
-52 -70 -166 0
-157 276 -208 0
40 -488 256 0
274 12 136 0
333 -359 -374 0
-389 127 -385 0
-470 -275 -37 0
