p cnf 500 2000
-129 310 -465 0
59 244 -243 0
-143 82 -275 0
430 361 373 0
87 -257 52 0
164 -73 -388 0
-100 -179 228 0
159 -174 -410 0
-449 127 -38 0
-218 -46 22 0
-495 250 92 0
40 -334 89 0
-230 -76 -352 0
164 -351 -474 0
-68 457 390 0
-396 -95 -147 0
-434 386 -217 0
63 445 202 0
-14 271 -487 0
381 321 134 0
75 -17 -65 0
120 277 -29 0
293 334 -84 0
-318 -282 -43 0
176 -22 313 0
-46 38 407 0
4 489 214 0
-416 -387 186 0
-393 202 291 0
-454 100 474 0
-12 37 -481 0
336 -227 -185 0
174 192 326 0
98 -33 310 0
367 -382 -467 0
-253 40 -25 0
318 -322 -65 0
-285 87 -377 0
-32 358 322 0
-308 477 442 0
383 327 -104 0
470 210 15 0
-249 136 72 0
-176 -182 -70 0
464 90 -472 0
-5 -447 -449 0
274 352 400 0
-469 -322 14 0
-320 -485 -191 0
16 -204 239 0
177 298 -69 0
-123 -309 -241 0
321 -161 64 0
-198 -263 -305 0
322 -17 -360 0
299 -171 441 0
-381 317 445 0
-496 -369 -286 0
315 100 194 0
484 -335 75 0
262 478 9 0
219 -330 -5 0
191 234 -138 0
431 73 -96 0
356 213 -256 0
495 257 139 0
113 -244 -138 0
-417 396 -150 0
313 418 -420 0
-337 -231 246 0
166 -53 4 0
5 -303 -55 0
-199 -458 -465 0
469 -325 417 0
-24 249 51 0
-113 125 -359 0
182 -322 408 0
-243 -307 291 0
-50 131 317 0
-320 92 -222 0
300 -43 -431 0
-89 -233 -197 0
-443 -92 50 0
171 427 -329 0
-230 63 471 0
194 -314 414 0
218 184 -98 0
-368 -9 -341 0
374 -101 294 0
-230 127 3 0
-67 89 157 0
259 -89 -355 0
470 -469 -145 0
200 157 -239 0
213 -163 227 0
-327 -286 168 0
-432 108 217 0
434 -157 -206 0
-122 -28 -99 0
480 174 -55 0
49 468 263 0
263 -410 -60 0
279 -444 -204 0
-311 55 -477 0
-308 -441 -378 0
-104 -11 162 0
237 147 -160 0
454 472 -433 0
447 336 318 0
222 -398 245 0
97 -204 302 0
252 247 -355 0
-249 444 205 0
451 -460 251 0
-29 -441 79 0
476 -346 -486 0
213 -46 -157 0
203 -406 383 0
311 -326 -190 0
80 333 154 0
409 324 -472 0
-91 399 205 0
448 -99 201 0
-334 208 -193 0
-137 -448 -47 0
-220 211 62 0
-240 -219 223 0
107 263 -31 0
-411 -189 485 0
325 -276 -117 0
-469 33 -388 0
352 317 -311 0
-421 147 299 0
-462 -414 40 0
-172 374 -440 0
93 -169 357 0
-186 -230 360 0
479 -283 430 0
-412 30 386 0
-376 -350 278 0
-304 -184 -489 0
440 423 187 0
472 220 -460 0
16 -493 -477 0
-450 486 -287 0
-489 -99 475 0
-129 -305 10 0
-452 339 -254 0
170 117 481 0
111 -324 -131 0
170 -160 289 0
-390 382 347 0
-128 381 -442 0
-455 -367 360 0
-349 -10 -2 0
-251 315 234 0
338 -87 319 0
77 182 -429 0
-111 -165 357 0
120 -418 -495 0
-168 2 411 0
48 -269 -97 0
435 228 61 0
-312 -175 337 0
-273 490 -260 0
-334 367 459 0
408 -164 -266 0
240 436 450 0
362 -89 -260 0
95 -211 -241 0
232 -98 -485 0
-437 -444 -186 0
339 -410 -420 0
210 -222 -237 0
264 429 462 0
-67 438 140 0
356 -438 -114 0
115 -424 -34 0
-473 -211 431 0
133 -363 356 0
9 -94 212 0
39 14 -17 0
132 61 -380 0
247 232 -440 0
7 96 -461 0
441 -154 -366 0
-374 -233 -348 0
-335 306 159 0
201 272 210 0
340 330 239 0
469 -158 -301 0
207 -351 149 0
221 20 7 0
162 231 -462 0
-174 294 -93 0
-125 136 -341 0
-378 -355 94 0
99 -452 82 0
-214 -67 -176 0
261 45 404 0
146 -47 111 0
-15 292 118 0
-97 -200 421 0
121 -227 144 0
103 -31 369 0
-339 157 11 0
307 403 -291 0
90 -201 -80 0
-12 231 377 0
-104 -277 366 0
-375 403 137 0
-415 -457 335 0
93 426 -249 0
-437 77 -473 0
-169 -264 477 0
474 -52 66 0
283 185 110 0
-131 139 209 0
-130 6 -189 0
103 438 430 0
-493 -95 -398 0
-287 -409 -5 0
-466 -196 154 0
-135 344 91 0
-337 372 -240 0
483 -151 462 0
-46 -334 182 0
-135 322 157 0
241 -499 -44 0
240 103 -12 0
66 266 221 0
486 289 72 0
-142 -227 -168 0
-40 -170 -122 0
-448 -458 224 0
-422 -224 272 0
-161 2 -465 0
-131 -270 -442 0
436 333 456 0
219 -430 -57 0
275 437 -281 0
213 232 55 0
325 -133 455 0
-143 142 -212 0
-470 174 395 0
58 301 -142 0
270 -63 376 0
459 203 458 0
18 57 298 0
-482 -326 432 0
-242 -224 252 0
423 -222 335 0
-34 -359 173 0
159 398 -345 0
-487 -286 50 0
-114 24 441 0
-22 -99 268 0
-390 420 255 0
-149 142 -161 0
-326 -273 201 0
-2 67 -272 0
-255 -154 355 0
-367 -493 -326 0
54 -349 94 0
149 166 -254 0
270 382 -120 0
105 -180 423 0
77 470 -410 0
-254 -392 -132 0
407 -91 -316 0
400 75 -269 0
155 -39 141 0
215 -492 -224 0
-224 -72 431 0
481 458 -160 0
-160 24 21 0
-439 -394 269 0
-180 -153 454 0
252 -195 -486 0
305 -359 275 0
-138 52 149 0
-54 489 -469 0
-362 -112 430 0
377 -224 -113 0
235 -404 -483 0
-121 -218 -358 0
-310 -412 -169 0
442 -304 281 0
59 -410 -285 0
96 -341 -329 0
71 222 147 0
-168 -374 455 0
-345 186 -496 0
-439 374 -211 0
-394 420 -191 0
-199 365 -184 0
-164 484 -455 0
-495 -77 64 0
-266 354 8 0
-327 240 275 0
100 -458 -357 0
-264 188 -440 0
181 180 69 0
-497 -181 -366 0
-103 -459 317 0
190 -421 314 0
-259 418 86 0
107 -498 -233 0
-455 -256 408 0
-26 -62 121 0
-146 93 330 0
-42 -176 -191 0
465 56 -487 0
454 89 383 0
455 259 342 0
-114 491 -144 0
220 404 -285 0
410 378 21 0
135 -307 -243 0
-136 -238 20 0
-322 259 275 0
352 217 -417 0
49 -106 -108 0
-274 -287 224 0
-209 441 -215 0
-209 363 204 0
143 -244 -443 0
-363 34 -6 0
409 -39 -258 0
-439 -171 -25 0
229 101 -449 0
-59 -328 28 0
423 2 317 0
235 -330 -470 0
379 259 -418 0
124 357 -279 0
345 249 -370 0
-84 -307 383 0
-119 -488 -293 0
313 -489 -105 0
394 139 -28 0
326 127 -227 0
380 -79 -403 0
80 -207 309 0
-325 462 364 0
125 -15 -43 0
133 -347 138 0
-303 -239 -270 0
-54 -66 -323 0
189 -230 -223 0
29 4 328 0
298 427 -102 0
371 -44 -337 0
-118 -129 -15 0
159 242 124 0
11 -386 -43 0
-499 427 167 0
-7 62 105 0
-281 -211 395 0
223 135 423 0
313 -112 211 0
455 -277 245 0
463 -158 -177 0
-152 -445 -122 0
53 353 244 0
415 84 -97 0
411 -188 -289 0
216 -41 190 0
-31 80 -432 0
125 229 -412 0
387 494 273 0
-495 111 52 0
375 -112 155 0
-26 -429 -99 0
67 -22 290 0
-246 325 15 0
422 -365 -489 0
-382 -194 448 0
-498 -148 -405 0
300 357 -406 0
305 176 117 0
460 433 -51 0
119 -203 37 0
198 -278 304 0
-259 -98 472 0
-50 146 455 0
164 -35 -317 0
418 214 474 0
139 353 53 0
-244 288 449 0
244 -294 408 0
-59 -104 -13 0
459 307 371 0
379 124 351 0
-313 111 -315 0
-147 444 -488 0
23 -16 -216 0
279 -14 -7 0
-199 -299 -436 0
456 247 -44 0
-462 -121 364 0
415 229 -106 0
134 189 -81 0
198 -442 170 0
333 -376 -110 0
-456 -391 -380 0
476 -170 -1 0
-234 -288 66 0
198 -30 347 0
-248 396 206 0
270 10 78 0
-285 -423 -132 0
-48 137 -433 0
391 -131 -257 0
-149 278 -131 0
196 -389 -78 0
417 67 -377 0
-198 19 290 0
357 -245 28 0
321 -187 -148 0
-92 -460 321 0
-166 420 437 0
-493 -177 -25 0
349 -95 -472 0
181 -236 -341 0
-315 -445 353 0
222 -393 61 0
162 -338 10 0
228 -368 -392 0
120 -263 -418 0
212 108 -320 0
-500 212 403 0
352 -43 -488 0
-455 12 396 0
-75 205 376 0
59 353 -460 0
-174 352 269 0
118 48 -412 0
26 -143 312 0
-148 69 292 0
-36 -144 422 0
-462 265 70 0
344 -436 139 0
203 214 143 0
-379 209 -290 0
-157 -338 -110 0
-163 226 -495 0
-220 -434 384 0
-295 -231 -448 0
373 -150 276 0
218 -369 -253 0
104 203 293 0
-152 -386 228 0
-122 -49 4 0
-283 -446 -208 0
-129 -445 277 0
-397 444 95 0
415 322 492 0
-168 -36 -337 0
370 -468 -6 0
-78 402 12 0
-450 177 43 0
-1 -143 372 0
-131 28 -25 0
209 207 164 0
-410 -170 -254 0
33 469 -378 0
451 -201 -269 0
333 48 446 0
-125 378 -334 0
369 -103 80 0
371 109 -59 0
-332 -26 152 0
487 -50 169 0
87 266 -161 0
492 -368 459 0
127 460 432 0
-269 -483 -10 0
-244 73 -495 0
11 -206 -116 0
9 -216 332 0
183 -90 -308 0
-51 -208 -77 0
495 393 -83 0
-301 104 1 0
-6 -432 -476 0
-419 -296 -328 0
65 -89 -471 0
270 -283 412 0
164 -145 100 0
-61 -427 -76 0
88 -244 126 0
-407 -368 271 0
-126 -53 -2 0
-481 -166 296 0
333 -435 75 0
-281 102 -462 0
168 426 53 0
-92 -469 331 0
-327 -465 106 0
-397 -311 15 0
-298 -268 431 0
480 282 -455 0
45 -309 452 0
44 -314 333 0
-332 -415 -32 0
76 168 -63 0
-27 488 -102 0
263 -344 -373 0
-384 134 360 0
36 307 -228 0
-31 457 299 0
179 -194 6 0
-284 35 -215 0
134 -431 384 0
493 -87 -490 0
-496 459 -267 0
-184 77 336 0
-44 -117 -142 0
-115 -326 455 0
-68 -210 132 0
-309 357 304 0
60 143 348 0
-215 -87 -150 0
-322 172 -149 0
-339 -283 11 0
-480 49 -201 0
-233 -95 -396 0
433 97 -19 0
125 177 -120 0
-190 1 256 0
69 370 282 0
60 243 -498 0
58 46 475 0
-167 399 81 0
175 136 -182 0
-387 294 -338 0
466 306 -357 0
-154 488 256 0
-425 -354 339 0
-394 -210 -15 0
-24 -312 -252 0
185 123 -249 0
-278 -304 -160 0
293 -194 16 0
409 353 -171 0
-209 -187 403 0
-224 -306 -332 0
496 -25 -297 0
-63 -23 104 0
210 153 -399 0
-277 -495 159 0
54 -463 -418 0
-103 -169 385 0
-355 192 -16 0
37 400 328 0
183 167 -49 0
-357 -381 12 0
21 16 -231 0
-413 -197 25 0
-464 -352 311 0
134 452 375 0
106 -28 -139 0
364 276 500 0
-368 222 -411 0
283 -438 435 0
-468 -127 -446 0
385 -489 265 0
-288 -138 -136 0
-267 -101 -203 0
196 -206 148 0
228 369 -1 0
-269 -317 -312 0
-311 -441 -345 0
-217 197 -196 0
183 257 224 0
64 -44 -95 0
-102 -23 358 0
-178 26 269 0
-258 71 -330 0
352 304 -235 0
340 497 198 0
32 310 393 0
408 -262 -215 0
337 16 -34 0
-26 -252 303 0
206 -25 -33 0
441 425 88 0
-469 126 273 0
-28 -314 209 0
-10 -167 377 0
367 -124 266 0
39 -355 -129 0
289 -97 78 0
-489 180 233 0
-167 -33 -112 0
-273 217 -256 0
249 371 303 0
-117 50 -425 0
296 -251 364 0
-157 343 7 0
479 -86 -372 0
-36 -107 -215 0
-297 299 132 0
-71 248 377 0
332 150 -128 0
69 258 383 0
277 -319 351 0
34 290 -227 0
-309 -438 -375 0
293 -462 71 0
-291 380 -363 0
394 356 -353 0
276 -18 458 0
249 320 226 0
-5 -58 223 0
393 -311 415 0
-69 -5 -218 0
228 -242 436 0
-420 375 -359 0
94 -371 108 0
272 322 -382 0
251 29 272 0
379 472 -56 0
288 -423 -56 0
279 -407 254 0
-415 -405 -268 0
88 -281 49 0
247 376 -14 0
-403 -373 178 0
111 -147 492 0
-20 -8 395 0
-467 -134 414 0
-456 477 -367 0
-467 445 399 0
-155 148 332 0
209 427 31 0
-487 -331 -4 0
129 302 433 0
414 -271 462 0
-446 136 381 0
-418 -355 2 0
-373 -362 -135 0
55 17 -112 0
-345 450 -30 0
201 -496 -203 0
-111 265 157 0
206 -342 144 0
-365 -154 273 0
-197 -393 55 0
-47 86 -310 0
-105 63 -254 0
240 106 220 0
322 308 -446 0
258 256 -23 0
225 246 308 0
276 149 261 0
158 -413 -60 0
384 251 -167 0
38 -210 108 0
224 -160 -52 0
497 -104 -326 0
-451 42 -367 0
301 -473 117 0
-367 388 -226 0
274 -242 1 0
-322 -15 102 0
398 -173 -484 0
294 -269 -228 0
497 289 168 0
12 201 346 0
-181 -90 -142 0
199 -258 451 0
421 31 -85 0
439 -126 317 0
220 -78 18 0
-439 -298 -97 0
483 323 121 0
-170 -387 425 0
297 -316 -187 0
-450 496 -179 0
-466 -431 -261 0
-162 97 70 0
-178 -367 478 0
55 460 258 0
-81 331 495 0
123 -159 12 0
284 -24 408 0
493 252 276 0
76 -154 -330 0
-282 260 85 0
409 244 406 0
-312 266 309 0
-170 231 368 0
496 353 366 0
412 139 -358 0
23 335 -42 0
211 350 -99 0
-469 -358 399 0
185 266 389 0
358 346 108 0
24 311 33 0
5 -475 -368 0
-157 429 -278 0
-331 161 144 0
-133 -351 496 0
146 474 -366 0
410 -308 -96 0
-263 -97 -18 0
-394 -216 -164 0
-214 -164 -131 0
-92 6 -244 0
-137 101 -178 0
-487 -101 112 0
256 -97 -372 0
370 -476 -46 0
-384 178 402 0
-89 -420 -436 0
54 30 -59 0
-326 -33 461 0
-437 249 353 0
-330 -165 -315 0
25 106 -143 0
-444 402 -500 0
132 305 11 0
-69 459 14 0
-215 10 -283 0
349 186 291 0
-409 -86 -439 0
-341 -254 -410 0
-132 186 -195 0
479 -144 -195 0
52 21 -355 0
-203 -91 272 0
438 -162 -16 0
381 23 -253 0
-352 238 -369 0
-435 82 442 0
158 339 -356 0
-221 -243 -335 0
400 -82 477 0
-344 -44 246 0
92 394 71 0
390 240 264 0
-417 31 -230 0
-431 56 359 0
68 46 -41 0
217 -331 -191 0
182 54 296 0
-87 152 95 0
-296 -157 166 0
-211 -375 207 0
4 -420 -380 0
-36 -39 -347 0
19 193 369 0
309 -171 19 0
384 344 9 0
171 354 311 0
278 -213 489 0
-499 -10 19 0
-78 -467 -120 0
441 -253 -371 0
217 -185 -117 0
265 -64 -131 0
-27 -296 413 0
262 -11 -88 0
-138 -32 46 0
-465 -480 122 0
-192 187 200 0
104 -336 412 0
-443 -379 -396 0
-314 -334 -109 0
-114 -177 -227 0
-425 -17 456 0
-132 -438 -338 0
396 -495 213 0
324 87 -131 0
127 336 128 0
-370 17 -160 0
-465 -179 -33 0
-239 321 428 0
69 -111 -180 0
147 -412 353 0
321 90 212 0
110 -341 -66 0
220 75 -237 0
-142 -197 224 0
-270 -369 -395 0
454 -435 89 0
-26 -476 -463 0
-207 -4 153 0
375 -368 8 0
-500 99 -148 0
246 -487 -354 0
-101 227 -119 0
187 148 -339 0
114 482 323 0
85 39 -63 0
337 -9 -146 0
450 367 312 0
115 231 118 0
59 -308 -13 0
-300 -313 244 0
-121 -176 -104 0
371 -206 -426 0
-379 237 181 0
216 -123 -466 0
-441 463 -138 0
-226 123 133 0
-481 -231 -464 0
-479 -81 -268 0
-185 41 -338 0
202 440 154 0
-336 -449 6 0
348 111 288 0
-110 -408 475 0
84 214 419 0
-493 134 -104 0
451 -416 -427 0
200 471 447 0
-276 -227 456 0
-28 -107 -475 0
86 142 285 0
31 -344 61 0
400 -185 265 0
100 -460 34 0
124 493 -364 0
219 233 -402 0
-384 136 56 0
-117 376 -214 0
417 162 391 0
233 -237 166 0
-167 -296 130 0
255 -339 210 0
40 488 -261 0
432 262 450 0
305 42 483 0
348 451 -474 0
444 446 281 0
18 350 15 0
-13 -385 -163 0
-298 92 57 0
-179 84 -455 0
425 -20 -237 0
332 -199 486 0
400 -344 100 0
79 106 438 0
207 -77 475 0
299 -408 415 0
-12 252 132 0
396 174 -68 0
464 -478 -45 0
212 -205 53 0
-377 -389 395 0
-466 -68 462 0
175 72 73 0
-494 -16 486 0
-66 423 -436 0
-115 278 430 0
80 -22 -425 0
-483 -149 445 0
-196 -105 249 0
-307 431 412 0
349 -442 417 0
495 -262 -233 0
17 294 -178 0
-350 235 466 0
-278 -225 -371 0
-204 408 438 0
261 322 -59 0
149 223 -308 0
-480 -376 383 0
219 -414 -95 0
371 -191 40 0
-346 -461 -429 0
-358 219 -329 0
-474 49 -251 0
-277 -396 -439 0
107 97 -225 0
331 -400 316 0
450 -245 -59 0
225 69 448 0
163 -472 283 0
-342 75 -262 0
-111 309 -319 0
71 37 436 0
352 207 -66 0
-226 142 -425 0
-213 -247 -351 0
-146 443 -238 0
148 205 193 0
-404 88 96 0
400 -401 396 0
281 -198 -226 0
-63 -185 353 0
86 241 435 0
-310 -474 153 0
-293 -193 166 0
-263 115 -50 0
-117 -481 48 0
-371 -21 118 0
273 381 -267 0
-391 332 212 0
435 -60 -136 0
-206 383 -350 0
-83 212 -205 0
-300 36 316 0
97 -468 -219 0
-311 -16 -48 0
398 439 -205 0
-286 178 -437 0
-169 9 -124 0
-292 164 461 0
360 -318 172 0
286 -294 195 0
75 309 491 0
-391 -108 22 0
31 -314 -253 0
429 212 -490 0
-456 28 -305 0
-124 76 15 0
-138 -203 -12 0
190 447 470 0
-273 -296 261 0
-182 -72 227 0
-371 201 -38 0
279 30 147 0
355 328 50 0
409 394 113 0
-364 -112 38 0
-246 356 -262 0
336 -155 -364 0
-469 -43 -488 0
-160 -106 -426 0
40 -417 156 0
190 390 -434 0
43 453 276 0
183 -332 355 0
178 336 -144 0
-467 -472 353 0
-66 210 460 0
180 104 -2 0
336 438 486 0
185 -9 -133 0
50 -252 497 0
-235 -34 -424 0
-345 -169 -165 0
402 -38 -254 0
-427 84 286 0
-205 429 -177 0
256 -171 -13 0
-269 -324 -89 0
-472 222 -460 0
-292 -195 -384 0
-39 -16 -380 0
-229 -127 -3 0
159 -423 320 0
-241 -271 307 0
51 383 -376 0
281 -483 -499 0
461 346 -132 0
131 -144 -110 0
-295 -399 -412 0
9 -479 412 0
-443 3 300 0
132 20 -244 0
249 147 -344 0
271 -351 169 0
-308 -432 166 0
-389 -196 313 0
431 279 -108 0
-360 68 -380 0
-122 -495 100 0
-471 409 445 0
-450 -232 258 0
476 -379 311 0
453 409 -274 0
-466 -394 -234 0
426 -385 449 0
-475 -447 178 0
52 -153 415 0
193 183 474 0
-48 -3 -97 0
-251 224 -330 0
-61 -483 -127 0
495 -388 -493 0
125 -434 -154 0
282 181 -499 0
-448 74 125 0
460 -392 -399 0
428 19 -330 0
-307 327 -169 0
-270 -341 434 0
-224 -469 290 0
497 -483 -433 0
278 404 -208 0
-444 17 297 0
-170 -135 211 0
-155 -373 -318 0
473 -238 465 0
341 419 481 0
-240 359 -374 0
-287 -193 260 0
-404 4 -491 0
-430 -202 -447 0
305 -117 -379 0
-348 332 229 0
-149 305 -351 0
437 -7 -105 0
324 319 472 0
496 180 313 0
-359 -500 -129 0
-156 362 -425 0
193 120 162 0
210 295 204 0
294 -335 -111 0
-258 82 -485 0
-405 -498 422 0
457 -449 -394 0
343 -480 9 0
91 -360 -202 0
-219 321 28 0
179 -61 -269 0
-141 -259 198 0
417 -169 -223 0
-251 269 24 0
476 350 156 0
283 -45 361 0
-383 168 -180 0
-169 54 -323 0
10 150 481 0
192 448 -41 0
336 -168 -220 0
-348 367 229 0
-357 -308 190 0
46 485 -260 0
-452 275 212 0
436 5 481 0
-387 156 -166 0
247 477 12 0
-456 -468 42 0
-152 -48 207 0
27 5 -277 0
169 28 411 0
-146 459 428 0
318 -311 -448 0
-348 92 365 0
116 -401 -225 0
-261 -480 -76 0
193 210 19 0
-53 199 383 0
447 205 492 0
-193 296 -490 0
136 392 -94 0
245 263 -438 0
394 -368 -448 0
-92 -61 397 0
190 176 -162 0
-27 -89 413 0
-403 246 497 0
-299 -111 -170 0
32 68 110 0
265 336 -440 0
19 20 148 0
249 -356 338 0
299 -466 -386 0
-351 447 245 0
-416 226 -284 0
119 -180 -101 0
-465 -492 277 0
-453 -396 188 0
-176 113 -259 0
493 339 245 0
418 270 -64 0
494 77 -423 0
-278 479 -193 0
342 -290 -370 0
209 -100 297 0
-39 -392 -48 0
179 42 -381 0
-69 -496 381 0
-214 -215 488 0
75 -498 381 0
-210 262 390 0
-144 405 -294 0
192 480 -320 0
415 -257 9 0
-359 -159 -49 0
-58 335 -490 0
40 456 448 0
-136 119 -58 0
-451 -77 208 0
-123 -378 -159 0
-2 370 -16 0
-140 413 -324 0
-365 -356 -351 0
170 -286 -304 0
-50 428 -342 0
213 -140 -233 0
-30 -339 -437 0
-9 459 -149 0
52 65 177 0
-492 -328 -234 0
-188 480 -331 0
-176 357 -379 0
-33 482 -447 0
37 112 31 0
-261 -323 -475 0
-463 -310 -189 0
-441 -372 322 0
382 63 -72 0
427 -368 -279 0
-242 307 396 0
-106 172 -131 0
-97 -35 -266 0
-354 6 -455 0
-30 -115 80 0
418 -453 -350 0
46 -23 -219 0
92 365 196 0
189 268 37 0
9 37 240 0
-426 -418 17 0
-129 -457 420 0
-196 379 -334 0
-221 307 -468 0
-224 214 476 0
-88 147 -107 0
-47 -70 -323 0
306 394 -120 0
70 420 -208 0
28 2 -457 0
-212 321 360 0
165 273 -205 0
179 -262 117 0
-173 280 -332 0
-142 492 214 0
-486 -464 -197 0
-88 59 -497 0
183 163 -83 0
-88 145 -123 0
-102 40 474 0
264 384 238 0
274 100 -164 0
1 -338 -117 0
-287 -56 256 0
9 -381 -415 0
-211 261 -56 0
43 254 447 0
-403 141 75 0
97 151 -197 0
-245 115 303 0
403 194 127 0
191 -259 236 0
345 116 444 0
-449 -421 266 0
205 -380 -461 0
-56 -439 -275 0
-40 -172 152 0
147 201 455 0
69 -341 -481 0
22 423 122 0
-314 -457 280 0
-95 451 -48 0
122 41 -319 0
361 -136 62 0
219 -326 466 0
322 -396 407 0
428 -324 129 0
-117 -299 284 0
-325 214 176 0
-280 211 278 0
293 -69 -159 0
-291 -397 426 0
192 13 51 0
76 -447 74 0
279 360 -101 0
452 -291 417 0
35 397 260 0
-65 318 284 0
102 -459 420 0
-361 -217 367 0
-153 -129 -257 0
-131 242 400 0
-55 330 341 0
141 -397 233 0
119 416 -269 0
-38 221 228 0
-213 413 -288 0
245 140 354 0
-410 -230 173 0
337 389 272 0
174 -178 120 0
180 -109 95 0
256 -228 377 0
89 290 311 0
11 -45 -154 0
168 406 144 0
151 -448 -227 0
-287 386 286 0
-345 93 -500 0
388 -363 -469 0
226 108 321 0
-384 -156 185 0
-77 -491 341 0
-391 -148 -192 0
162 -463 489 0
43 -267 -442 0
247 182 -428 0
452 -446 -8 0
-304 449 380 0
188 307 -134 0
362 428 -279 0
76 -103 496 0
18 -68 164 0
-81 440 -313 0
43 166 -74 0
-453 295 -185 0
-492 356 -341 0
27 -369 -320 0
259 6 366 0
240 493 -459 0
28 224 387 0
178 -273 -163 0
138 412 9 0
190 379 13 0
-331 292 -254 0
124 -20 -226 0
226 276 93 0
-366 497 19 0
-285 -26 -472 0
-488 35 406 0
-202 -389 263 0
266 -38 447 0
-282 -303 -451 0
-328 155 -128 0
114 432 99 0
309 -316 -92 0
233 320 -206 0
-396 197 -491 0
-200 209 -254 0
-393 342 482 0
35 266 -84 0
373 37 -376 0
234 -328 116 0
339 -39 101 0
452 -280 400 0
274 379 -281 0
119 -485 152 0
-455 -272 210 0
402 242 261 0
2 46 231 0
-404 -230 -226 0
438 -353 -56 0
-304 70 384 0
-215 12 -20 0
26 -330 -348 0
240 -304 468 0
-17 455 -410 0
455 -166 471 0
-38 28 -465 0
281 438 304 0
402 491 -12 0
-302 416 -251 0
-231 -70 404 0
59 -29 151 0
-87 -128 483 0
179 -41 82 0
-474 -92 78 0
104 111 432 0
-73 324 -351 0
386 -440 191 0
139 146 -103 0
160 119 371 0
-120 180 313 0
104 474 21 0
-291 51 90 0
-173 47 -234 0
-383 32 390 0
-486 383 251 0
-396 77 -147 0
26 -433 362 0
14 -29 414 0
-482 -425 -335 0
473 -256 277 0
-156 159 -434 0
-191 461 19 0
-254 283 -81 0
-415 294 -298 0
498 89 -400 0
80 -436 393 0
245 46 79 0
42 -294 -444 0
-3 -69 -336 0
417 -137 -337 0
134 -373 -344 0
-418 -397 -410 0
319 -447 -269 0
335 194 282 0
-104 239 183 0
236 -267 11 0
451 156 -198 0
-315 -268 -180 0
-283 -284 489 0
275 498 -102 0
-122 44 -309 0
188 -114 284 0
146 157 383 0
-74 135 -253 0
-307 -321 2 0
198 460 -271 0
408 -241 391 0
-475 -38 490 0
-268 -441 86 0
438 141 482 0
134 320 -331 0
432 481 -427 0
301 65 143 0
-139 447 43 0
86 -384 64 0
147 422 -64 0
277 338 -481 0
-21 237 -108 0
187 254 -273 0
79 -95 303 0
-129 -3 -163 0
-365 -154 -82 0
444 -181 269 0
-106 -124 331 0
252 31 36 0
-88 -324 -331 0
450 439 -301 0
-90 -118 55 0
-170 -216 -79 0
-327 -449 -26 0
361 490 170 0
-253 -60 -147 0
218 -485 227 0
-47 -428 -142 0
-85 -472 -368 0
-63 429 329 0
358 139 -117 0
-19 -300 -15 0
-249 421 459 0
-308 -160 -349 0
122 -353 -386 0
-442 -409 -102 0
189 328 240 0
-432 -43 -75 0
455 431 -441 0
-336 328 117 0
152 -319 6 0
-167 336 314 0
-182 477 -335 0
320 35 87 0
336 372 124 0
119 -436 -132 0
115 -407 30 0
246 -473 -72 0
-76 249 460 0
306 -352 163 0
107 -111 437 0
112 293 -362 0
440 -77 140 0
-190 182 -35 0
464 485 126 0
-336 168 361 0
26 1 -34 0
-286 -313 -470 0
425 -102 -402 0
-89 105 -430 0
357 -148 -197 0
302 -164 313 0
64 207 -69 0
-299 -328 166 0
-425 21 329 0
62 -85 133 0
241 -278 378 0
495 -267 227 0
-454 -142 -460 0
-89 -232 -49 0
304 -469 150 0
-252 186 140 0
86 2 238 0
-484 -400 329 0
-459 -248 187 0
-466 -267 -482 0
302 319 354 0
331 307 -283 0
449 -190 19 0
86 -409 465 0
369 73 -92 0
257 449 112 0
498 -322 -488 0
-282 -228 202 0
168 -156 322 0
67 439 138 0
-396 -224 93 0
62 487 -481 0
354 359 327 0
-438 412 -338 0
151 449 184 0
259 -342 -60 0
-354 444 -414 0
331 -492 373 0
299 42 -464 0
-103 206 67 0
319 -372 347 0
-30 293 -147 0
385 174 484 0
-100 -197 -218 0
-134 201 113 0
362 45 313 0
47 433 122 0
225 211 431 0
125 38 -141 0
35 -375 -219 0
-181 -81 -206 0
238 -135 -119 0
-366 133 -36 0
324 425 387 0
279 322 -409 0
191 -275 -395 0
14 -215 32 0
-277 -284 321 0
-428 199 -86 0
246 -249 -408 0
344 -304 246 0
483 -368 124 0
425 422 409 0
55 -93 -426 0
337 318 -497 0
-227 -179 -172 0
-36 -87 182 0
-99 495 153 0
75 479 376 0
-22 393 108 0
-198 -226 -405 0
462 184 383 0
401 134 -183 0
-416 482 166 0
-441 -253 290 0
111 -451 -391 0
121 127 -478 0
-143 112 207 0
74 -65 309 0
345 24 121 0
-262 -97 -342 0
-234 -248 -390 0
482 -150 -403 0
338 442 -433 0
-493 -448 254 0
9 -488 -383 0
-380 -371 412 0
-319 -65 172 0
-377 -409 -126 0
-459 -260 223 0
372 -4 377 0
-477 -455 330 0
188 -43 450 0
106 5 -42 0
205 266 -82 0
11 92 167 0
434 -125 276 0
380 95 100 0
262 -38 -116 0
478 189 -497 0
313 -78 -185 0
-259 -388 332 0
47 294 -449 0
-31 373 229 0
-492 435 156 0
413 -416 395 0
-356 -416 -64 0
237 497 -379 0
498 486 -220 0
-166 199 114 0
-375 -469 -133 0
-109 200 -442 0
158 7 441 0
464 -430 167 0
103 206 -185 0
76 451 8 0
-382 -308 487 0
187 266 226 0
-266 394 350 0
-189 -201 -429 0
474 375 -260 0
339 -168 488 0
202 356 -481 0
-126 -115 413 0
412 111 -480 0
100 -437 -117 0
202 188 -306 0
-78 238 -190 0
-2 -244 -52 0
252 -105 496 0
423 -497 -107 0
30 -384 -401 0
491 -141 -43 0
183 -276 -456 0
260 72 -256 0
368 -321 358 0
-172 -410 105 0
322 -103 76 0
-470 92 279 0
18 -426 97 0
-31 -447 -259 0
428 -184 42 0
160 6 225 0
-140 210 252 0
-65 95 364 0
-43 109 -48 0
-145 91 -390 0
-405 443 410 0
-408 -401 -120 0
268 295 -448 0
-109 -169 -79 0
67 333 13 0
414 72 126 0
-243 357 -467 0
-312 440 177 0
-357 -37 -12 0
145 484 -353 0
76 -3 337 0
-261 239 10 0
-117 58 -366 0
249 58 -471 0
-93 -492 201 0
290 -223 -305 0
-377 442 -241 0
-465 308 -403 0
79 -178 -446 0
-193 -213 362 0
-416 -266 124 0
-438 -392 -83 0
345 -135 250 0
102 93 -263 0
438 -493 -258 0
-407 -106 11 0
-205 28 465 0
-194 481 66 0
69 -187 -326 0
-187 90 -113 0
-123 365 89 0
-26 -145 -84 0
399 96 -7 0
93 175 75 0
86 31 -343 0
351 448 -228 0
161 -288 6 0
-217 -491 257 0
-378 -343 -201 0
-320 -137 -71 0
141 454 174 0
325 -195 -399 0
-40 54 356 0
205 381 -303 0
-481 -492 -485 0
-49 -421 -216 0
69 -439 471 0
282 242 464 0
-395 -486 -94 0
-450 -400 445 0
391 -60 384 0
-382 -15 -266 0
363 -241 -201 0
390 -388 -374 0
-119 30 312 0
-221 -10 -146 0
264 -110 354 0
454 -215 293 0
156 -436 396 0
-195 423 -22 0
-23 299 164 0
-176 444 29 0
232 42 246 0
-344 -255 -351 0
362 94 -363 0
-115 27 499 0
-131 -118 37 0
-77 33 -212 0
86 -176 -78 0
-171 90 372 0
243 -436 319 0
-395 208 -91 0
-75 91 324 0
167 -240 -425 0
-52 -172 291 0
-63 31 363 0
352 20 217 0
459 -474 -480 0
-179 268 85 0
208 487 -59 0
474 -376 73 0
236 434 234 0
-132 87 -181 0
361 21 245 0
-11 -325 -295 0
429 79 -254 0
332 248 200 0
-411 68 476 0
-35 388 -134 0
150 -143 81 0
-180 -428 408 0
14 92 -235 0
-286 232 446 0
130 191 -158 0
-377 -446 364 0
-286 152 -250 0
140 178 -326 0
66 339 70 0
-488 -423 53 0
150 128 -463 0
-103 452 205 0
362 378 219 0
113 58 339 0
-351 21 34 0
42 -383 191 0
-250 -481 -132 0
-209 -304 69 0
140 -374 -419 0
256 -204 447 0
-127 -500 -143 0
69 171 -196 0
-119 -394 -465 0
250 -234 95 0
303 304 341 0
182 187 -179 0
-170 -168 218 0
305 -175 -412 0
-470 -19 263 0
-3 -444 -294 0
350 -115 199 0
448 470 -215 0
203 447 368 0
463 -179 -324 0
-39 -494 -449 0
442 34 -109 0
247 -309 -386 0
-14 215 -91 0
199 -171 -243 0
-231 -42 375 0
462 -388 243 0
208 299 329 0
414 289 482 0
-181 27 -472 0
-355 482 168 0
-60 313 -252 0
182 98 326 0
495 367 -90 0
-392 169 -320 0
83 -263 163 0
-82 -360 -72 0
-100 215 444 0
293 -15 177 0
98 491 261 0
-401 226 -428 0
-307 368 338 0
90 445 180 0
-20 -228 422 0
-394 192 -61 0
60 193 -436 0
-30 482 180 0
354 -174 33 0
92 -179 69 0
-469 377 431 0
447 -258 -12 0
-188 494 433 0
379 278 -30 0
30 -326 -448 0
122 -471 -472 0
-384 319 -123 0
-304 -279 24 0
-431 -396 -278 0
178 -490 330 0
-265 -153 119 0
-414 -348 118 0
-433 240 -122 0
441 -183 -453 0
276 123 -215 0
9 259 118 0
292 352 138 0
-193 -469 220 0
-67 -362 -50 0
-30 170 -59 0
496 -281 -9 0
-485 238 -16 0
47 -461 -185 0
-64 186 -222 0
171 -387 169 0
188 48 -152 0
408 173 61 0
-279 142 496 0
-333 -464 309 0
-326 -125 -333 0
-334 -152 -398 0
484 -349 -343 0
-99 192 -73 0
-23 -381 -331 0
-269 129 104 0
73 -450 238 0
-18 -327 86 0
344 -166 250 0
438 -156 52 0
-462 -134 -150 0
203 -272 -302 0
-487 445 -19 0
-167 262 190 0
-254 102 -359 0
-53 318 -402 0
23 273 185 0
237 -334 -318 0
-361 -477 357 0
-49 359 275 0
-331 -163 379 0
82 -184 467 0
5 234 113 0
76 -278 -286 0
-330 -469 161 0
-347 229 431 0
-396 -193 284 0
75 -224 -197 0
260 343 -309 0
-374 -329 -46 0
-141 -432 -388 0
115 287 -34 0
300 -332 23 0
-201 -320 -452 0
384 120 224 0
202 335 -86 0
302 -442 334 0
-290 -212 -27 0
483 491 -40 0
422 -156 -86 0
-400 -401 -59 0
377 -288 -215 0
164 -29 -61 0
-313 -107 55 0
74 115 -213 0
115 38 488 0
-77 -217 -156 0
242 233 169 0
357 -374 -158 0
3 313 368 0
-20 -212 15 0
-379 -279 -442 0
-81 -331 -122 0
134 246 -481 0
358 160 104 0
-310 493 262 0
-470 -145 334 0
198 132 306 0
-15 341 -408 0
335 4 -489 0
433 -481 158 0
-174 -409 -373 0
225 -125 441 0
-378 -348 -314 0
355 318 -348 0
-108 -240 -277 0
420 -317 -144 0
223 -338 -276 0
-408 -95 -482 0
173 388 45 0
-260 -460 -429 0
408 450 216 0
-466 446 381 0
58 -103 491 0
-477 -254 -469 0
45 102 -404 0
-140 -12 -498 0
59 373 -281 0
-497 449 49 0
332 343 76 0
-89 67 -108 0
-64 -341 211 0
156 -463 51 0
444 -125 -94 0
-223 -351 311 0
-330 -237 242 0
-304 -330 162 0
252 -165 367 0
412 -223 -140 0
-211 -125 -50 0
-249 -256 -271 0
-422 -310 -116 0
355 -168 -213 0
418 -227 -499 0
234 83 -435 0
-193 -33 39 0
371 -165 -313 0
-480 206 -158 0
251 -414 -296 0
309 445 -99 0
475 -129 -132 0
397 415 -318 0
26 373 -60 0
-354 187 30 0
-182 373 -237 0
420 329 222 0
115 -36 -436 0
-138 147 201 0
204 -342 -218 0
143 93 473 0
-368 475 369 0
281 -29 -498 0
491 231 -111 0
-24 408 198 0
308 228 -321 0
-120 164 -285 0
115 -375 58 0
265 179 -259 0
-168 -467 -223 0
199 244 249 0
248 -275 223 0
-460 -134 -79 0
-190 176 -138 0
303 131 35 0
426 -406 148 0
48 443 -258 0
264 146 -428 0
75 -272 417 0
-253 272 -105 0
495 257 374 0
122 368 -132 0
473 -388 -124 0
-294 165 -8 0
-423 -119 452 0
-282 67 -156 0
321 364 -362 0
433 -393 93 0
-8 242 300 0
85 -380 135 0
345 -43 -330 0
-145 -358 -345 0
-363 -270 -176 0
-197 254 -50 0
-201 220 231 0
33 -338 -57 0
-129 441 231 0
442 -38 -223 0
-317 -493 254 0
-97 375 222 0
318 -150 -343 0
23 -330 -198 0
-368 444 -101 0
-472 -4 -127 0
-387 228 84 0
183 -342 -185 0
-299 475 -474 0
-26 -40 -5 0
427 -282 -309 0
-403 431 -333 0
-208 490 -310 0
-87 -492 143 0
-121 -326 -30 0
490 250 60 0
-358 335 -374 0
369 480 -316 0
-325 195 173 0
93 -326 -177 0
-247 -231 -295 0
32 56 483 0
-8 83 281 0
-76 -64 -317 0
86 -37 -351 0
-268 337 82 0
-276 -214 251 0
268 287 -168 0
-246 -286 -275 0
-12 102 44 0
-467 275 -313 0
315 372 -228 0
-497 -311 -101 0
236 273 417 0
82 357 -451 0
-195 -236 -344 0
354 473 -442 0
224 -364 -399 0
-199 -211 -114 0
-255 53 -462 0
460 -284 -203 0
-206 -482 -447 0
-366 -495 485 0
102 -200 -361 0
-147 -189 -319 0
354 367 -150 0
-54 9 -465 0
50 -79 -339 0
-84 -326 183 0
-483 -349 242 0
28 315 -235 0
282 218 141 0
-293 -132 -114 0
-496 -283 110 0
-341 -310 -423 0
-475 -489 461 0
-199 -474 447 0
11 -420 382 0
-4 -183 -476 0
69 229 137 0
425 -313 -334 0
-31 -129 417 0
-434 -224 -354 0
-322 150 390 0
86 89 -261 0
-439 273 -49 0
201 -393 -117 0
-102 222 62 0
-237 283 156 0
324 -381 263 0
-452 -170 -305 0
-29 369 249 0
242 167 -182 0
297 -174 134 0
131 -77 258 0
340 -63 -217 0
-169 -270 357 0
-496 -75 -157 0
110 287 -424 0
484 137 -33 0
-28 140 141 0
468 -489 429 0
-54 72 -324 0
-309 69 49 0
-357 -139 181 0
293 195 225 0
62 -270 383 0
-119 -237 -277 0
78 -237 468 0
23 316 76 0
305 -249 -381 0
488 -408 246 0
442 -241 91 0
441 -38 162 0
281 -444 -16 0
268 425 -220 0
70 220 320 0
-419 476 -488 0
-306 256 291 0
341 -64 -302 0
470 263 -29 0
-401 -249 -324 0
-427 188 396 0
253 498 -27 0
106 -219 320 0
223 -229 313 0
-368 -339 -158 0
383 430 336 0
-422 -132 -1 0
189 -50 389 0
73 -93 -161 0
92 421 477 0
-164 -121 -118 0
227 22 -68 0
-236 -402 -122 0
210 149 -409 0
-432 -292 -412 0
39 -457 -484 0
-161 -469 82 0
46 42 236 0
478 -2 -419 0
484 -275 66 0
-478 32 382 0
439 449 -500 0
-300 -451 242 0
248 -253 407 0
-254 141 71 0
68 151 -42 0
-96 -91 -37 0
-428 464 -109 0
48 245 241 0
137 -41 287 0
-94 205 419 0
-256 23 -163 0
465 96 -418 0
194 368 271 0
-183 108 -51 0
-367 260 -212 0
36 111 -42 0
-282 353 122 0
272 -29 105 0
-471 -499 -47 0
289 -45 254 0
167 224 -20 0
-290 -345 -19 0
449 415 -202 0
48 157 370 0
-175 -65 98 0
325 178 -223 0
66 -230 -238 0
-133 -377 307 0
-218 452 25 0
-339 244 -185 0
-182 -265 176 0
-296 281 398 0
-5 -424 -37 0
-364 -269 236 0
110 -414 241 0
