p cnf 500 2225
387 -112 186 0
-93 442 25 0
-271 -492 358 0
263 -27 350 0
-74 -463 451 0
469 225 23 0
405 -292 -210 0
-316 -231 -215 0
-254 -39 430 0
-446 317 -287 0
-3 -463 -101 0
424 237 173 0
-379 -316 41 0
129 208 -364 0
357 -437 -387 0
-405 140 229 0
224 -315 99 0
258 -168 -498 0
-16 55 334 0
-172 265 -49 0
-421 -205 -234 0
165 -372 -156 0
335 -187 -360 0
-387 -455 432 0
62 469 180 0
-133 232 356 0
109 -56 23 0
-82 -41 236 0
-427 -499 139 0
-45 -183 78 0
491 -468 -66 0
-370 -334 140 0
42 18 -439 0
189 -124 -287 0
257 117 182 0
439 -191 383 0
191 15 -315 0
362 193 -26 0
100 -343 -57 0
-75 -408 -473 0
173 76 -180 0
65 -344 192 0
-450 309 -460 0
61 69 -397 0
443 -208 258 0
-170 -179 262 0
-254 306 285 0
233 -40 10 0
188 354 -172 0
-223 -3 -297 0
-241 -262 488 0
-146 396 100 0
167 -23 -114 0
310 36 445 0
59 -123 315 0
-214 -255 -127 0
15 -401 -31 0
433 -490 369 0
-308 201 465 0
328 492 -107 0
459 -366 -101 0
102 -75 429 0
-409 -64 25 0
-313 -8 -55 0
128 -497 -59 0
148 -237 246 0
-388 -32 203 0
319 186 29 0
238 -449 -481 0
77 157 121 0
320 260 113 0
76 72 -391 0
-97 372 -272 0
-34 -205 193 0
-231 -156 146 0
-84 339 -228 0
261 -136 132 0
336 -96 145 0
-4 -32 13 0
165 -441 290 0
65 -344 13 0
415 -361 -290 0
105 119 439 0
-333 -74 -400 0
253 464 439 0
221 -116 -454 0
200 319 152 0
6 -126 -121 0
-356 428 124 0
32 294 314 0
269 245 -340 0
262 -368 -134 0
-377 462 338 0
493 -254 -58 0
455 -152 200 0
408 -159 -391 0
-123 186 -254 0
343 -32 83 0
150 -153 461 0
148 96 472 0
74 22 -51 0
146 359 166 0
99 -133 25 0
112 -91 494 0
400 -357 -327 0
139 -475 -309 0
235 -239 -279 0
107 173 486 0
-69 37 30 0
482 -191 -156 0
111 5 -460 0
-289 414 468 0
331 -327 -336 0
-226 174 50 0
296 11 -147 0
-209 -87 227 0
259 -129 296 0
-278 -213 326 0
-416 365 11 0
34 -231 -56 0
-415 -374 68 0
147 80 -300 0
38 58 -322 0
178 62 -190 0
79 -370 158 0
343 -110 257 0
-487 423 161 0
-257 -159 -25 0
494 195 -358 0
-325 114 -126 0
385 426 -446 0
-219 -255 -209 0
-323 -53 -332 0
236 -3 170 0
-499 130 227 0
-344 262 317 0
132 -195 328 0
-329 -168 -459 0
422 385 181 0
56 464 -172 0
458 466 335 0
-360 228 420 0
-464 268 36 0
-170 270 338 0
-6 -497 -120 0
133 -56 380 0
-36 -378 6 0
293 25 -408 0
460 -171 367 0
-121 -17 -408 0
-415 439 499 0
-50 -350 -195 0
-433 14 391 0
-265 -10 -4 0
500 -217 -466 0
100 35 -261 0
-259 77 -362 0
-343 19 257 0
-477 -259 265 0
104 -84 498 0
492 -221 482 0
271 -193 -47 0
-448 -335 243 0
-109 -473 164 0
396 -149 -172 0
-227 -155 97 0
-103 -100 451 0
422 -47 -364 0
-232 11 -57 0
123 413 -16 0
-14 -215 250 0
138 -1 90 0
-309 -113 -155 0
87 165 -354 0
-32 75 262 0
-278 17 -451 0
25 -302 -269 0
-420 -424 -394 0
415 -292 137 0
461 -316 -20 0
67 -68 273 0
120 489 -447 0
-14 304 29 0
359 -306 366 0
299 499 418 0
207 -361 -253 0
54 83 -446 0
256 321 266 0
69 -71 111 0
302 -328 -142 0
36 437 160 0
84 360 -151 0
-215 -432 -283 0
-31 -479 357 0
255 -87 176 0
58 -496 -56 0
-105 -123 -204 0
444 199 -112 0
-467 -359 24 0
29 214 466 0
-420 301 -78 0
402 82 -131 0
499 -235 -26 0
-13 -425 -338 0
-467 215 424 0
-354 -38 297 0
347 156 178 0
-427 43 -339 0
409 -257 88 0
284 55 257 0
-329 163 -256 0
463 -222 360 0
21 475 -262 0
297 -3 404 0
374 330 -315 0
324 500 -173 0
173 -29 281 0
493 -482 416 0
-473 25 404 0
-425 -25 103 0
-363 -349 -304 0
-362 105 171 0
377 -113 -183 0
-428 -53 352 0
-186 5 414 0
-224 -389 487 0
-224 376 430 0
-456 -190 -331 0
-376 240 31 0
50 -57 -294 0
204 -477 -156 0
-66 484 -81 0
-59 -426 283 0
-186 -277 65 0
251 -250 -291 0
-102 -470 -353 0
-277 -137 199 0
-201 -131 -134 0
-400 -461 -422 0
-167 -271 366 0
-209 416 413 0
-316 354 -133 0
-58 -493 337 0
-199 -298 -363 0
76 54 46 0
486 -61 -231 0
-25 160 -301 0
-65 131 -136 0
412 276 466 0
-279 -170 168 0
128 436 -177 0
223 -187 53 0
-225 285 -83 0
-425 178 354 0
330 -213 -182 0
458 -421 488 0
266 489 274 0
-485 -167 -287 0
467 -233 290 0
-60 165 374 0
-263 203 -2 0
-477 200 493 0
92 -488 -145 0
137 51 -29 0
104 -303 301 0
-416 -371 174 0
-241 322 302 0
102 264 -26 0
213 -2 -73 0
491 -43 -366 0
420 284 357 0
-188 -384 421 0
108 -480 290 0
335 -291 -59 0
-11 -124 165 0
-157 246 124 0
-320 384 -422 0
-295 -168 451 0
-261 334 -20 0
-174 -334 -125 0
-417 241 -149 0
114 -183 -490 0
411 -188 -360 0
-435 405 368 0
347 -229 357 0
300 44 83 0
157 13 323 0
-366 441 61 0
404 477 -347 0
415 -102 -408 0
-224 212 277 0
159 -249 -397 0
-94 125 -477 0
220 -109 -205 0
128 495 -77 0
151 -15 -196 0
-345 -442 -228 0
452 -114 -258 0
306 20 61 0
-381 78 7 0
64 18 -170 0
-214 209 291 0
-65 -84 490 0
201 -244 -117 0
-77 431 345 0
437 11 -41 0
-366 407 109 0
123 298 -213 0
-72 -500 476 0
-43 -142 329 0
131 138 -352 0
-186 -127 427 0
423 160 -226 0
-142 -372 4 0
469 -296 360 0
-15 -150 -12 0
485 -243 -23 0
-396 -160 244 0
73 406 478 0
228 135 480 0
-409 -174 118 0
292 -458 318 0
-224 115 229 0
-81 -291 -339 0
-289 349 -106 0
-89 -174 302 0
-148 -475 -17 0
204 496 -177 0
481 452 341 0
-396 -447 -414 0
-306 246 41 0
343 154 487 0
98 -172 75 0
229 291 301 0
-178 -462 359 0
-54 -474 444 0
-222 426 -347 0
96 122 369 0
165 479 -262 0
-50 -356 -152 0
-353 -126 -81 0
328 496 400 0
-135 -499 -305 0
342 -188 -422 0
-29 -145 339 0
240 89 154 0
-158 262 224 0
-75 72 -428 0
198 424 -30 0
-452 460 -176 0
483 441 -149 0
-56 -364 124 0
-471 177 -167 0
-281 460 -466 0
-312 498 155 0
498 110 -327 0
227 -409 5 0
496 465 291 0
466 147 -164 0
177 -109 143 0
-418 9 -417 0
387 -436 56 0
351 336 18 0
331 420 397 0
-459 30 -487 0
183 234 -31 0
384 -312 -139 0
222 -397 244 0
-300 363 355 0
29 -80 182 0
410 58 293 0
466 -497 -6 0
-169 15 221 0
-389 -276 472 0
-309 -436 304 0
499 110 -112 0
94 -42 -113 0
-394 114 -400 0
123 33 260 0
224 79 -441 0
18 -78 -278 0
-327 -20 -290 0
-406 388 -218 0
188 -235 476 0
-224 -164 417 0
329 -115 -222 0
404 -162 12 0
-470 442 350 0
83 -235 -448 0
-93 66 -291 0
170 278 152 0
-355 319 -186 0
-473 -394 121 0
125 -448 63 0
62 -328 119 0
153 -158 -360 0
-354 -349 -87 0
-274 429 270 0
-333 -81 107 0
32 -121 319 0
-237 -347 -68 0
37 6 -451 0
-63 -105 -165 0
491 -424 -129 0
136 10 116 0
149 -380 -363 0
111 -448 391 0
-326 415 -357 0
343 85 190 0
-161 -90 -204 0
315 -24 116 0
5 131 494 0
210 348 58 0
-133 -237 296 0
-322 284 154 0
-312 323 314 0
-3 204 -75 0
409 431 235 0
-85 -455 -122 0
-183 236 160 0
341 -308 261 0
88 108 463 0
-458 165 319 0
471 -56 -110 0
159 -375 -450 0
465 -130 325 0
351 63 193 0
-309 401 85 0
50 15 -425 0
192 34 -148 0
-194 -22 488 0
263 -404 197 0
-428 389 -240 0
-487 -424 -361 0
23 17 -203 0
157 -138 -338 0
308 -135 -469 0
430 -155 274 0
388 293 148 0
-463 208 -197 0
345 312 -124 0
70 -427 -272 0
440 471 -420 0
-128 413 357 0
-271 -278 432 0
364 68 229 0
275 151 161 0
-111 -289 313 0
16 -459 350 0
-263 34 457 0
497 -161 -298 0
-6 244 -173 0
-77 -275 -173 0
-182 7 163 0
-41 -465 260 0
-352 263 -280 0
387 332 350 0
26 368 -54 0
-88 35 299 0
441 -124 93 0
260 499 -237 0
-254 195 -29 0
-3 -381 432 0
399 -77 -318 0
-275 -19 -219 0
356 245 -131 0
343 -333 349 0
-30 379 263 0
-359 -167 105 0
-449 -305 -132 0
-342 -263 88 0
-57 456 -281 0
-73 432 325 0
203 -232 -366 0
324 410 -40 0
122 -500 192 0
474 73 4 0
-11 252 25 0
-105 -276 306 0
312 116 103 0
-463 -400 31 0
-499 -378 -367 0
442 -300 -204 0
-344 447 -166 0
425 -403 -383 0
-240 452 197 0
-204 395 -156 0
-63 -134 195 0
154 261 43 0
-332 296 -68 0
299 -180 -84 0
-423 191 -23 0
-329 -167 -333 0
451 -261 -151 0
459 -226 304 0
99 265 323 0
-172 261 258 0
-284 16 496 0
424 -13 300 0
307 -32 -194 0
-420 336 -131 0
-476 178 406 0
-217 -161 247 0
178 396 -475 0
455 -106 -246 0
86 272 10 0
114 362 -24 0
-243 495 160 0
-439 55 -82 0
404 -110 212 0
198 -489 103 0
213 -306 -41 0
14 410 -215 0
-264 495 -140 0
488 -76 -448 0
59 454 424 0
32 -173 -433 0
294 -332 -255 0
-461 -318 -163 0
-139 180 253 0
-270 66 280 0
-488 72 131 0
153 -97 406 0
-462 317 -458 0
-459 56 184 0
-132 252 67 0
-77 -15 -250 0
286 -163 -224 0
24 119 75 0
-476 -232 -113 0
-413 -252 371 0
-86 -158 371 0
-435 -384 105 0
74 199 -94 0
-313 424 358 0
-235 -383 -332 0
242 96 427 0
467 126 18 0
436 -159 241 0
-93 262 -342 0
315 62 -327 0
128 264 88 0
-129 -106 -134 0
-69 197 440 0
-340 -129 23 0
-134 12 114 0
-132 264 6 0
-168 32 113 0
-274 171 444 0
443 385 -358 0
-143 -446 -465 0
-144 -81 391 0
-167 457 27 0
-382 320 420 0
9 386 -443 0
-2 -315 292 0
-173 -265 307 0
-190 -286 -473 0
-470 -67 -168 0
-395 -180 126 0
-387 157 110 0
409 346 279 0
76 320 42 0
163 386 -209 0
154 169 -181 0
-477 -438 320 0
-299 -167 428 0
-369 264 324 0
-55 -423 492 0
-32 238 497 0
251 -211 370 0
296 386 -369 0
-200 -350 28 0
499 -271 147 0
25 183 -360 0
-39 -174 -159 0
468 410 -304 0
-438 139 -490 0
-293 -32 56 0
-70 68 -236 0
-485 423 302 0
-148 333 -68 0
-350 -465 -138 0
-382 -352 -311 0
-246 -464 -48 0
-379 72 -244 0
-262 -152 21 0
2 -290 -494 0
433 295 -396 0
-66 378 281 0
130 241 -78 0
-303 83 -214 0
-476 3 248 0
-333 -1 251 0
-497 488 425 0
23 316 106 0
-57 -156 317 0
310 -20 321 0
-54 -223 90 0
139 -230 35 0
-94 477 179 0
-52 68 -478 0
292 433 408 0
-319 -302 357 0
-98 -233 -167 0
425 -151 -444 0
464 415 -409 0
-440 -208 79 0
-177 309 -344 0
222 -477 246 0
472 -344 -471 0
-349 -286 -53 0
302 30 -364 0
447 221 349 0
244 -465 199 0
-443 -319 322 0
-284 190 90 0
376 -385 -294 0
495 124 280 0
-432 243 388 0
-30 174 -40 0
70 -353 -51 0
-20 -410 -171 0
-52 -483 268 0
-67 128 -144 0
-447 423 -229 0
403 419 262 0
-385 -199 141 0
-408 -107 -305 0
409 391 -209 0
-116 -425 209 0
-70 304 -33 0
77 -403 150 0
419 -146 -183 0
-71 43 399 0
-154 -98 -416 0
-472 192 126 0
-415 38 497 0
-217 -299 -255 0
-337 446 -32 0
180 -25 234 0
-213 -309 48 0
241 -373 59 0
194 498 -431 0
-380 97 -28 0
123 -161 -460 0
169 -287 -264 0
194 -65 405 0
-281 -119 49 0
237 -78 -87 0
-330 322 247 0
-166 128 316 0
-62 146 -168 0
-477 -270 -24 0
243 -179 -405 0
290 438 287 0
455 -333 -33 0
168 -349 122 0
64 451 -317 0
138 -460 -254 0
-460 -390 213 0
39 456 -141 0
479 -421 137 0
28 -231 148 0
325 -147 55 0
450 348 177 0
320 141 139 0
16 131 61 0
-73 278 199 0
-252 -399 69 0
39 -77 487 0
-361 132 -138 0
200 -395 -418 0
-338 -436 486 0
-427 110 7 0
469 -28 208 0
172 345 -491 0
453 288 140 0
93 109 -57 0
386 -31 224 0
-420 190 252 0
359 -131 -432 0
-66 91 -147 0
153 -403 -355 0
-61 252 -67 0
-421 320 -500 0
-220 202 409 0
-121 221 -129 0
268 404 -208 0
-497 495 330 0
438 -41 -3 0
12 185 -307 0
487 300 -397 0
-421 401 -392 0
289 -170 -86 0
-278 155 -31 0
298 -340 446 0
-13 -422 -10 0
426 -492 -445 0
-253 138 333 0
326 -118 307 0
-223 428 125 0
469 359 491 0
429 238 -112 0
65 228 13 0
-160 -22 -69 0
-223 -137 180 0
388 -129 243 0
208 477 -65 0
-74 141 491 0
-481 -444 -411 0
-68 -175 -128 0
127 -492 -4 0
-45 435 -460 0
108 229 -55 0
-2 -323 267 0
-284 175 64 0
-215 -159 -251 0
384 -82 148 0
378 199 -250 0
483 -134 -208 0
370 68 -313 0
332 -408 159 0
439 205 -17 0
-245 -189 35 0
490 -152 -47 0
-14 -81 -464 0
154 264 -457 0
257 -331 -306 0
238 -458 8 0
-234 -60 -55 0
325 312 -451 0
-151 -139 428 0
278 367 331 0
73 113 307 0
-376 -389 -425 0
107 229 421 0
180 -246 -42 0
-403 -425 -447 0
256 145 -441 0
-480 -119 81 0
-128 -253 -32 0
318 -277 169 0
-201 275 92 0
367 243 -399 0
-32 477 -207 0
-410 498 64 0
-439 -51 459 0
-183 337 -227 0
-373 -47 421 0
491 -285 97 0
363 -153 182 0
83 -14 -333 0
-19 -492 -80 0
-193 192 240 0
-424 145 -94 0
442 -122 -430 0
-445 230 -39 0
-300 459 -375 0
-201 -348 317 0
491 101 51 0
-297 -392 -474 0
456 358 -329 0
-193 -277 280 0
82 -46 5 0
40 -475 123 0
-170 192 17 0
497 -231 -345 0
271 340 -409 0
132 -360 -362 0
-439 312 -51 0
-331 -467 115 0
-266 -164 -169 0
-6 -145 -80 0
103 -175 -478 0
63 -460 186 0
-101 195 76 0
-201 -395 102 0
-399 127 -168 0
-163 402 -103 0
-138 232 -25 0
-201 -99 92 0
-218 446 263 0
117 142 -430 0
4 -55 -366 0
-63 -415 326 0
441 387 -383 0
-254 167 370 0
-158 450 57 0
-425 -181 -58 0
212 -19 -495 0
-416 6 2 0
105 88 -175 0
-134 -391 37 0
405 456 162 0
338 -381 69 0
12 394 -57 0
-403 31 -173 0
-22 -469 -454 0
297 134 -131 0
395 -487 -380 0
-403 -392 -207 0
-315 -444 -83 0
-379 418 -470 0
327 -454 -28 0
441 292 -448 0
392 -226 -491 0
-18 -466 -415 0
107 267 -317 0
323 51 -481 0
-175 -495 500 0
-485 389 -328 0
-293 -45 -178 0
10 321 -359 0
77 -226 92 0
-153 -371 -366 0
200 -230 -59 0
312 430 141 0
400 397 -442 0
-99 -169 -389 0
-157 -161 -489 0
248 -194 338 0
-207 -257 -168 0
-304 459 65 0
2 -150 267 0
-177 -272 -268 0
-408 442 375 0
-140 -65 467 0
-121 33 -417 0
387 317 -433 0
-325 287 36 0
-300 -90 55 0
-149 181 296 0
371 -381 -337 0
-110 329 -429 0
494 42 -381 0
-325 194 422 0
-237 -108 423 0
103 -478 -462 0
-423 147 21 0
396 -460 -340 0
-77 98 -4 0
36 174 450 0
-433 133 -444 0
-69 342 -167 0
-395 58 303 0
80 18 387 0
55 38 -413 0
183 -480 326 0
52 248 -72 0
8 147 -127 0
280 -478 321 0
132 -148 -95 0
-94 -296 451 0
157 -238 -80 0
-196 248 255 0
-226 374 -227 0
210 -250 -353 0
-15 377 -443 0
168 396 480 0
324 -269 128 0
-185 -54 46 0
-173 -115 116 0
426 -78 295 0
82 -111 401 0
468 113 226 0
475 160 -336 0
94 188 471 0
-49 -249 126 0
-6 -439 72 0
-199 -330 -89 0
-385 -167 41 0
202 -370 377 0
-337 -22 123 0
-146 -306 -198 0
-29 -427 -31 0
297 -461 -44 0
-381 -383 306 0
206 -289 460 0
192 488 -148 0
287 -227 198 0
-348 -293 -370 0
-296 -58 -332 0
370 -23 -25 0
218 186 -448 0
-259 335 -296 0
-73 -315 -85 0
-382 253 473 0
-372 -323 163 0
-418 364 331 0
-248 -4 -387 0
-384 -137 249 0
31 478 -254 0
77 237 67 0
-279 55 -19 0
-288 137 -430 0
-244 -395 -469 0
-71 -386 188 0
-421 -90 -217 0
-208 250 -320 0
420 -393 -401 0
136 -156 231 0
-184 24 -8 0
284 -351 -335 0
251 41 -163 0
478 -391 365 0
-491 214 83 0
-359 -133 52 0
-261 -49 429 0
29 -382 -192 0
-370 -310 -398 0
-301 7 319 0
343 -146 100 0
120 -416 -294 0
299 -169 114 0
94 404 -399 0
441 -49 -474 0
409 354 -21 0
-449 390 192 0
-198 -300 390 0
148 199 135 0
489 -354 -257 0
80 -220 -282 0
-293 -347 294 0
-84 431 -369 0
208 42 -72 0
-215 -301 -192 0
135 437 427 0
-114 -370 491 0
225 -11 306 0
-448 -339 -483 0
-12 -383 -142 0
173 -2 -475 0
-405 299 414 0
471 -123 -223 0
-466 -187 -173 0
288 119 318 0
-105 183 -147 0
107 -250 137 0
-411 -483 470 0
460 -247 319 0
405 -63 190 0
-27 237 216 0
44 144 -241 0
-357 -301 -55 0
45 -238 63 0
-178 -403 402 0
-226 355 -88 0
-10 -469 427 0
325 -143 457 0
46 264 -269 0
367 191 -61 0
191 -234 271 0
252 105 280 0
406 90 465 0
-258 -356 -34 0
42 -133 406 0
108 121 135 0
-476 306 -283 0
401 -312 -332 0
456 -125 45 0
-102 97 -339 0
-116 -120 -174 0
-390 -31 -13 0
91 179 -395 0
-457 -270 -335 0
5 34 23 0
347 -154 -122 0
143 -211 -97 0
239 -389 247 0
-156 39 129 0
-281 -199 -294 0
-446 22 -248 0
71 492 -7 0
-276 258 -107 0
339 164 191 0
-454 -62 -56 0
194 -420 36 0
-10 151 492 0
-419 -408 108 0
-42 -500 -88 0
-465 -122 -475 0
191 497 -363 0
-224 85 -484 0
369 -42 -98 0
167 -171 -327 0
-268 212 -425 0
-361 -35 116 0
-335 76 314 0
45 367 -125 0
-336 171 -280 0
-116 -321 339 0
177 234 -199 0
-427 -217 -54 0
153 -82 -149 0
321 -474 -164 0
490 -9 -474 0
32 -427 -406 0
137 -7 -443 0
373 348 100 0
-94 -148 -236 0
112 -269 476 0
202 -251 -47 0
-25 -444 50 0
-105 -245 -407 0
193 -393 165 0
-176 -76 -450 0
-54 232 442 0
209 151 -349 0
-442 241 -462 0
-441 309 123 0
263 -392 -88 0
464 -12 -306 0
287 -354 318 0
-337 163 -488 0
-159 -440 116 0
-163 26 -101 0
71 62 83 0
-74 237 -162 0
-109 -352 208 0
84 19 -108 0
-88 202 -135 0
-257 346 347 0
-82 -68 106 0
-26 -369 69 0
398 -213 -414 0
442 -183 281 0
-27 158 -31 0
294 -18 -345 0
364 -137 -194 0
-467 -23 360 0
-459 -245 -330 0
-243 -18 302 0
440 -121 52 0
-447 -12 68 0
-300 -310 57 0
197 -423 300 0
395 -172 -262 0
-4 -228 403 0
-425 -48 221 0
60 -500 -295 0
386 222 -420 0
-484 209 167 0
438 274 -483 0
-385 -114 478 0
-414 163 -128 0
-36 461 -335 0
285 -318 96 0
174 -215 113 0
171 -475 260 0
-414 -367 -417 0
-383 444 -470 0
295 -30 -199 0
-25 196 475 0
-179 -231 -269 0
-123 484 490 0
-455 -156 208 0
311 -252 -472 0
68 -385 136 0
285 -95 -280 0
351 235 -95 0
-128 72 425 0
5 -407 161 0
294 428 -68 0
-105 -55 -432 0
-35 -374 355 0
-442 284 253 0
-14 51 -174 0
167 -26 24 0
195 199 -394 0
-340 -394 -185 0
-201 -199 128 0
384 -307 315 0
249 -356 -82 0
-368 -375 488 0
260 431 330 0
-267 485 -473 0
-327 -296 -383 0
97 256 -186 0
470 -379 -119 0
446 94 -311 0
463 77 -379 0
-47 -201 -330 0
-331 -412 450 0
-4 -390 -211 0
-345 102 -170 0
-26 159 22 0
-477 -491 279 0
-207 133 -19 0
-478 401 182 0
-247 41 259 0
-331 -130 488 0
28 445 439 0
-98 128 46 0
232 -31 314 0
291 275 -163 0
217 438 43 0
90 177 -465 0
134 -77 303 0
-86 -145 -332 0
-325 162 433 0
-237 404 -422 0
-419 -193 -297 0
-102 -226 -206 0
456 212 -293 0
333 -4 302 0
388 -355 -85 0
-50 157 151 0
-236 -85 485 0
-111 489 -49 0
276 -333 203 0
111 -272 -495 0
248 -432 476 0
-221 21 225 0
281 -328 375 0
-354 153 57 0
-481 -197 -344 0
281 174 455 0
-231 397 8 0
229 -349 226 0
97 372 374 0
480 11 227 0
276 -247 409 0
-390 441 378 0
-144 417 67 0
337 166 -264 0
-378 184 -142 0
496 21 216 0
-344 -490 364 0
-7 -410 -383 0
-322 416 -277 0
-268 -496 118 0
-356 174 -378 0
472 -120 179 0
407 -28 -4 0
62 209 -202 0
-262 -111 -493 0
273 -497 304 0
261 -296 -116 0
148 -351 117 0
-292 -485 296 0
224 -87 -77 0
-224 -469 97 0
-36 395 326 0
-204 300 -237 0
-445 305 -57 0
426 41 313 0
-328 -275 2 0
2 494 -152 0
488 113 79 0
-366 -30 284 0
-182 -478 52 0
416 230 296 0
-434 465 243 0
385 -56 55 0
-160 3 364 0
-266 257 -90 0
76 -227 -195 0
-339 -125 -16 0
-484 121 444 0
426 -39 97 0
-476 -448 429 0
-156 -444 -148 0
-462 489 173 0
-274 247 -135 0
-13 8 -471 0
-39 131 4 0
-12 5 -36 0
-4 -172 -399 0
418 10 -136 0
81 304 110 0
-52 25 -384 0
-200 -406 -285 0
7 -81 136 0
112 -229 -17 0
-211 -371 319 0
-274 -189 -423 0
-57 -109 -288 0
-206 355 295 0
-396 300 -256 0
256 -125 -170 0
-216 -204 142 0
-397 269 -383 0
272 244 14 0
286 -381 175 0
387 375 -218 0
466 347 -342 0
-57 203 -94 0
-213 138 -42 0
409 344 -32 0
-474 -480 -359 0
-331 396 -135 0
450 296 326 0
-436 466 -374 0
-29 -265 53 0
-147 109 91 0
-408 -358 -236 0
-61 429 116 0
-15 -215 472 0
-99 -38 176 0
321 -114 481 0
238 447 -133 0
-203 -395 -260 0
303 -326 436 0
-29 317 188 0
68 -393 -365 0
192 6 -387 0
-357 235 386 0
-410 47 -339 0
21 -311 -488 0
199 255 87 0
484 -178 431 0
102 -202 -45 0
-1 483 84 0
270 86 328 0
-104 -117 224 0
-149 -473 439 0
406 119 -186 0
-423 154 137 0
-338 -368 -376 0
161 385 -254 0
-134 -456 121 0
-480 315 -183 0
-105 497 487 0
216 -158 408 0
138 166 79 0
-25 91 481 0
99 -206 -250 0
118 -26 -313 0
-424 397 -485 0
430 341 299 0
-54 -417 -428 0
335 -416 364 0
304 252 282 0
32 62 42 0
-222 278 64 0
29 -61 -145 0
54 444 365 0
-462 173 80 0
-116 -394 -315 0
-466 -410 149 0
-115 117 470 0
305 426 -313 0
-31 -344 45 0
-398 328 -108 0
-490 130 393 0
441 391 162 0
489 473 -331 0
-434 100 463 0
133 -381 428 0
-61 -215 440 0
-173 409 130 0
-153 255 186 0
-285 203 13 0
450 399 380 0
-11 -271 -338 0
-420 -293 -231 0
-482 379 120 0
-198 -270 408 0
-405 84 -54 0
396 447 -228 0
88 288 270 0
-335 -384 476 0
-231 -500 -50 0
104 -53 -343 0
-401 -246 189 0
287 389 278 0
88 17 -204 0
42 -467 -207 0
-327 165 -256 0
171 287 336 0
164 -1 114 0
-143 -395 -269 0
-3 112 28 0
57 -138 -214 0
-164 455 126 0
78 -263 477 0
171 433 -467 0
237 369 -124 0
-20 -29 101 0
270 -430 -249 0
-73 -373 425 0
-79 -218 68 0
-175 -298 -160 0
285 205 336 0
289 128 200 0
-221 237 143 0
-438 -123 -229 0
12 320 223 0
-246 459 -431 0
28 392 161 0
104 85 467 0
90 221 -494 0
-377 58 -485 0
463 65 414 0
424 -386 166 0
24 448 293 0
180 436 -97 0
14 -372 -452 0
-407 -482 381 0
170 237 225 0
86 214 -424 0
-345 -259 -43 0
100 378 -344 0
-88 -238 293 0
-48 500 309 0
265 226 478 0
-116 -305 149 0
496 -189 -99 0
233 248 -486 0
273 143 -252 0
-239 -225 56 0
197 -96 -173 0
-278 -255 214 0
-80 -278 384 0
-169 449 -70 0
107 343 -447 0
287 -235 -389 0
4 342 -283 0
-175 -402 -305 0
382 65 271 0
64 8 66 0
124 -253 -300 0
-410 212 210 0
-58 -100 384 0
233 -425 -451 0
-274 -385 -287 0
-176 -6 -271 0
-254 15 408 0
342 -219 -67 0
85 374 -90 0
-265 -108 49 0
-14 -476 -178 0
-238 421 -91 0
465 -483 -460 0
-20 -329 -256 0
341 -176 -191 0
-2 -466 -351 0
-41 -86 -262 0
161 -103 64 0
-284 220 -215 0
-459 -36 94 0
-308 124 89 0
-107 137 -322 0
-105 243 123 0
465 -422 -124 0
-380 160 155 0
-148 -61 485 0
28 21 192 0
-401 -109 -26 0
423 -131 -231 0
-210 -231 212 0
11 199 258 0
-31 250 -270 0
-175 337 -440 0
-19 50 419 0
-120 87 409 0
-75 332 424 0
-9 392 194 0
294 -129 -302 0
209 382 23 0
-142 106 459 0
-389 351 -491 0
375 -332 468 0
-419 377 239 0
333 462 357 0
-376 -138 26 0
475 94 255 0
367 4 -261 0
64 17 138 0
247 -401 -153 0
311 -315 -402 0
324 370 -264 0
130 138 11 0
-116 -472 276 0
307 192 -59 0
270 -387 53 0
-386 -32 -193 0
-264 -184 -227 0
117 136 -268 0
-384 -179 160 0
-84 -297 -189 0
255 -484 411 0
59 75 104 0
194 449 -108 0
251 -104 -168 0
217 276 356 0
53 -111 124 0
-366 -202 -5 0
-158 -415 488 0
-318 199 202 0
434 -378 -153 0
419 426 187 0
123 4 317 0
-157 479 -312 0
-30 -383 -139 0
335 491 -216 0
371 -175 -464 0
213 465 -378 0
242 -412 -338 0
346 276 -446 0
62 -42 -382 0
-256 -170 228 0
-37 -100 -303 0
-104 288 494 0
128 -30 297 0
-382 -220 221 0
302 -421 -405 0
-493 330 238 0
67 291 142 0
-332 -388 138 0
165 464 44 0
-307 435 -218 0
-490 407 449 0
270 490 -338 0
-405 222 -231 0
-158 115 -36 0
-385 228 -31 0
223 38 229 0
-105 19 -87 0
390 -67 241 0
-305 83 -118 0
-195 -361 491 0
-227 52 453 0
-457 365 -98 0
-373 79 -38 0
-90 46 -50 0
-26 -160 99 0
-351 -100 243 0
172 -304 -436 0
448 -436 -375 0
480 -82 -353 0
409 -488 -291 0
-98 -344 -60 0
227 -477 362 0
-417 -274 371 0
-340 -181 -382 0
-259 -289 -389 0
231 -1 5 0
59 -16 -104 0
77 152 -494 0
84 313 227 0
487 434 234 0
-191 -358 136 0
-206 452 -62 0
-85 104 -408 0
115 79 -43 0
-346 -117 198 0
-67 370 468 0
-158 296 -196 0
-287 -362 -374 0
-46 -321 -404 0
-279 -425 -241 0
-340 358 215 0
-293 -283 174 0
341 -154 259 0
6 411 -483 0
-490 -363 119 0
-24 -466 -370 0
280 -269 -489 0
-53 -216 378 0
356 -114 -124 0
211 -345 244 0
276 -87 243 0
-439 168 -153 0
97 -219 124 0
-358 305 -150 0
360 382 492 0
-185 455 151 0
360 -369 439 0
80 -376 211 0
268 -67 -450 0
-67 -370 53 0
-439 -489 294 0
31 -60 -315 0
483 -394 -222 0
-80 -450 -332 0
-394 -351 -22 0
384 -9 -100 0
-434 -128 -84 0
-443 95 -158 0
-122 199 94 0
-447 -390 92 0
-171 -399 136 0
-358 -90 -300 0
398 -59 -498 0
-146 426 240 0
-300 468 313 0
3 360 -363 0
115 -101 -479 0
311 430 66 0
31 249 179 0
-356 -290 332 0
-423 11 -375 0
-264 -231 -488 0
275 311 30 0
383 97 193 0
161 375 130 0
332 -493 -220 0
310 -305 -157 0
-429 322 -237 0
175 -27 97 0
356 413 -450 0
-275 253 445 0
319 121 -421 0
-298 -170 480 0
-164 39 254 0
335 -286 -230 0
-262 49 -384 0
-104 -245 421 0
-250 -99 63 0
20 -492 10 0
384 -188 494 0
438 -225 89 0
40 10 -294 0
167 -389 -220 0
318 -25 244 0
-484 351 -102 0
-341 3 411 0
-492 -317 326 0
115 14 -470 0
-475 -268 -131 0
-424 -145 -186 0
-470 47 289 0
-307 -164 1 0
300 494 241 0
-406 116 93 0
277 254 296 0
395 168 -272 0
262 -269 141 0
273 -83 -4 0
144 41 -426 0
121 -40 -49 0
147 -362 29 0
190 -169 325 0
363 9 347 0
337 463 177 0
182 -286 -408 0
-236 262 164 0
325 -62 36 0
121 -462 -466 0
347 362 -390 0
288 -478 282 0
363 -395 163 0
-23 -125 375 0
-484 113 -278 0
-40 -490 279 0
-377 -177 490 0
353 464 -141 0
75 387 105 0
-194 -367 -385 0
307 -39 235 0
357 186 217 0
146 195 -116 0
-457 -284 453 0
480 119 57 0
477 250 -377 0
50 -107 324 0
-450 175 -85 0
321 -483 91 0
253 412 -345 0
129 -321 -145 0
-233 -103 -171 0
-498 358 -40 0
483 -333 175 0
40 -424 -199 0
88 -192 -108 0
-337 -437 -422 0
-138 303 -379 0
-21 352 446 0
-5 -409 -457 0
205 -321 337 0
-179 391 -150 0
27 394 -203 0
31 -249 -39 0
-60 -53 -208 0
-265 110 -500 0
71 216 296 0
295 -452 -273 0
-161 267 -314 0
478 -385 -275 0
187 -177 -232 0
-386 49 -498 0
489 -196 411 0
-458 214 -236 0
313 217 -450 0
-214 -441 24 0
420 303 319 0
360 490 -371 0
364 44 135 0
-417 140 -426 0
93 -45 414 0
-420 270 158 0
313 -414 214 0
-288 30 457 0
467 303 -156 0
45 32 -181 0
158 2 -35 0
-252 -267 118 0
263 52 429 0
-304 329 379 0
495 237 -18 0
-283 18 246 0
43 345 -133 0
162 111 -219 0
-432 91 1 0
-118 464 252 0
201 153 -299 0
-279 -411 -492 0
472 -197 231 0
266 127 406 0
349 -288 -120 0
211 -288 -374 0
-256 273 -229 0
265 204 -66 0
48 -254 -395 0
168 408 30 0
-48 362 383 0
-111 -334 307 0
333 324 413 0
-252 -133 -9 0
-488 -441 -108 0
29 -278 275 0
-310 191 -481 0
455 -325 -347 0
-174 -350 -277 0
-271 -253 -464 0
-346 -191 -124 0
-311 -180 282 0
182 344 -440 0
-409 -10 -236 0
-34 366 40 0
-356 355 380 0
-238 -80 -260 0
-125 53 -162 0
138 344 390 0
-492 81 105 0
78 -106 -403 0
387 361 -455 0
-50 -25 331 0
421 441 213 0
433 241 -400 0
-152 -67 168 0
229 -141 365 0
403 431 79 0
462 -212 245 0
-123 -251 -217 0
322 -97 499 0
382 333 -329 0
-145 -281 -66 0
-4 345 371 0
-213 -269 294 0
-232 -441 40 0
-174 -97 440 0
-379 188 286 0
-265 -399 -18 0
138 -331 78 0
119 111 -8 0
-202 181 154 0
-363 -339 36 0
259 461 -294 0
473 -196 -170 0
234 -98 193 0
-454 -466 47 0
143 477 438 0
-394 186 201 0
-147 -263 -420 0
81 240 135 0
-3 -240 195 0
-325 106 -24 0
-10 -146 112 0
-367 -429 -221 0
463 61 -98 0
-188 -375 -32 0
2 -109 4 0
-136 196 23 0
-236 -422 -151 0
14 203 -91 0
-275 207 -298 0
-320 67 -47 0
157 -297 98 0
29 185 -91 0
172 265 460 0
-382 328 407 0
-329 -323 -455 0
-207 -143 78 0
-333 -222 393 0
94 -28 198 0
-249 370 244 0
476 -73 267 0
122 57 486 0
209 -375 -305 0
370 389 359 0
-62 210 33 0
229 402 437 0
206 -151 -386 0
462 472 -28 0
382 461 -352 0
139 -441 167 0
-14 395 173 0
112 408 48 0
131 -463 -192 0
123 -133 -395 0
-76 -247 354 0
-236 -465 420 0
64 404 46 0
410 368 290 0
446 -30 -362 0
328 -29 330 0
417 -483 -481 0
-271 -323 344 0
369 280 342 0
-399 380 -410 0
416 -255 -492 0
-92 471 329 0
-262 341 178 0
259 -93 99 0
-347 101 -437 0
324 -202 -161 0
101 -349 -368 0
-423 296 452 0
-342 114 290 0
297 -126 104 0
-274 -52 -325 0
-293 -237 460 0
249 -252 133 0
-100 316 -317 0
-482 -438 294 0
315 80 465 0
-120 -141 -245 0
403 -164 394 0
-110 -443 43 0
60 362 183 0
315 500 336 0
-50 318 -313 0
-271 106 324 0
364 -315 460 0
-111 432 376 0
169 -352 316 0
-112 -313 7 0
-97 -216 -442 0
211 -471 404 0
-382 160 337 0
-291 -276 453 0
363 -133 160 0
-304 -376 -254 0
244 -274 272 0
496 -89 -499 0
130 -127 177 0
485 -459 -133 0
468 243 -452 0
-477 -314 -488 0
-211 138 -33 0
333 132 455 0
-202 -54 223 0
-328 246 -16 0
-127 -251 -318 0
42 57 -273 0
288 -462 -28 0
-250 -295 -130 0
-345 491 332 0
-36 -262 -432 0
352 168 -196 0
-293 186 243 0
-95 205 203 0
-208 -284 437 0
453 192 81 0
-499 290 -237 0
-461 270 -13 0
102 -78 256 0
5 -43 303 0
214 302 181 0
-500 -298 366 0
401 -123 -89 0
389 457 -435 0
-133 -163 281 0
244 -302 -438 0
-277 315 37 0
-292 38 326 0
187 295 -40 0
-452 26 -37 0
77 -81 410 0
146 168 431 0
169 481 -127 0
149 -35 -312 0
39 -214 -311 0
20 -405 368 0
-169 -227 -456 0
229 -298 -30 0
94 72 32 0
-68 36 -15 0
170 69 -370 0
408 -492 366 0
419 464 -148 0
254 145 239 0
-249 -71 210 0
308 -283 -248 0
25 237 415 0
-50 88 466 0
-31 -44 348 0
374 17 -106 0
337 -35 -34 0
-462 -184 45 0
-388 74 173 0
-90 -166 -232 0
-407 -4 196 0
278 106 16 0
-439 241 -74 0
147 288 262 0
402 167 432 0
-441 185 -61 0
-247 124 -302 0
-32 66 184 0
-32 -263 -262 0
252 389 309 0
-351 -433 240 0
397 92 -322 0
-329 150 -93 0
487 405 -366 0
438 208 134 0
-22 100 157 0
-339 364 72 0
145 83 -166 0
-279 423 451 0
143 -395 -380 0
214 167 342 0
-295 -377 -236 0
15 330 -182 0
-390 365 251 0
473 401 112 0
8 182 -118 0
304 -403 256 0
443 -457 485 0
283 -357 328 0
-44 403 276 0
221 301 285 0
-49 491 -43 0
-342 485 -103 0
-280 469 -198 0
116 -349 -74 0
-101 246 -425 0
327 337 -169 0
-415 324 -420 0
-106 -463 -161 0
248 -108 -493 0
-63 -158 -239 0
469 446 -434 0
-201 -120 -128 0
361 498 494 0
121 104 -488 0
401 43 -249 0
-46 -208 -36 0
234 -465 21 0
447 104 126 0
-226 -29 239 0
485 -173 336 0
-316 -458 453 0
-69 303 -282 0
-305 4 -46 0
-135 234 -211 0
57 -467 163 0
-490 -424 -322 0
-349 297 129 0
-305 46 -335 0
-280 -109 16 0
-121 -44 98 0
-36 -311 -86 0
-340 499 9 0
-281 -183 284 0
-8 471 -489 0
-125 -200 -152 0
-128 -364 -264 0
96 -6 198 0
-493 -276 -174 0
-290 -272 -377 0
-171 27 -243 0
30 -350 304 0
368 -308 -227 0
344 243 -65 0
404 -202 79 0
-327 75 -453 0
-405 -212 -258 0
316 -458 -9 0
1 444 498 0
-411 -433 424 0
-276 29 119 0
246 -199 -253 0
-104 227 414 0
378 -299 -105 0
137 -327 -194 0
-244 49 207 0
-386 142 -203 0
76 497 427 0
127 377 -9 0
161 -331 -46 0
283 -449 -272 0
-173 2 -439 0
-170 -99 136 0
98 -177 -406 0
453 490 -270 0
-250 -65 308 0
474 249 -447 0
146 -88 -301 0
-268 353 109 0
-90 -299 -405 0
160 333 -490 0
-275 96 303 0
-311 120 473 0
-414 -209 77 0
-135 -281 -329 0
99 -483 -173 0
-281 318 -147 0
412 -263 -88 0
-276 -479 -421 0
471 -178 10 0
104 -326 -276 0
-289 -419 -119 0
10 179 219 0
223 442 -20 0
-56 -428 -28 0
-460 262 205 0
-50 196 -390 0
-45 -34 -342 0
483 138 500 0
349 -157 490 0
442 -304 -311 0
106 421 -93 0
382 299 -494 0
-374 345 -469 0
86 499 -270 0
253 -124 348 0
-494 -374 423 0
-358 433 417 0
161 -395 95 0
-57 409 -472 0
-390 -56 319 0
-371 -43 -41 0
391 -289 423 0
-273 -286 212 0
-167 -125 -105 0
153 37 79 0
-82 -254 216 0
-228 -232 186 0
7 249 95 0
-198 283 -320 0
-76 -332 -131 0
111 -205 -181 0
-458 234 12 0
22 283 302 0
285 392 423 0
2 -188 82 0
207 160 -115 0
-53 421 -352 0
447 -388 -267 0
-19 450 103 0
-290 462 391 0
-355 261 -50 0
-200 -66 87 0
-18 38 207 0
181 -222 -426 0
-317 451 -355 0
264 338 -128 0
433 -178 -290 0
-44 -355 -350 0
-97 94 -474 0
54 -116 -44 0
92 214 -12 0
175 346 -226 0
410 -500 398 0
-15 -405 87 0
-356 311 392 0
-213 -280 -214 0
-389 299 336 0
-445 278 464 0
-335 278 -264 0
-21 -466 -413 0
-35 186 -298 0
-332 -155 114 0
474 8 -162 0
384 130 291 0
9 -494 -187 0
199 -196 -73 0
-116 -152 -453 0
-163 218 107 0
277 -325 428 0
-65 191 473 0
-228 385 291 0
60 -362 -408 0
-333 -118 82 0
-149 -249 -151 0
-95 -231 489 0
-19 165 250 0
-405 486 5 0
-355 442 428 0
13 190 -193 0
101 200 -159 0
-17 -295 287 0
76 -110 -309 0
456 446 40 0
232 47 -181 0
-406 200 307 0
-404 19 433 0
-194 430 -36 0
-141 -475 273 0
313 274 46 0
389 161 33 0
-414 -6 -353 0
-19 -194 117 0
211 -319 235 0
249 20 -315 0
-141 -139 408 0
465 287 -365 0
-8 -248 373 0
265 230 -111 0
259 467 335 0
-142 457 -446 0
352 35 126 0
-281 120 -378 0
467 422 -144 0
299 -328 -229 0
-433 -372 67 0
252 258 -91 0
222 179 374 0
-299 -496 244 0
422 -184 -137 0
276 171 82 0
35 -114 131 0
-421 75 145 0
439 -402 321 0
-388 -61 -198 0
-277 -55 -326 0
-349 -42 228 0
339 -454 -165 0
-81 54 -221 0
-189 309 -438 0
-213 -130 -18 0
127 -258 -384 0
341 -412 7 0
-340 -72 -223 0
-195 303 -82 0
-142 486 -182 0
-444 -275 65 0
411 -20 -159 0
263 -330 165 0
-37 -172 -181 0
-474 -291 -48 0
240 72 258 0
439 -1 -469 0
39 486 -351 0
499 443 500 0
118 -228 -341 0
391 78 375 0
490 -101 -212 0
141 -390 420 0
241 -17 337 0
-195 87 -304 0
425 -294 -119 0
272 -444 181 0
5 346 375 0
-17 -7 179 0
325 244 -315 0
402 182 258 0
140 -81 91 0
-137 110 -42 0
-493 356 -288 0
-227 457 -80 0
-350 -139 238 0
-196 -282 -480 0
-262 -445 179 0
135 248 308 0
-403 -165 314 0
-287 -85 -30 0
-400 242 492 0
247 4 -187 0
-330 -481 374 0
-270 246 464 0
283 -357 206 0
-240 342 338 0
394 -259 183 0
300 -496 397 0
481 -411 313 0
-31 387 13 0
347 -93 128 0
140 -124 -7 0
-315 492 -226 0
320 208 206 0
240 -140 -169 0
407 33 -302 0
302 -161 401 0
-362 17 356 0
404 419 9 0
235 482 -29 0
431 273 -330 0
-490 -330 -275 0
-181 208 -39 0
-24 -363 -410 0
-321 -203 -248 0
-140 68 41 0
-79 -411 307 0
216 266 482 0
295 214 -462 0
68 -384 333 0
306 -227 -260 0
-128 -51 130 0
219 -422 -446 0
-16 127 -2 0
-237 -433 27 0
36 326 284 0
-418 -63 -408 0
483 335 -17 0
-186 -160 -442 0
295 59 -198 0
156 404 -249 0
329 472 -65 0
495 -77 -93 0
-431 83 457 0
10 -1 7 0
12 117 135 0
-376 -20 -428 0
459 -310 376 0
-78 149 -199 0
236 -52 105 0
375 -109 -443 0
-480 -1 185 0
56 -367 -260 0
212 372 440 0
166 -461 -373 0
219 321 421 0
-85 -361 -362 0
94 167 -467 0
256 -107 54 0
-326 349 -443 0
108 -485 435 0
381 50 -397 0
-142 336 -92 0
56 -364 393 0
-138 311 198 0
56 75 499 0
-334 140 -456 0
-118 23 -141 0
-266 405 336 0
478 -11 -151 0
-96 -145 449 0
-283 -403 15 0
66 -456 -448 0
-3 -57 35 0
388 -239 -134 0
-320 146 72 0
-201 83 482 0
-46 -402 322 0
334 24 320 0
303 68 -357 0
379 486 -303 0
-244 159 -213 0
-476 71 278 0
264 299 111 0
-239 34 7 0
109 299 -357 0
-340 -135 497 0
-250 430 376 0
-417 314 156 0
4 177 -76 0
-58 -430 142 0
-474 -15 432 0
-499 430 -362 0
-214 -456 225 0
-182 -272 341 0
-377 -3 -167 0
-239 -69 -426 0
4 -347 -43 0
330 74 -141 0
179 101 -187 0
-404 30 332 0
340 -154 376 0
242 480 396 0
457 141 -451 0
458 -450 275 0
-324 -427 -253 0
-266 126 339 0
330 397 -51 0
66 218 -135 0
-25 430 64 0
341 -152 -115 0
-430 -136 -368 0
463 175 155 0
-143 437 494 0
-201 494 -411 0
-410 404 -233 0
493 -160 415 0
-20 -425 -118 0
265 -235 480 0
190 -152 123 0
183 -138 -196 0
-157 472 371 0
463 -384 174 0
308 -159 -398 0
136 -422 200 0
402 -350 125 0
-52 401 252 0
-344 -231 -392 0
401 -14 172 0
-84 95 -121 0
379 -135 40 0
347 389 -301 0
-212 19 313 0
103 297 10 0
478 -491 -233 0
-178 -366 174 0
281 204 -120 0
452 -270 -434 0
141 -134 405 0
32 334 -324 0
33 14 177 0
2 -268 -393 0
-326 -214 -454 0
193 -80 348 0
18 492 -483 0
377 120 491 0
260 -383 -287 0
-417 471 318 0
252 405 348 0
367 -313 116 0
-18 313 -453 0
116 -285 312 0
-253 -18 427 0
