p cnf 500 2225
-371 354 -24 0
91 200 56 0
-362 -457 408 0
400 -226 478 0
219 -154 367 0
289 433 38 0
500 431 -259 0
136 -197 242 0
-58 -409 -140 0
-54 3 92 0
178 -365 -444 0
-310 264 -214 0
274 -368 243 0
228 318 427 0
56 -444 286 0
373 364 -328 0
383 -13 -239 0
267 -275 353 0
-493 -133 -488 0
-485 347 -84 0
-338 -119 -412 0
-380 120 475 0
133 356 -272 0
69 -48 126 0
-360 471 155 0
130 12 -385 0
321 -247 163 0
187 18 -81 0
-418 54 228 0
-337 -245 -55 0
63 159 256 0
-106 58 -452 0
380 178 -406 0
-432 -470 -178 0
216 -240 -109 0
410 -400 -377 0
-419 -266 -95 0
251 -346 8 0
-273 -308 -10 0
-208 -172 -230 0
-180 -285 283 0
66 155 -391 0
-395 345 336 0
377 -224 19 0
227 -492 -117 0
-434 287 -72 0
-388 408 -35 0
407 453 325 0
-118 293 -289 0
-410 288 233 0
-117 -181 358 0
223 173 -55 0
-6 461 212 0
-49 361 57 0
-213 -148 105 0
22 -382 -210 0
-42 427 -330 0
287 -450 257 0
-270 33 110 0
301 -471 -205 0
-217 -356 410 0
188 -481 -111 0
169 429 -17 0
-52 -101 -310 0
-358 333 -281 0
-407 -312 -140 0
-77 362 -175 0
-392 -438 -204 0
317 -64 -209 0
440 263 182 0
-354 -43 390 0
-445 52 327 0
400 420 258 0
206 -292 273 0
-388 224 263 0
-240 -353 -178 0
-460 -475 378 0
-112 450 -86 0
-155 190 5 0
231 -346 -298 0
-487 -117 -140 0
40 388 -70 0
458 183 118 0
-115 -50 -429 0
-473 99 209 0
-46 -9 -126 0
436 393 480 0
126 -460 -390 0
396 147 -115 0
99 83 -38 0
-107 -183 -15 0
-477 152 443 0
-73 36 215 0
342 -349 345 0
-106 186 -137 0
154 -182 66 0
-463 -472 113 0
-178 379 -204 0
-120 206 341 0
385 -464 -115 0
244 309 132 0
278 -217 126 0
234 -278 -7 0
-230 -446 313 0
179 -32 -157 0
-130 -497 175 0
-31 102 44 0
153 349 451 0
322 -185 -81 0
29 -183 203 0
171 -387 -161 0
-185 -105 -394 0
115 383 100 0
25 406 -8 0
-166 390 -236 0
385 -267 252 0
-289 298 401 0
193 -358 237 0
281 76 182 0
314 30 -499 0
-212 33 349 0
145 -469 -407 0
-468 -420 -236 0
55 -210 -443 0
-4 -27 -225 0
-161 -340 334 0
243 -5 -16 0
126 93 494 0
-71 479 473 0
184 61 342 0
-189 360 -12 0
-209 495 -45 0
-459 190 35 0
11 -208 -19 0
-355 -311 400 0
-438 -462 440 0
142 409 164 0
-168 -248 285 0
89 -26 -109 0
-124 185 351 0
29 -236 -380 0
162 150 -466 0
78 -327 168 0
32 98 -328 0
-17 -94 422 0
226 -238 268 0
34 467 428 0
6 434 190 0
-272 406 -387 0
311 -372 -399 0
302 -257 -81 0
410 101 163 0
-133 229 -65 0
315 37 298 0
-399 190 274 0
-419 -432 -9 0
-107 -229 -402 0
192 288 89 0
132 -464 487 0
-355 365 418 0
355 -493 435 0
332 85 271 0
85 -276 468 0
-314 -23 296 0
125 496 50 0
-361 228 -157 0
154 241 4 0
-220 -96 -79 0
452 -46 -403 0
-483 -179 236 0
160 210 -443 0
-319 189 -490 0
-273 -398 462 0
-257 -408 353 0
336 -83 -342 0
-446 -127 -104 0
-280 391 -448 0
21 431 136 0
194 -370 168 0
130 268 167 0
345 -174 122 0
-128 -215 -172 0
-498 -446 393 0
194 443 -395 0
114 409 202 0
294 -53 65 0
162 385 118 0
-328 246 223 0
-191 140 -197 0
-438 -486 239 0
-411 -333 -448 0
75 49 384 0
138 -433 378 0
-381 427 287 0
-119 230 352 0
468 473 270 0
-65 290 -312 0
-468 308 171 0
-142 261 140 0
10 -461 -399 0
-284 163 -487 0
494 467 -498 0
352 252 103 0
-142 -92 -294 0
-295 -383 335 0
-110 216 333 0
-19 -429 253 0
-375 329 211 0
-314 -289 -184 0
145 46 -62 0
170 -435 397 0
446 -297 -399 0
-444 188 38 0
35 -393 70 0
292 188 109 0
-308 -329 -323 0
239 179 -6 0
-217 480 19 0
-277 -158 213 0
-285 -216 86 0
-258 72 33 0
-432 -134 -177 0
-157 -304 -103 0
-168 -470 463 0
-247 439 163 0
-217 -352 97 0
-198 -147 247 0
-396 439 327 0
438 -202 114 0
-149 160 233 0
-341 444 192 0
-366 465 457 0
97 -262 352 0
-68 -315 -35 0
-88 168 -85 0
257 -187 35 0
-249 122 -331 0
308 283 -248 0
94 142 143 0
-50 196 -86 0
78 -325 -211 0
24 -487 -183 0
287 -194 391 0
141 305 225 0
-83 34 -446 0
287 -73 -421 0
-161 298 -23 0
219 -217 -419 0
-271 30 -246 0
283 -263 412 0
-48 -118 -382 0
131 -194 -123 0
-58 -191 347 0
193 -329 -467 0
-168 -260 242 0
44 -455 58 0
-162 -357 -479 0
-356 -432 -328 0
116 434 -308 0
259 352 400 0
-435 -26 366 0
81 292 -339 0
-370 -270 427 0
-114 -372 406 0
354 474 367 0
424 251 436 0
167 447 421 0
442 493 1 0
-13 -486 -128 0
56 -253 257 0
457 185 -344 0
46 57 269 0
46 -224 421 0
165 -384 -228 0
-250 363 163 0
454 382 212 0
162 -362 -374 0
99 -388 363 0
12 241 110 0
-318 -63 -309 0
198 -465 46 0
-34 -125 -11 0
-17 348 -283 0
272 46 -207 0
-449 323 219 0
357 -428 308 0
-190 -160 -201 0
44 406 137 0
305 -324 -469 0
-89 -4 -276 0
-256 -314 -41 0
-24 -465 -138 0
-142 -396 325 0
-205 -366 347 0
147 188 353 0
185 297 180 0
-145 -7 341 0
-319 103 -31 0
156 -314 -348 0
-487 -426 455 0
289 -6 397 0
282 -387 196 0
184 433 300 0
-288 -243 -66 0
-217 -204 -166 0
337 -477 51 0
425 400 -347 0
97 196 184 0
398 -113 402 0
239 -136 43 0
-381 -159 367 0
208 382 -481 0
99 -362 108 0
-282 3 -483 0
68 369 348 0
332 -104 307 0
57 -420 -50 0
-262 -32 244 0
7 -377 -245 0
-186 104 70 0
140 21 -466 0
-32 338 -26 0
71 -295 481 0
-344 20 -397 0
-221 -194 45 0
401 -177 -221 0
-397 119 -182 0
109 -66 2 0
-212 380 -396 0
-16 179 294 0
-256 206 378 0
-157 -223 35 0
-352 -85 8 0
-416 362 -133 0
-311 -45 -469 0
-414 -167 -221 0
285 352 -357 0
259 -147 -171 0
399 421 -51 0
-3 362 -367 0
486 -40 -360 0
213 -427 -27 0
-183 138 -339 0
-234 110 -493 0
107 155 109 0
-58 -112 -193 0
-211 165 272 0
-383 -360 456 0
-169 -388 -493 0
-391 434 121 0
-290 422 419 0
100 -180 -311 0
-470 308 -59 0
426 -229 -349 0
93 473 377 0
-137 -51 -220 0
-365 89 317 0
49 240 -459 0
52 176 -469 0
294 336 149 0
-214 236 -293 0
373 -205 414 0
-102 -284 181 0
199 -23 60 0
-76 -103 274 0
418 -355 52 0
-323 98 -480 0
-165 -437 -285 0
-20 464 -57 0
297 279 -225 0
-46 374 359 0
288 -150 -448 0
-439 -135 447 0
-342 -171 -198 0
309 -284 -124 0
281 309 313 0
424 -365 -419 0
-53 305 239 0
-35 371 155 0
-52 -71 -449 0
295 454 -221 0
397 125 -259 0
470 -33 -298 0
-303 -32 146 0
211 -18 -490 0
382 -453 -412 0
-420 146 388 0
152 410 -361 0
-27 -23 165 0
103 316 -390 0
26 -71 288 0
-6 -30 293 0
420 348 140 0
-496 468 -258 0
-48 -349 76 0
-484 -342 -137 0
-280 -161 -485 0
431 -247 67 0
283 -55 -214 0
173 464 479 0
-9 -100 263 0
-119 -383 -382 0
-225 -8 -429 0
-311 -39 291 0
444 -131 208 0
246 497 277 0
181 -84 -418 0
60 -275 -5 0
341 -35 -349 0
-252 478 283 0
-314 316 -185 0
-98 363 -472 0
78 55 -91 0
476 418 173 0
154 285 -237 0
31 -301 -416 0
-3 53 153 0
-184 -474 47 0
-166 -99 -331 0
-449 298 78 0
490 309 76 0
-228 -328 -23 0
115 471 45 0
-56 -189 421 0
213 -57 176 0
319 -64 40 0
-408 284 134 0
-360 386 95 0
-25 239 229 0
447 -489 201 0
95 -443 -406 0
-397 -351 -412 0
467 447 -221 0
-447 358 -384 0
-267 411 120 0
-132 277 73 0
257 424 -210 0
-355 -19 -182 0
-22 -282 -432 0
-7 219 125 0
-255 -1 -95 0
318 316 333 0
30 313 173 0
347 -6 -103 0
-212 -414 59 0
428 323 194 0
430 -350 256 0
-60 -475 70 0
-219 -370 355 0
306 -458 -90 0
-17 -1 443 0
267 -263 427 0
217 -396 309 0
450 -428 469 0
-166 328 382 0
480 497 -255 0
-239 480 -263 0
-331 442 105 0
-292 452 138 0
190 105 2 0
309 -103 460 0
103 116 -63 0
-443 33 -447 0
-446 357 178 0
453 -231 -456 0
-38 305 -183 0
-338 142 -359 0
-289 -125 -118 0
-341 332 214 0
-78 -196 219 0
-117 72 -75 0
-283 393 418 0
-152 182 277 0
376 -177 447 0
200 84 301 0
80 254 -221 0
332 -451 -173 0
-383 -446 -41 0
-65 449 362 0
-17 318 -418 0
39 -129 -243 0
217 303 -454 0
486 -487 24 0
61 331 -328 0
167 292 450 0
-409 478 170 0
-121 -345 -269 0
112 480 -196 0
-70 349 -482 0
-406 67 407 0
-304 440 -187 0
-157 -445 -470 0
-197 460 -41 0
2 235 452 0
85 475 360 0
-474 -7 68 0
428 -186 -126 0
-263 -56 474 0
466 100 107 0
300 386 95 0
164 195 187 0
-393 -336 -466 0
-132 -207 280 0
20 350 63 0
-178 375 -496 0
-469 -16 52 0
287 -331 322 0
216 167 -26 0
34 -201 -112 0
-427 -150 -110 0
254 166 397 0
-116 211 -232 0
-295 318 -52 0
-44 -197 382 0
498 -20 16 0
107 -129 -307 0
-115 303 491 0
-215 352 308 0
-156 94 303 0
77 434 230 0
288 298 401 0
201 405 231 0
307 169 -135 0
122 10 -202 0
-206 222 264 0
-379 -429 268 0
14 305 -33 0
-153 161 -325 0
-335 -34 368 0
36 -357 -55 0
312 -127 383 0
129 -423 -261 0
-193 -427 -200 0
492 -153 -388 0
-6 296 -432 0
-295 -459 -199 0
-257 -458 272 0
498 17 -286 0
456 197 110 0
-371 418 377 0
-200 218 -63 0
-446 357 349 0
-469 185 -388 0
-241 441 -239 0
6 -206 398 0
-204 -77 24 0
185 -122 -438 0
237 67 -321 0
143 318 354 0
177 33 224 0
-493 -418 -210 0
-362 491 -248 0
-356 443 466 0
-135 -293 67 0
465 476 295 0
-493 229 457 0
-161 110 -237 0
-209 -291 -403 0
-407 -106 132 0
24 -62 -64 0
108 -336 -197 0
129 -299 225 0
-460 -342 465 0
-305 -241 173 0
65 -300 63 0
-216 -440 -10 0
-474 323 488 0
426 -37 274 0
-299 80 -217 0
60 -437 -452 0
150 39 60 0
-450 -229 -12 0
-143 -260 -403 0
488 -205 -89 0
-462 75 -95 0
-350 208 422 0
431 464 453 0
-123 494 489 0
62 -140 163 0
184 -2 -162 0
378 -479 -107 0
102 -263 98 0
-176 -281 -345 0
-23 -353 299 0
-4 162 -450 0
-378 414 -420 0
465 -157 -22 0
-493 414 -154 0
-227 168 262 0
-163 8 -194 0
-171 147 393 0
275 -30 -155 0
-53 352 -455 0
306 -132 54 0
228 163 -237 0
412 -254 -449 0
196 -12 239 0
-496 -395 -200 0
446 -420 154 0
339 361 -188 0
-213 337 -144 0
-2 -482 449 0
73 -333 -377 0
94 -467 -27 0
425 -447 -210 0
80 -106 425 0
194 102 89 0
350 17 -180 0
-201 -14 451 0
-196 -54 85 0
-93 -424 -332 0
-187 281 120 0
-42 -370 -203 0
-13 371 58 0
-95 -5 138 0
-20 -494 -432 0
-354 -483 -342 0
46 142 -308 0
-223 -131 242 0
66 457 -128 0
-352 -87 -386 0
271 -146 451 0
335 -289 -347 0
377 -387 -127 0
-385 -473 -477 0
-9 -327 -488 0
-260 -29 -484 0
-139 -257 -297 0
210 189 451 0
497 157 206 0
-264 363 257 0
281 395 30 0
453 396 -13 0
-76 -168 231 0
386 -114 -468 0
466 208 262 0
-30 -109 -498 0
373 -296 -162 0
447 234 222 0
398 -448 -166 0
-161 117 419 0
283 -220 -114 0
-283 -106 173 0
471 -301 370 0
401 -391 -363 0
-140 111 -336 0
-265 -490 -268 0
8 -134 -394 0
242 -187 116 0
-489 174 -421 0
-487 82 266 0
-380 383 462 0
392 492 468 0
-313 76 413 0
-289 -58 -442 0
365 -466 239 0
-202 409 365 0
396 8 -63 0
259 -380 447 0
495 -404 91 0
227 409 -367 0
496 345 -348 0
460 -379 397 0
111 412 425 0
137 399 -164 0
166 -271 307 0
-348 444 327 0
302 -454 474 0
-86 -479 -425 0
67 -345 -227 0
-249 372 -430 0
180 111 420 0
184 12 80 0
44 -281 392 0
276 -83 -393 0
-226 -145 363 0
-422 416 -255 0
402 -257 316 0
78 -322 306 0
400 256 -33 0
-54 -124 -355 0
-281 452 -70 0
-235 493 -366 0
351 -369 -446 0
227 396 17 0
366 114 -6 0
-405 -14 240 0
380 33 46 0
114 89 -260 0
-260 59 -155 0
-90 -101 444 0
472 185 -355 0
-228 -117 62 0
-482 437 463 0
-1 454 -24 0
126 473 133 0
407 -464 -85 0
434 -268 364 0
149 240 -5 0
251 71 -21 0
-226 148 -32 0
230 280 4 0
-31 251 32 0
-366 -105 135 0
-47 186 335 0
310 218 272 0
142 -290 377 0
-458 5 313 0
60 455 -143 0
159 70 -197 0
-399 -211 -405 0
328 -101 -91 0
427 278 -204 0
-479 -74 -211 0
189 184 207 0
454 255 33 0
5 -470 47 0
-97 -263 457 0
346 139 224 0
-126 146 -460 0
-472 -152 -437 0
-317 -66 148 0
-86 -480 -90 0
463 -4 -82 0
41 -175 -436 0
-185 181 -470 0
26 -157 -500 0
-402 397 240 0
244 -214 -164 0
-286 -436 386 0
-422 -472 320 0
-117 -321 -19 0
-210 -151 -474 0
39 -247 -95 0
54 229 99 0
-378 232 -348 0
-450 -360 136 0
-411 -184 321 0
50 -63 -427 0
255 113 -386 0
171 -418 -305 0
-310 350 473 0
-43 -54 313 0
474 456 -59 0
-202 358 -292 0
-440 -85 -268 0
127 491 193 0
-253 -130 -45 0
-183 -461 93 0
150 13 231 0
-328 -5 215 0
241 -333 495 0
-492 465 258 0
-27 167 -83 0
-41 216 62 0
433 -395 -144 0
439 -260 -233 0
471 82 245 0
-382 -394 -22 0
384 -201 -456 0
-64 -133 -186 0
-81 -415 406 0
-166 310 459 0
-123 -185 392 0
-391 125 489 0
292 63 376 0
471 271 -74 0
112 15 -477 0
-373 487 174 0
-416 433 16 0
-187 -237 487 0
-176 -99 -245 0
-157 312 -371 0
-328 317 -424 0
-250 -464 207 0
-343 -108 -438 0
-327 -232 251 0
404 -9 150 0
455 206 327 0
85 496 288 0
-414 -352 115 0
240 -223 -3 0
382 220 -122 0
28 35 413 0
-221 -278 163 0
-297 203 -131 0
140 -296 496 0
242 -325 413 0
25 12 334 0
146 261 -177 0
-391 413 -183 0
170 320 -212 0
64 -340 -132 0
-354 -324 32 0
-182 -463 262 0
-90 329 318 0
-440 -379 496 0
386 -342 -417 0
479 107 186 0
-400 -217 263 0
334 283 279 0
149 -328 -54 0
-217 500 330 0
88 -449 -379 0
-425 -181 -199 0
-115 -309 -67 0
267 -324 103 0
-421 -330 -66 0
-136 287 -481 0
-64 236 -347 0
-463 123 391 0
-420 -198 13 0
289 216 -438 0
207 -359 312 0
138 -257 323 0
332 -282 177 0
33 428 148 0
238 195 -88 0
60 240 -31 0
147 26 -327 0
-98 -397 293 0
353 -92 425 0
293 111 -35 0
-265 168 136 0
231 -350 443 0
240 306 484 0
306 385 46 0
109 386 -462 0
296 -468 360 0
206 58 152 0
68 352 -120 0
-183 79 -92 0
-375 -24 275 0
384 -65 -115 0
-27 340 -483 0
-211 443 -335 0
-201 -251 -485 0
210 -118 304 0
114 236 -103 0
419 -313 381 0
-314 -197 -48 0
145 383 415 0
-5 -216 -42 0
156 -187 427 0
-388 336 -102 0
454 273 -290 0
-15 -196 9 0
273 35 -126 0
-320 84 238 0
-371 -443 -87 0
170 138 129 0
-342 369 22 0
-384 -106 255 0
85 -89 -6 0
-243 -380 -1 0
-473 -183 -202 0
-280 -14 316 0
75 467 -87 0
-372 -309 260 0
245 -207 -296 0
-119 40 -406 0
392 425 469 0
235 -394 77 0
-1 45 -258 0
336 170 326 0
179 -360 406 0
-138 -391 -201 0
264 -52 211 0
36 -176 239 0
40 -373 -313 0
-46 84 -54 0
379 -174 289 0
288 461 -357 0
-197 -184 -390 0
-479 262 51 0
-196 378 372 0
162 69 -476 0
-230 -110 435 0
384 -440 -37 0
-486 -9 209 0
380 -281 22 0
24 -377 394 0
-110 -72 -19 0
-59 -230 -457 0
-327 403 364 0
-115 -87 43 0
-195 -338 -196 0
-366 -74 220 0
122 -116 -226 0
-57 87 -459 0
488 -207 273 0
-18 -314 296 0
-106 -59 -362 0
470 -413 -123 0
-284 -400 -45 0
488 -70 -424 0
370 -295 404 0
-59 429 -348 0
472 -313 153 0
361 500 -240 0
-128 473 -109 0
420 -100 -291 0
439 444 -371 0
-121 11 -440 0
-427 -343 -444 0
-373 -468 159 0
324 -447 -214 0
475 -167 -86 0
-240 380 171 0
-6 129 -1 0
197 -138 74 0
285 -84 -56 0
408 103 -59 0
-61 -401 217 0
-283 -105 -450 0
417 -373 -301 0
138 -379 -259 0
236 -167 -293 0
-333 -36 -287 0
121 215 227 0
251 127 20 0
-372 426 229 0
284 32 115 0
-309 485 -344 0
-90 386 408 0
-376 -265 -275 0
-270 -255 -467 0
60 -229 -424 0
422 -474 13 0
-310 323 -414 0
-76 -460 -94 0
-311 128 205 0
144 354 199 0
-184 15 319 0
-116 -405 -401 0
-51 185 405 0
310 136 114 0
-269 40 -476 0
135 81 -396 0
-444 184 -58 0
92 452 -498 0
-276 481 -444 0
-71 411 451 0
88 -277 408 0
-391 -445 442 0
403 275 -125 0
-370 96 -449 0
475 -500 62 0
218 65 19 0
449 -303 29 0
-392 -18 44 0
-53 448 -323 0
-417 255 231 0
-96 -450 -131 0
100 316 -103 0
20 432 -423 0
-495 43 -461 0
235 -187 317 0
137 382 -90 0
321 -391 -7 0
445 238 -6 0
352 -217 194 0
108 477 192 0
-311 169 -476 0
-372 -86 -290 0
44 -138 -403 0
-202 -301 -67 0
-119 183 -98 0
-171 183 -209 0
-361 350 -223 0
118 292 -320 0
-395 -51 -183 0
-85 -264 -446 0
-159 -99 143 0
70 185 -197 0
372 -447 -75 0
442 -2 -279 0
-5 -345 148 0
-478 307 -52 0
130 -362 -343 0
-490 -449 302 0
405 101 107 0
428 473 -94 0
-26 -400 377 0
-173 -135 174 0
-26 221 120 0
-176 -329 -309 0
-406 -44 -129 0
-266 -279 -33 0
-207 140 176 0
-222 -62 -301 0
52 50 63 0
298 112 -490 0
-59 -81 444 0
173 480 -305 0
-239 299 -71 0
408 203 -297 0
397 -248 185 0
-99 307 433 0
-210 -23 -484 0
-250 -463 -465 0
459 -321 487 0
22 -305 333 0
-411 -247 250 0
246 -203 -363 0
164 40 -460 0
-209 26 -55 0
376 168 387 0
5 289 487 0
389 353 208 0
13 -12 -78 0
-253 21 117 0
379 161 54 0
47 208 -448 0
-470 -199 42 0
202 220 316 0
296 476 -382 0
151 381 -311 0
-240 -424 -163 0
387 374 -269 0
-440 244 107 0
5 330 119 0
152 5 -438 0
-480 351 211 0
-181 368 -133 0
258 -154 -320 0
143 396 375 0
-472 196 -224 0
-289 338 -233 0
-51 306 365 0
-280 356 303 0
-183 -453 -333 0
467 46 288 0
263 -57 -234 0
458 323 -55 0
-358 207 346 0
338 181 221 0
196 -422 -79 0
195 256 -323 0
157 288 48 0
320 3 498 0
376 352 342 0
-450 -133 209 0
-436 -215 -66 0
-152 -252 -174 0
401 -142 -302 0
99 36 466 0
-195 17 367 0
116 350 107 0
-344 487 293 0
8 107 220 0
144 241 -477 0
221 -114 248 0
374 17 373 0
254 101 -320 0
421 46 -207 0
78 -16 -215 0
21 472 310 0
24 401 494 0
31 -170 158 0
-415 412 -482 0
-107 -324 -143 0
252 -297 -271 0
308 71 342 0
52 387 258 0
208 -167 -109 0
285 -406 -403 0
-194 -216 66 0
-370 -225 282 0
-394 -190 447 0
199 412 163 0
-173 -352 -304 0
498 -206 -453 0
307 277 -390 0
-109 246 -59 0
-350 -75 -17 0
-261 33 -298 0
-381 -92 -330 0
427 38 127 0
52 254 -379 0
229 402 -117 0
192 372 -334 0
-49 -457 -47 0
-441 203 -79 0
-328 -7 106 0
-160 -260 -291 0
210 269 307 0
-276 -392 -484 0
-212 -408 -81 0
-461 45 273 0
289 414 -127 0
-476 -387 473 0
199 381 -230 0
276 -337 -230 0
238 -66 420 0
-227 54 135 0
113 45 58 0
-44 13 171 0
-318 217 -50 0
482 -270 179 0
85 -265 152 0
209 -418 118 0
-71 172 154 0
306 264 21 0
-170 -239 -17 0
409 311 229 0
-203 150 61 0
-465 -167 491 0
-499 88 54 0
438 363 236 0
156 -413 -84 0
246 159 75 0
-398 -291 24 0
-483 -230 80 0
-224 -151 -250 0
175 157 83 0
-138 145 235 0
-176 418 -450 0
456 186 404 0
441 283 487 0
354 163 -496 0
359 427 162 0
65 176 -153 0
-100 279 493 0
422 93 293 0
207 31 117 0
62 389 -432 0
-69 -210 -97 0
-302 -309 -400 0
382 -2 489 0
-170 303 305 0
-383 -113 -480 0
-193 -105 306 0
265 371 -94 0
494 -216 486 0
-19 456 91 0
15 305 -81 0
389 109 365 0
-58 -313 368 0
72 -109 431 0
233 116 180 0
499 -84 -406 0
476 19 328 0
-197 179 93 0
286 -60 -19 0
445 457 -424 0
268 234 197 0
119 -478 272 0
-427 -172 -417 0
-492 157 335 0
-116 418 304 0
-272 -143 -40 0
241 254 87 0
-218 434 14 0
-1 -122 389 0
439 345 -318 0
284 217 -295 0
-9 -459 -58 0
-265 143 -363 0
-498 119 465 0
180 -263 393 0
-410 331 341 0
-436 -55 210 0
-63 -297 144 0
292 -494 -146 0
496 -65 67 0
459 426 -455 0
-163 -237 -44 0
-205 -3 39 0
204 40 -487 0
-90 245 373 0
-113 81 393 0
312 -333 -231 0
361 -347 -152 0
26 475 -96 0
-335 137 -65 0
-274 201 -105 0
-296 -350 45 0
-326 -446 -412 0
342 -152 137 0
-411 21 64 0
283 -63 314 0
-430 215 -19 0
-64 474 197 0
283 -433 -110 0
411 -329 -74 0
-392 -168 -460 0
141 -35 -210 0
124 486 -265 0
-146 -386 -23 0
-357 96 426 0
330 -95 -459 0
417 -323 -146 0
183 -272 224 0
-85 -195 356 0
-343 118 -14 0
478 -344 -440 0
-7 48 -485 0
-256 410 272 0
-385 -348 -114 0
-483 461 -125 0
160 485 -351 0
-61 -236 158 0
39 -167 236 0
-146 81 110 0
282 -305 -288 0
89 -214 347 0
169 -120 422 0
451 -419 137 0
-267 -10 -410 0
-449 87 400 0
327 -403 284 0
-80 425 -248 0
-34 -5 -183 0
-346 -75 408 0
246 333 -421 0
290 456 393 0
-231 -490 -8 0
361 -418 -239 0
-66 423 -181 0
-83 -477 -167 0
463 -139 -493 0
257 160 444 0
25 -463 -279 0
-412 -395 -22 0
-202 -138 -429 0
-448 70 -456 0
-156 -324 335 0
155 -211 -324 0
393 446 -177 0
-398 -338 -477 0
79 290 237 0
-17 -237 -362 0
-403 -269 -214 0
291 36 -376 0
486 -215 246 0
-255 106 -144 0
-463 -316 3 0
-361 108 89 0
-360 82 -182 0
-191 264 -391 0
460 -258 18 0
-283 478 209 0
263 -383 -2 0
-312 -49 348 0
-270 -22 94 0
57 -4 283 0
383 338 2 0
-199 422 150 0
116 148 -76 0
-23 106 337 0
382 -490 -495 0
218 468 491 0
-429 114 175 0
-413 -304 159 0
-237 56 -180 0
-316 -368 -464 0
-273 -362 399 0
248 4 201 0
-195 317 332 0
-412 -398 137 0
-60 -417 409 0
113 -249 403 0
-465 330 314 0
-454 221 110 0
425 207 485 0
320 176 -457 0
-19 27 -72 0
-269 -24 -170 0
-179 -14 -422 0
101 -163 -440 0
-206 -45 476 0
-205 14 -230 0
-379 -232 392 0
-457 176 81 0
-14 -412 379 0
-71 -496 313 0
6 -411 305 0
-305 -439 -279 0
211 -148 -85 0
-422 454 -415 0
16 366 204 0
-384 -290 -177 0
186 73 350 0
9 -252 -294 0
453 -194 -366 0
226 -241 -191 0
-313 -462 11 0
-167 -414 -21 0
-270 370 72 0
419 224 -29 0
-433 326 472 0
-322 109 -35 0
-90 -472 -131 0
-64 140 -43 0
329 -491 -15 0
-225 467 286 0
-494 -111 276 0
193 -219 492 0
-443 23 447 0
-27 -206 -284 0
251 -255 24 0
-146 -81 -201 0
249 -484 -25 0
438 -12 351 0
-377 162 -78 0
137 -2 278 0
41 -318 140 0
-107 360 156 0
361 -386 4 0
-488 335 52 0
472 -496 -397 0
-257 441 419 0
116 35 -159 0
-274 255 -68 0
-375 -272 487 0
418 -291 -431 0
-458 -148 -283 0
-443 -478 439 0
-389 -289 52 0
-184 -277 283 0
-126 -221 -113 0
184 -349 -191 0
-229 -378 310 0
-312 -478 -326 0
-129 308 -134 0
-177 -384 -385 0
-379 -281 -286 0
-445 -494 -74 0
359 -301 -204 0
-480 -343 -72 0
392 -447 158 0
-441 159 -366 0
256 -87 -239 0
-363 -497 427 0
443 474 183 0
-2 231 292 0
98 459 -353 0
-152 224 -34 0
312 407 194 0
-150 289 191 0
29 146 -185 0
390 451 13 0
-27 156 208 0
193 423 -20 0
-265 133 439 0
300 -31 -128 0
-435 -143 -66 0
-276 -462 -8 0
-382 -354 17 0
5 148 -47 0
-18 139 -185 0
328 88 -119 0
-492 211 -173 0
-328 284 -433 0
-432 -18 472 0
211 -358 164 0
313 393 53 0
-31 -65 169 0
-434 381 287 0
-404 -6 -399 0
448 239 449 0
-329 -285 -407 0
-492 429 145 0
341 -123 -489 0
168 89 -284 0
146 -295 -477 0
-425 428 45 0
-69 47 104 0
-2 372 45 0
-46 -61 -349 0
318 -79 456 0
-72 285 147 0
-46 -457 -58 0
-379 153 352 0
-139 -132 268 0
-303 -3 495 0
139 -311 133 0
-14 -198 -175 0
-226 -113 -85 0
129 -7 -419 0
-381 466 -195 0
278 -468 15 0
390 -130 83 0
-193 -61 -477 0
452 371 62 0
251 -347 -13 0
399 -42 -236 0
414 -460 369 0
95 43 -202 0
29 -482 -237 0
-368 -437 345 0
-465 210 -500 0
-267 -125 262 0
-199 -291 -78 0
217 -144 -97 0
341 140 -51 0
251 -112 -147 0
-413 -243 130 0
-232 404 -390 0
-94 -333 107 0
195 276 363 0
-298 23 285 0
158 150 -444 0
-253 -155 199 0
500 -391 -355 0
-302 373 -38 0
-125 -196 -288 0
-333 165 54 0
440 -478 77 0
-19 236 -431 0
486 -408 -286 0
-21 145 -197 0
483 -218 -187 0
-206 119 120 0
-8 -359 211 0
64 300 -37 0
-346 182 -411 0
-468 21 -74 0
450 -67 154 0
421 -110 -84 0
-97 226 261 0
422 337 234 0
-38 3 377 0
189 -71 119 0
168 -316 -299 0
-251 425 372 0
50 290 375 0
-443 360 265 0
-148 243 497 0
233 411 450 0
-18 -95 59 0
325 101 422 0
64 -268 -66 0
-51 -78 -479 0
-88 188 38 0
-220 415 6 0
5 497 373 0
483 20 -283 0
-23 -94 -270 0
164 310 497 0
221 -492 452 0
-88 332 22 0
425 486 -240 0
296 -143 -114 0
410 39 -49 0
-235 65 349 0
274 477 293 0
-340 -69 463 0
-488 -308 -244 0
282 -90 -311 0
174 -329 -253 0
344 -424 82 0
208 -113 -96 0
291 4 -344 0
-297 25 -316 0
-241 -190 -425 0
-195 255 -55 0
-354 -299 9 0
204 -52 -264 0
163 -466 29 0
350 -190 173 0
-406 62 431 0
473 306 241 0
269 -85 133 0
-163 -106 -294 0
409 -183 482 0
-376 -239 84 0
337 20 282 0
-114 -382 -72 0
222 -442 -6 0
-274 190 -279 0
-202 -82 236 0
227 -322 -101 0
380 110 -339 0
208 124 166 0
-434 91 -130 0
-251 51 130 0
154 -93 -90 0
61 168 -253 0
-198 221 339 0
179 -307 461 0
-189 -190 -200 0
216 -214 -372 0
-40 -484 -426 0
431 -495 -487 0
423 -263 30 0
-449 -7 379 0
-148 252 -356 0
-206 -462 408 0
73 -408 -92 0
183 188 407 0
256 105 -92 0
182 -108 -102 0
57 66 181 0
-368 97 -479 0
111 283 -363 0
-44 -458 18 0
-488 151 471 0
437 -29 -315 0
-256 -6 352 0
36 21 127 0
167 -419 -209 0
-257 -20 162 0
482 -135 86 0
-288 -4 -491 0
-390 -393 42 0
-224 207 397 0
-201 110 246 0
-12 -176 201 0
-193 -313 176 0
286 -405 429 0
185 353 485 0
144 -253 250 0
-17 126 -43 0
-493 452 191 0
202 -299 136 0
248 317 -467 0
-444 -193 -36 0
-362 152 204 0
120 314 -75 0
229 -226 394 0
-106 -357 107 0
-297 117 330 0
-484 -144 -343 0
446 369 -279 0
195 -458 -215 0
433 330 -469 0
-21 -369 -357 0
-114 -281 386 0
-5 -49 -287 0
312 -416 245 0
-496 120 364 0
-259 411 363 0
-75 -224 -274 0
-167 422 241 0
-450 -423 49 0
75 -44 -220 0
403 -495 17 0
69 -101 450 0
216 492 -78 0
300 190 -44 0
175 -491 278 0
-244 48 -53 0
124 -239 -175 0
103 -29 -456 0
259 444 -220 0
297 429 223 0
-241 -41 348 0
-19 -270 396 0
-41 219 266 0
-143 196 -216 0
62 28 440 0
-64 -439 33 0
-156 50 74 0
-479 304 -313 0
139 -333 -260 0
-315 -379 327 0
-165 116 415 0
480 102 -432 0
134 -423 462 0
-432 426 96 0
-121 474 376 0
-183 -158 -394 0
114 -384 -300 0
484 436 -338 0
-50 78 -43 0
-121 -283 421 0
389 74 -207 0
125 493 -164 0
-307 -306 -404 0
-463 -457 -486 0
495 -131 177 0
-253 -492 -71 0
320 -37 -428 0
-63 -50 131 0
-339 362 453 0
356 493 -436 0
499 -284 -453 0
-282 403 201 0
-118 -221 113 0
299 50 -293 0
64 382 292 0
40 -246 282 0
-371 476 453 0
-205 451 320 0
-175 -192 433 0
418 147 -107 0
-99 8 135 0
-62 119 227 0
264 -404 265 0
178 -279 -418 0
-163 200 -18 0
-33 191 -122 0
370 -10 -77 0
194 162 167 0
90 -48 41 0
-436 49 173 0
75 331 -298 0
29 -467 -470 0
-321 -28 126 0
-89 -332 227 0
-465 348 -313 0
360 -361 -332 0
-271 156 19 0
-125 -383 149 0
206 -479 468 0
407 10 -32 0
156 118 -398 0
-252 175 -279 0
-239 -129 -111 0
-305 177 91 0
353 158 59 0
212 480 -283 0
-132 -337 -82 0
-409 349 -72 0
268 -202 -385 0
427 -212 240 0
-226 -242 391 0
153 -497 -415 0
196 -488 89 0
-369 -425 270 0
-382 273 -421 0
123 -380 -211 0
-95 222 -163 0
-214 -69 210 0
-14 -454 -39 0
-198 239 -48 0
-47 -338 305 0
-92 337 315 0
-42 55 -7 0
206 -344 -400 0
382 -237 -43 0
369 289 155 0
-108 -187 183 0
3 -359 -22 0
97 -246 428 0
158 487 423 0
-282 -23 46 0
-88 314 -335 0
129 174 426 0
414 344 -233 0
492 -254 425 0
-448 102 114 0
6 -154 -398 0
-413 256 -138 0
-329 -262 -359 0
-141 167 -371 0
313 315 276 0
-368 74 -435 0
283 -448 -284 0
362 -372 271 0
-467 487 -208 0
-130 88 -220 0
73 -211 -414 0
-351 -273 -147 0
-484 213 491 0
-465 -439 274 0
452 -399 -443 0
-16 431 455 0
-488 -48 -232 0
-408 -429 -97 0
-394 -472 237 0
186 459 -300 0
-472 413 -268 0
-181 -323 -492 0
195 -406 303 0
111 278 201 0
442 281 -214 0
38 -10 -1 0
-233 -287 456 0
-251 -447 -122 0
-265 441 498 0
218 -387 -475 0
-27 -379 63 0
392 135 -457 0
-423 143 234 0
340 -214 263 0
271 389 -317 0
351 20 232 0
-263 -297 -85 0
-437 159 385 0
-443 392 189 0
-23 18 240 0
376 284 -60 0
-443 -377 -361 0
485 -33 172 0
192 -418 221 0
-296 -6 -292 0
190 -274 -165 0
-485 -244 -361 0
476 -374 -259 0
176 -392 -257 0
101 482 -381 0
12 -137 -210 0
-464 -360 328 0
-51 268 489 0
-256 494 369 0
-209 -6 446 0
347 212 480 0
449 192 -284 0
430 483 -252 0
22 -336 -11 0
416 456 -292 0
270 -118 69 0
-173 404 270 0
-80 -478 326 0
56 466 32 0
-323 -111 -177 0
-87 -21 201 0
499 371 -492 0
365 -321 426 0
154 -280 -281 0
-421 363 -154 0
429 470 134 0
-445 -56 -210 0
6 425 280 0
-403 478 306 0
288 -457 425 0
112 -149 -437 0
148 -331 199 0
181 382 -275 0
-23 74 492 0
83 -176 -179 0
291 66 283 0
56 106 -366 0
111 6 274 0
26 -7 -494 0
-48 478 -20 0
21 304 -283 0
147 175 418 0
122 -282 288 0
-108 -208 -15 0
124 -341 316 0
-302 -247 457 0
273 102 -374 0
-470 -352 -1 0
174 -182 -274 0
-54 225 -113 0
448 -148 108 0
-224 -268 -69 0
-139 195 -314 0
313 7 286 0
340 159 470 0
-317 -296 16 0
-185 -463 337 0
274 497 70 0
222 8 -4 0
35 -275 -234 0
-77 -46 -121 0
498 -88 351 0
190 284 228 0
473 221 48 0
412 407 210 0
430 -192 -312 0
-202 309 441 0
-214 156 -449 0
-120 114 -273 0
-170 13 106 0
300 445 209 0
-208 -93 80 0
347 35 -90 0
-230 -450 -134 0
432 488 -233 0
-9 495 -351 0
-336 -71 67 0
463 6 -115 0
-391 -150 81 0
14 -285 -27 0
140 192 -260 0
445 24 4 0
-442 -11 103 0
62 301 -466 0
-308 -16 -108 0
455 -251 -450 0
139 -153 266 0
255 141 332 0
14 290 295 0
-165 443 -285 0
-31 34 322 0
402 -384 447 0
170 -262 227 0
-147 -415 -376 0
-438 102 -483 0
-92 128 -41 0
-317 233 439 0
471 359 -365 0
-373 481 -495 0
-295 483 -188 0
133 125 297 0
-36 136 152 0
162 27 376 0
3 -200 -140 0
-136 -190 219 0
-382 -170 -217 0
337 -83 -65 0
-384 -445 -328 0
234 266 -476 0
-437 251 442 0
-123 -417 -89 0
306 -4 -148 0
450 -111 440 0
-122 82 283 0
-141 -384 -255 0
-45 -328 -392 0
363 190 453 0
358 453 382 0
486 -100 187 0
-438 -225 126 0
300 411 232 0
366 199 78 0
292 424 88 0
90 -206 1 0
-359 -235 57 0
449 -368 168 0
154 -217 417 0
5 164 -142 0
322 -495 -279 0
-442 126 301 0
49 116 -483 0
362 -318 27 0
-274 448 205 0
217 -376 309 0
-200 -216 -484 0
-130 67 25 0
175 65 -327 0
334 299 -194 0
103 -447 112 0
124 -444 370 0
-357 -133 495 0
26 -167 364 0
399 62 321 0
252 127 132 0
-45 498 -353 0
483 -295 -224 0
295 -100 395 0
219 247 214 0
259 134 162 0
-210 112 417 0
444 -58 362 0
-463 378 -207 0
99 117 -360 0
214 363 204 0
-422 -240 352 0
37 -362 -243 0
308 375 312 0
327 370 228 0
33 -247 -164 0
-210 -383 297 0
434 -101 -310 0
274 385 482 0
352 19 475 0
400 -82 -434 0
-152 223 272 0
-226 -419 -84 0
-416 78 -224 0
-152 319 217 0
-293 -198 -473 0
-18 -229 -319 0
340 399 -62 0
-152 122 -467 0
-14 -300 299 0
-260 178 71 0
-437 327 -380 0
-324 -276 -457 0
456 -390 -250 0
481 197 -263 0
497 233 -27 0
192 -355 -499 0
356 251 -131 0
454 -134 -392 0
189 -252 -223 0
285 -192 -114 0
413 111 484 0
10 142 -69 0
-333 410 -87 0
-351 363 -107 0
369 457 -350 0
-50 125 320 0
-255 147 -122 0
-423 352 165 0
-45 -361 98 0
467 280 -345 0
379 423 -257 0
465 315 -452 0
276 -1 51 0
379 9 -168 0
330 2 -322 0
-95 -480 131 0
102 163 -127 0
113 -359 -472 0
-197 216 -145 0
336 424 215 0
316 -143 111 0
494 247 268 0
377 75 32 0
-86 -217 -108 0
-71 470 308 0
382 1 112 0
-447 -196 329 0
291 115 -426 0
-352 -319 98 0
-261 -417 468 0
296 -472 40 0
-150 -471 420 0
-287 289 -330 0
463 -156 270 0
-108 307 202 0
-6 -319 -260 0
449 -377 -112 0
73 -495 -348 0
-369 -298 18 0
-445 -368 -233 0
-24 -7 259 0
-69 475 480 0
330 186 -221 0
-303 368 270 0
-316 -266 142 0
-36 -246 42 0
425 -96 -448 0
228 -4 51 0
424 -210 41 0
-229 -34 -458 0
142 103 396 0
-435 -256 -70 0
-320 205 482 0
-464 295 -407 0
85 317 -14 0
223 -393 413 0
370 1 -95 0
-294 126 357 0
77 418 158 0
180 -486 -98 0
-165 -155 42 0
-421 -259 -18 0
-47 77 -321 0
-490 -132 460 0
106 250 299 0
-500 -305 10 0
-369 -392 250 0
211 261 117 0
201 -302 -30 0
453 17 -2 0
-154 382 358 0
-460 453 439 0
-1 207 49 0
162 -202 346 0
17 333 -343 0
59 359 426 0
-472 -483 -395 0
-305 293 -85 0
-337 144 451 0
417 -218 213 0
-53 208 403 0
282 205 410 0
-431 137 236 0
142 -296 -157 0
-101 406 -171 0
-358 -180 334 0
-35 386 -58 0
70 207 -132 0
207 121 78 0
289 -470 -177 0
203 -393 -120 0
-44 159 73 0
-60 -406 -392 0
-78 -497 281 0
-265 -424 222 0
380 84 346 0
456 368 -215 0
126 71 60 0
158 -12 201 0
256 -236 163 0
-136 -217 -191 0
291 51 451 0
-131 -136 -261 0
55 -111 13 0
-337 -300 118 0
454 -428 308 0
103 149 -223 0
-304 38 -494 0
-188 10 -42 0
-104 -200 449 0
-227 -345 70 0
-29 -154 -96 0
-146 362 320 0
-384 -10 318 0
257 92 -467 0
-389 326 294 0
133 -28 476 0
418 -416 59 0
-366 -246 255 0
-269 -120 -279 0
-387 52 -473 0
-10 -21 397 0
328 -31 -226 0
352 -400 -76 0
-86 -475 454 0
437 -482 255 0
-33 -465 288 0
-46 143 445 0
185 -178 -75 0
-199 293 -434 0
-109 323 -370 0
-180 423 -385 0
4 166 274 0
285 -166 -24 0
134 304 -5 0
421 -309 8 0
427 -173 399 0
272 -64 492 0
-435 113 370 0
-37 -147 295 0
262 429 325 0
223 -161 438 0
-265 -495 -466 0
-351 486 -26 0
-230 30 341 0
309 160 282 0
-479 197 419 0
-365 309 -330 0
169 -248 372 0
426 32 -158 0
-440 101 -351 0
207 -331 101 0
62 316 422 0
311 161 278 0
85 352 -271 0
155 54 -381 0
-412 288 186 0
301 -200 265 0
276 -28 -63 0
-102 -152 -191 0
60 90 200 0
-380 -411 -431 0
368 296 110 0
-97 253 -38 0
-405 -212 335 0
-237 120 113 0
-29 52 -231 0
431 -473 449 0
-289 -31 -43 0
-483 -53 -24 0
358 -477 -160 0
19 -98 116 0
-39 -54 -185 0
-304 -407 -68 0
-8 -376 116 0
490 140 -175 0
236 -413 -425 0
-365 459 381 0
282 -317 457 0
121 135 -263 0
368 448 -389 0
447 10 -52 0
-332 239 252 0
-476 -298 193 0
316 199 -81 0
-267 381 216 0
69 -373 125 0
-397 -441 181 0
-277 -54 29 0
-475 318 28 0
-39 261 -350 0
-347 -337 -253 0
-220 362 -167 0
-302 327 155 0
148 500 209 0
158 -442 124 0
-426 41 -92 0
-128 -170 -442 0
496 395 64 0
142 495 -146 0
79 -370 -398 0
-51 269 19 0
440 -79 -47 0
443 -482 317 0
-184 -464 -362 0
-56 166 -344 0
389 -262 396 0
-481 -188 199 0
359 -314 152 0
-85 352 267 0
155 302 -185 0
-237 -256 -495 0
-386 -8 451 0
222 -249 216 0
172 442 111 0
84 480 -425 0
-169 164 417 0
-102 -101 265 0
269 339 479 0
94 294 314 0
-319 66 496 0
-405 42 280 0
-151 135 259 0
-200 316 395 0
107 -384 300 0
-433 203 24 0
25 -484 -75 0
-179 340 461 0
92 278 -392 0
419 433 -13 0
-282 292 262 0
-169 -354 -135 0
457 -363 182 0
-29 379 115 0
26 -336 209 0
-285 -146 -83 0
-171 129 -429 0
171 121 377 0
-124 130 383 0
-205 -246 40 0
-453 467 -14 0
430 -429 265 0
-69 78 484 0
374 -58 -248 0
-347 157 -288 0
260 454 -296 0
-469 470 -117 0
152 -326 319 0
-461 87 -454 0
-196 -246 8 0
48 -319 -238 0
-142 65 -436 0
-402 50 -372 0
-446 -5 444 0
275 -448 -485 0
-261 -51 -439 0
139 19 196 0
26 -489 398 0
474 -165 -198 0
-302 195 300 0
-361 -391 -471 0
483 -100 -380 0
-338 -321 165 0
-130 -141 359 0
-248 -163 -459 0
236 -68 -473 0
283 335 293 0
95 124 -370 0
332 216 433 0
-494 157 350 0
-33 444 182 0
6 -94 -405 0
430 433 -457 0
434 42 376 0
-206 -145 -19 0
68 -236 31 0
-191 -42 365 0
387 -106 -71 0
296 453 -372 0
322 394 167 0
212 -456 -262 0
19 -197 206 0
428 -274 -484 0
283 183 102 0
383 438 33 0
-227 -254 25 0
223 -94 385 0
237 303 -460 0
-131 93 -489 0
470 476 260 0
341 296 368 0
-207 -107 -337 0
-315 -268 143 0
-331 -35 -315 0
-148 498 11 0
-233 275 322 0
210 473 -245 0
111 222 426 0
192 482 -208 0
-295 -338 -452 0
-392 -38 -66 0
474 62 -240 0
111 -120 -140 0
-422 165 63 0
426 -285 346 0
-249 204 -48 0
-105 -194 414 0
292 41 -355 0
-398 102 1 0
-277 159 175 0
397 -219 -94 0
22 -96 172 0
-14 -78 -205 0
386 174 -207 0
304 -174 -425 0
321 -308 -337 0
-244 15 -165 0
453 -119 -69 0
-304 -475 35 0
181 -228 68 0
427 304 -23 0
-58 22 42 0
347 -19 293 0
-121 282 117 0
-69 -300 238 0
-103 -225 429 0
72 -257 -51 0
208 -291 -252 0
-190 457 -494 0
-231 -73 216 0
38 214 -334 0
427 148 -432 0
337 115 338 0
-4 -115 -21 0
-263 -421 -201 0
-211 200 309 0
447 66 61 0
331 -364 -451 0
349 -429 250 0
-59 -331 234 0
-267 307 -339 0
410 221 140 0
-10 295 -469 0
-150 -269 167 0
444 -200 282 0
-86 -205 -409 0
233 -115 -187 0
-195 -174 -278 0
62 -238 494 0
-309 405 -272 0
259 419 481 0
379 56 108 0
