p cnf 500 2275
-82 469 335 0
-287 194 282 0
467 67 279 0
-233 200 340 0
499 256 95 0
-3 -280 141 0
-323 -44 -302 0
92 -97 190 0
55 480 338 0
-72 343 -120 0
442 -286 423 0
-4 324 -379 0
94 -78 76 0
233 57 -409 0
-114 416 -130 0
-491 -426 138 0
-438 -468 -187 0
84 316 217 0
-190 -493 337 0
-271 -472 -476 0
263 69 277 0
-98 -444 467 0
-56 321 451 0
-29 -485 -105 0
-111 -447 34 0
77 373 261 0
-48 484 -147 0
183 150 381 0
-327 -212 -395 0
-105 -428 -36 0
-214 -427 383 0
-320 -468 -334 0
255 -351 17 0
-194 -231 -326 0
348 -137 -165 0
32 -272 -311 0
-67 209 -113 0
-267 297 -372 0
410 -315 -307 0
-277 -418 408 0
-155 -432 379 0
389 28 -152 0
-165 51 -269 0
113 -46 -241 0
25 -114 -119 0
478 -288 16 0
449 -381 -376 0
372 79 -435 0
-106 -199 210 0
-456 266 -403 0
-270 -471 -222 0
422 219 309 0
264 -295 -434 0
-189 -140 -359 0
152 344 421 0
417 -157 44 0
-418 205 -11 0
-434 116 406 0
-450 206 -247 0
-200 -50 -184 0
154 155 -43 0
183 491 -382 0
395 158 9 0
68 -420 372 0
-484 -198 -107 0
145 119 -144 0
330 138 -145 0
19 147 94 0
16 -117 8 0
-71 -427 -216 0
-116 -245 -329 0
343 470 -181 0
94 -408 -160 0
-197 -487 355 0
-3 22 176 0
155 -494 42 0
79 -288 -117 0
20 -129 143 0
-222 -475 -247 0
-124 -87 354 0
-242 -92 -44 0
192 153 398 0
324 -252 -63 0
-227 312 -423 0
-287 -62 -3 0
417 393 464 0
-394 130 195 0
353 250 -472 0
-44 -383 256 0
287 -382 -421 0
-395 -319 -256 0
-171 -151 -393 0
432 274 -165 0
-435 454 -263 0
391 434 69 0
-121 449 440 0
-227 135 160 0
-271 435 -407 0
-218 -335 -267 0
-56 -294 -138 0
445 -302 224 0
-406 -421 466 0
294 201 234 0
362 367 337 0
409 -32 -341 0
270 -255 49 0
130 -186 -7 0
450 421 -419 0
-11 -206 329 0
-194 97 116 0
209 43 109 0
221 -223 342 0
-198 367 -72 0
388 -306 316 0
310 -6 -413 0
84 -365 -497 0
-479 -211 -316 0
12 -298 302 0
112 -426 263 0
-208 110 264 0
241 469 -219 0
-26 -207 455 0
123 -223 -112 0
-348 70 -149 0
-124 -185 -150 0
-394 -174 29 0
66 190 362 0
-118 68 425 0
-343 -470 -331 0
-282 490 -221 0
206 72 -69 0
-364 330 341 0
332 -290 -405 0
-357 361 350 0
-382 -499 -471 0
383 60 -329 0
122 438 -372 0
-427 -386 -346 0
420 127 327 0
191 175 291 0
240 -300 254 0
-206 179 -327 0
-42 -94 316 0
276 -43 -347 0
348 -414 432 0
-198 367 343 0
391 -242 178 0
82 -263 386 0
89 411 108 0
89 20 338 0
-402 -350 -458 0
37 440 189 0
-242 -196 102 0
-8 -52 198 0
-388 314 -9 0
155 -38 -181 0
305 -14 220 0
486 310 312 0
-165 -371 485 0
39 -308 445 0
232 244 444 0
-409 462 119 0
-126 -178 439 0
56 344 -54 0
-232 -109 -321 0
-380 -296 400 0
-401 -474 -176 0
309 190 234 0
-58 -139 246 0
472 196 386 0
-158 -332 464 0
221 -387 -240 0
93 -470 124 0
267 99 188 0
339 -67 116 0
-244 105 211 0
42 292 -128 0
-472 208 409 0
74 218 336 0
6 455 78 0
-78 124 262 0
-486 -224 394 0
141 410 -18 0
422 290 -452 0
242 421 -372 0
252 394 161 0
-177 -5 -464 0
408 -415 320 0
-8 -106 397 0
-293 17 -39 0
310 339 322 0
35 381 89 0
-221 -275 -475 0
17 164 391 0
385 -234 439 0
-91 -323 -331 0
121 182 -382 0
-215 167 -71 0
-112 141 445 0
-99 89 49 0
12 -148 -26 0
-99 -133 -345 0
444 59 -326 0
-191 -271 -105 0
55 366 485 0
-84 -110 -95 0
233 108 196 0
-80 -341 -310 0
211 436 -23 0
-238 -403 -76 0
230 -51 23 0
-222 275 422 0
-17 315 473 0
249 -419 432 0
108 -330 -138 0
53 -397 -161 0
-200 -199 -286 0
-21 399 -175 0
-117 -109 -380 0
462 164 425 0
342 -301 -316 0
-113 69 253 0
-54 183 477 0
56 -271 447 0
260 236 28 0
229 -180 -385 0
71 -390 -242 0
486 -422 -500 0
392 -325 -257 0
200 352 274 0
468 74 314 0
-493 -381 499 0
-202 -429 -452 0
-220 267 -487 0
483 335 441 0
282 276 7 0
197 -362 90 0
-197 -283 478 0
-255 -295 439 0
-417 121 -385 0
-239 467 -99 0
-269 -190 318 0
352 240 468 0
22 -37 -488 0
-419 407 467 0
-141 -459 -113 0
-155 398 -35 0
276 -352 -462 0
-392 298 219 0
-451 -86 -196 0
197 92 -477 0
-230 389 387 0
8 164 -314 0
158 410 -118 0
-137 -486 -363 0
494 -375 -470 0
287 227 -84 0
-264 484 -210 0
110 120 375 0
128 -33 -410 0
-422 424 151 0
145 -139 -312 0
-190 159 276 0
-124 -284 62 0
315 75 -112 0
-271 274 135 0
142 -151 489 0
-17 -59 44 0
-149 318 -199 0
481 -435 85 0
12 175 68 0
-327 445 334 0
94 -220 -319 0
190 308 -261 0
457 132 -52 0
-194 -31 124 0
-105 -24 -421 0
369 -160 126 0
-421 463 -138 0
-244 -214 -165 0
-82 275 -24 0
-95 206 -373 0
-430 -270 336 0
450 -210 284 0
462 -12 159 0
269 -231 -147 0
296 201 370 0
-34 324 461 0
-170 -146 496 0
371 -212 -257 0
291 -310 410 0
51 148 71 0
-217 -116 132 0
-125 -135 463 0
223 64 132 0
-482 277 306 0
299 119 394 0
-360 -318 349 0
-142 479 172 0
73 415 -306 0
-309 397 -306 0
152 329 -315 0
488 77 229 0
-38 -371 -172 0
155 338 140 0
-318 220 -154 0
-116 272 -494 0
188 -292 350 0
75 125 -189 0
219 144 310 0
-385 -363 -3 0
-274 235 5 0
263 235 192 0
-272 -486 50 0
304 -446 -129 0
-362 213 489 0
19 381 58 0
181 -100 335 0
-376 356 -65 0
104 -317 -22 0
110 356 -456 0
174 -394 -7 0
-381 -406 294 0
-336 -275 -488 0
-104 345 443 0
67 215 286 0
147 69 138 0
-301 403 -68 0
187 60 315 0
-378 153 -409 0
-215 -200 302 0
246 -141 -390 0
-353 31 418 0
110 -348 -121 0
-283 438 388 0
362 -424 7 0
468 62 -351 0
497 -138 339 0
82 -398 -406 0
387 -259 -256 0
51 -18 28 0
369 -377 -278 0
-7 -351 -206 0
35 -30 302 0
312 237 -157 0
190 -331 -152 0
97 -425 226 0
-427 271 86 0
347 437 319 0
428 367 236 0
23 -247 481 0
19 -48 273 0
-236 321 38 0
-493 -146 156 0
88 18 -193 0
-498 222 253 0
124 -368 -353 0
166 344 237 0
351 -69 7 0
-86 392 451 0
48 333 376 0
-466 108 -31 0
147 -448 -242 0
500 249 298 0
3 327 -310 0
99 -472 156 0
118 292 -424 0
180 -92 422 0
-309 -178 -342 0
-33 214 360 0
-124 203 -21 0
-354 325 -150 0
-389 442 -434 0
-54 239 -231 0
-148 -412 -79 0
-9 246 -372 0
496 -295 -494 0
-3 418 112 0
-402 -125 51 0
-31 21 -462 0
-341 -345 -58 0
186 462 -312 0
-158 147 -57 0
225 383 24 0
34 -128 57 0
49 -129 -320 0
-81 -398 98 0
-420 -471 -346 0
-208 432 -367 0
76 -276 25 0
437 107 -141 0
-335 10 -154 0
-224 -255 305 0
488 -83 190 0
-327 61 274 0
-481 267 228 0
-64 -78 270 0
120 453 -127 0
193 -308 -443 0
236 -369 153 0
83 201 390 0
97 -249 -12 0
-370 -387 -74 0
487 -36 -295 0
-180 -459 239 0
229 -95 183 0
-29 451 -398 0
379 -118 -461 0
-75 322 -377 0
-105 -413 357 0
-457 -78 148 0
-167 441 151 0
91 -372 24 0
-495 167 168 0
-285 -272 -297 0
-380 47 450 0
-38 176 59 0
-264 -189 201 0
-477 -65 289 0
-14 435 -133 0
438 310 471 0
-195 133 -487 0
-355 102 120 0
-17 -163 241 0
-93 173 94 0
-86 498 -368 0
128 266 465 0
-178 43 21 0
158 -413 -70 0
-60 195 -466 0
-441 439 372 0
-265 -88 327 0
-391 -3 37 0
-174 428 -344 0
391 -282 307 0
-207 -336 -470 0
-421 -372 13 0
470 284 244 0
223 -153 -440 0
339 237 2 0
-226 -370 -421 0
-494 -158 175 0
-51 -395 467 0
-86 -297 -95 0
-63 -103 -18 0
350 -272 -457 0
-197 -29 -158 0
313 500 -137 0
328 134 -23 0
183 -133 -105 0
332 361 -79 0
208 412 78 0
192 -403 -247 0
142 -487 -380 0
-3 346 4 0
375 -131 -177 0
267 254 473 0
158 200 -115 0
-320 -81 -187 0
-126 -490 27 0
126 -73 -117 0
-429 -190 -66 0
-280 386 -288 0
162 -478 -8 0
453 7 419 0
151 358 -77 0
-386 -101 -180 0
170 369 245 0
-166 -179 -383 0
416 259 495 0
-345 -38 -346 0
8 -347 69 0
-259 -31 342 0
-102 -228 15 0
403 -45 421 0
-500 192 118 0
209 -469 37 0
438 264 -270 0
-458 145 -61 0
-401 397 -331 0
48 493 113 0
414 135 319 0
-28 -390 45 0
431 188 69 0
-248 249 303 0
-28 190 -233 0
-360 -38 -442 0
-283 -281 -300 0
-234 -354 30 0
454 297 -310 0
-314 210 -122 0
-8 -253 467 0
-169 -309 256 0
-8 23 -57 0
-100 -445 380 0
351 -67 341 0
1 -126 -94 0
214 85 173 0
-485 240 364 0
137 -262 119 0
-67 475 -189 0
-476 -184 109 0
-70 449 441 0
463 -288 23 0
47 -78 -329 0
-92 -413 276 0
360 370 235 0
-368 -66 -478 0
-10 -413 -69 0
255 464 -493 0
341 50 -419 0
-469 -491 -263 0
234 -449 -86 0
-118 -312 380 0
40 -38 -348 0
-457 -131 -177 0
-324 152 227 0
-325 -2 -310 0
-409 -335 499 0
-352 -214 -381 0
-209 -288 248 0
403 258 10 0
53 -233 -102 0
-89 -119 324 0
267 -1 90 0
494 408 -428 0
-494 206 79 0
-72 -157 184 0
-244 107 -440 0
-90 271 223 0
-247 469 -223 0
280 76 326 0
-438 -391 -326 0
-469 -430 -221 0
-153 282 25 0
71 310 12 0
286 149 -439 0
-212 -96 -298 0
321 463 177 0
48 76 -493 0
-180 -213 476 0
-460 471 -4 0
82 268 119 0
-197 206 -471 0
471 -484 491 0
-408 -380 -246 0
330 191 -131 0
237 -351 -2 0
190 -132 -383 0
-405 334 -381 0
286 419 -170 0
295 6 -490 0
132 327 -189 0
-107 -194 79 0
145 357 207 0
227 109 -314 0
373 -365 167 0
-20 19 221 0
-343 429 377 0
494 -51 123 0
391 234 303 0
323 177 -416 0
-175 447 395 0
471 -27 -211 0
-228 -52 57 0
380 -206 -131 0
-425 -194 -342 0
-61 -385 288 0
478 76 171 0
468 283 -292 0
272 -22 -263 0
-284 -363 403 0
-223 -481 398 0
239 496 -243 0
-465 -36 322 0
-324 -199 -230 0
-494 458 252 0
-80 277 -337 0
-64 221 30 0
-201 -464 -224 0
-397 467 213 0
494 -79 309 0
-5 -317 -440 0
276 78 259 0
479 372 -489 0
150 -377 357 0
422 -125 334 0
119 111 25 0
-202 -3 -379 0
-46 -185 334 0
480 -369 390 0
85 -443 -298 0
55 308 294 0
-356 -263 -347 0
117 -422 486 0
441 33 208 0
-286 -242 -344 0
425 153 -450 0
31 -335 414 0
-116 246 -237 0
360 410 -246 0
366 492 -173 0
296 -276 -472 0
231 -327 68 0
453 -313 -216 0
55 316 90 0
-333 -349 -109 0
-164 25 -11 0
5 -313 -475 0
380 -76 282 0
317 -294 456 0
-230 305 73 0
-486 -21 321 0
-250 -252 83 0
299 28 232 0
-329 -162 -217 0
-416 13 -440 0
457 408 2 0
338 389 161 0
-144 339 -137 0
-89 121 258 0
493 -145 18 0
-487 -281 352 0
61 417 -392 0
461 -60 -204 0
-342 277 -372 0
-377 -164 241 0
-399 -242 -159 0
-295 322 -441 0
-55 -161 -167 0
238 -141 -166 0
-335 325 -262 0
-243 166 -486 0
378 -447 -278 0
251 -243 53 0
-47 -274 466 0
500 -256 -276 0
-297 -4 -338 0
33 -98 -360 0
107 -369 301 0
-443 85 -225 0
313 241 243 0
252 60 337 0
351 489 -199 0
9 -2 191 0
95 -173 118 0
-78 -337 414 0
215 380 -53 0
255 24 361 0
-467 499 368 0
-314 188 213 0
56 -474 249 0
253 -228 111 0
-164 -365 -274 0
102 308 -223 0
264 -167 229 0
81 -153 -164 0
94 -422 52 0
-162 -51 -204 0
-383 447 335 0
234 486 406 0
-155 381 233 0
225 -129 62 0
-440 -388 -360 0
284 -402 354 0
-332 -42 -209 0
16 99 415 0
243 340 155 0
-149 -196 -489 0
221 -350 34 0
-225 -390 245 0
-437 23 -447 0
136 110 69 0
37 -117 -215 0
213 231 145 0
-140 320 453 0
-320 -206 -338 0
166 245 -89 0
-405 49 -73 0
496 182 91 0
-170 470 -224 0
341 -95 46 0
400 -289 114 0
326 -15 -192 0
400 481 -486 0
497 242 351 0
139 223 341 0
-268 378 -419 0
49 384 -206 0
-91 -236 -302 0
-148 -81 -350 0
90 -24 -167 0
335 -40 -170 0
348 -68 -473 0
54 137 316 0
-54 -427 -263 0
-85 -228 -395 0
299 -154 -54 0
-188 65 -261 0
141 304 -52 0
-409 471 234 0
271 323 -48 0
-258 382 186 0
-495 -402 263 0
318 -72 -37 0
-109 -5 351 0
-489 213 -362 0
-321 -198 234 0
-165 -393 447 0
171 120 381 0
90 365 -64 0
-192 51 199 0
382 -356 261 0
-310 -78 385 0
52 326 -390 0
128 -144 -139 0
-96 153 -481 0
262 346 -128 0
-33 230 258 0
493 354 -489 0
238 -135 -260 0
87 288 155 0
-172 -442 246 0
-15 -125 -88 0
296 342 -447 0
-479 441 302 0
-15 -92 72 0
-172 -300 216 0
-229 247 -81 0
-47 -54 48 0
-436 -204 337 0
-166 146 309 0
-401 -486 -414 0
62 -199 442 0
-94 232 -329 0
-331 160 -294 0
-237 289 310 0
315 -215 -164 0
-168 158 -28 0
254 -163 -128 0
393 -307 -491 0
122 -155 -471 0
-138 59 28 0
275 423 -228 0
254 -131 453 0
145 -444 -47 0
486 207 313 0
-215 11 -59 0
282 194 -445 0
150 126 67 0
162 -173 -330 0
-295 433 -131 0
-134 -76 -95 0
232 -470 315 0
26 235 -463 0
-280 -60 -304 0
-423 -340 -427 0
50 271 465 0
278 -404 -365 0
-498 432 37 0
140 -484 -211 0
-171 311 220 0
451 -367 -234 0
-295 -277 6 0
-205 469 -19 0
-114 283 68 0
-482 344 -90 0
436 -60 495 0
143 283 50 0
417 -125 117 0
288 478 251 0
270 388 -47 0
-322 63 445 0
-212 -360 -132 0
-108 -97 -49 0
-207 117 57 0
322 56 275 0
-253 256 284 0
9 350 -10 0
-376 -15 -35 0
-104 -189 381 0
76 337 97 0
67 -26 -382 0
-457 -467 405 0
466 114 118 0
-438 500 281 0
295 -364 -455 0
-111 438 446 0
265 249 -446 0
429 160 54 0
344 -310 107 0
-25 163 -153 0
-75 320 481 0
-358 238 311 0
-187 60 -36 0
406 494 432 0
292 -212 -189 0
68 -358 -321 0
-169 268 63 0
209 159 169 0
488 390 221 0
87 -497 -332 0
379 77 -447 0
-343 -483 105 0
-430 427 32 0
-271 463 117 0
-271 -346 294 0
31 -222 329 0
-267 19 -56 0
472 -375 -106 0
481 152 -417 0
-37 -225 -254 0
324 401 172 0
-358 -500 196 0
-213 -389 190 0
133 -156 497 0
227 -351 266 0
-15 -376 375 0
-243 25 67 0
-383 -135 -198 0
-19 105 328 0
286 73 281 0
-44 188 -168 0
-205 258 58 0
380 214 500 0
-413 166 295 0
75 -289 132 0
-267 -276 10 0
95 417 130 0
167 -252 445 0
101 -251 -180 0
388 5 -91 0
221 -10 466 0
-155 306 -286 0
199 -393 112 0
-314 -114 338 0
-268 -5 92 0
-341 -163 -247 0
355 90 -111 0
-334 -368 -227 0
141 493 108 0
-26 -148 488 0
-69 486 413 0
-319 334 -45 0
-370 -407 -387 0
-186 -466 221 0
-480 175 -244 0
-416 451 161 0
-304 -281 -302 0
-395 -42 55 0
-50 -478 -313 0
274 -268 332 0
246 404 144 0
314 44 -243 0
-396 215 -187 0
296 315 149 0
-282 365 -161 0
-192 -13 -96 0
-398 174 -210 0
-321 266 -198 0
160 -68 25 0
-365 215 -39 0
-486 -129 -492 0
468 283 149 0
-199 301 -453 0
-103 -137 378 0
334 -393 318 0
433 122 -351 0
-335 -464 288 0
101 -335 377 0
220 -262 60 0
186 366 -455 0
-419 -72 -232 0
-193 463 -61 0
126 404 -287 0
-179 181 -357 0
-252 -461 -498 0
-448 -400 -416 0
-171 -268 -236 0
321 -390 442 0
-452 -180 419 0
-221 271 -299 0
-367 -189 476 0
-105 414 119 0
107 58 103 0
210 320 251 0
57 -65 352 0
-3 -199 93 0
357 481 -366 0
-500 -301 -7 0
-51 55 403 0
-300 -127 -183 0
-281 -146 -62 0
-214 -344 250 0
197 -131 426 0
-126 188 187 0
347 371 -286 0
-421 -191 21 0
23 373 272 0
-396 249 309 0
274 -229 325 0
22 -484 72 0
207 111 132 0
-94 -289 172 0
258 260 70 0
-338 346 189 0
144 -138 -399 0
-138 -413 30 0
-37 456 -366 0
-124 363 -283 0
-276 -402 196 0
-158 -203 445 0
-469 23 477 0
-360 -457 285 0
-346 -142 -49 0
-299 -395 -270 0
194 -320 490 0
-328 164 437 0
-20 65 78 0
-500 -11 309 0
287 -324 230 0
-286 300 263 0
239 -159 -37 0
346 479 -113 0
140 77 452 0
303 -230 265 0
401 -343 497 0
153 377 -278 0
34 341 224 0
-169 -497 -481 0
-365 451 121 0
-90 -379 -345 0
370 -41 342 0
323 185 297 0
28 -260 35 0
-462 83 105 0
-480 284 -300 0
305 -481 -195 0
284 -491 -125 0
-314 -149 -235 0
252 78 -69 0
373 -263 -297 0
209 -58 -246 0
-333 -108 31 0
31 -448 -209 0
184 67 21 0
184 -454 46 0
-324 -126 470 0
-164 347 433 0
-116 21 -19 0
-90 26 -185 0
242 -13 350 0
357 -257 -126 0
-493 361 -93 0
-58 205 -320 0
291 -156 -9 0
216 -161 -194 0
-225 -82 197 0
-415 412 476 0
-19 121 -102 0
-411 22 36 0
-428 376 262 0
-105 -344 384 0
68 -487 -334 0
-71 -479 408 0
423 27 412 0
486 349 -242 0
-135 -63 339 0
-92 297 55 0
-166 175 -136 0
202 -436 263 0
-104 -58 260 0
269 -23 -176 0
315 -140 275 0
333 -402 -131 0
-373 -87 342 0
-462 -152 -303 0
-354 144 326 0
-128 -102 408 0
165 372 -128 0
24 -420 -73 0
-253 -135 -56 0
62 -312 -351 0
124 -489 44 0
74 -245 163 0
306 402 -48 0
272 237 131 0
-166 -263 -48 0
392 -36 442 0
-166 -325 -456 0
487 -67 -153 0
247 -123 -303 0
-491 -276 264 0
-232 -109 210 0
-409 -406 156 0
-249 372 -385 0
-425 -490 -12 0
329 -440 -286 0
15 247 -115 0
-416 277 -412 0
291 10 65 0
424 -292 396 0
405 282 240 0
-385 63 368 0
478 -279 367 0
-353 -151 436 0
-83 483 -108 0
-294 -5 275 0
-252 -467 164 0
28 -315 -62 0
376 -397 400 0
374 -449 402 0
-326 -40 -219 0
-438 -452 -458 0
-452 -375 -325 0
352 -497 77 0
-131 -254 51 0
-128 -311 169 0
-35 94 459 0
169 492 -443 0
-436 310 -269 0
-95 -221 367 0
-296 378 385 0
226 348 135 0
-488 268 -311 0
306 -391 -102 0
346 274 -185 0
114 -63 -422 0
-358 116 390 0
-127 -410 -408 0
338 -382 26 0
489 -83 367 0
-347 419 -333 0
-49 155 278 0
45 170 -411 0
489 132 449 0
408 -366 442 0
-467 2 414 0
-24 -294 244 0
65 309 272 0
393 -234 117 0
345 -39 -199 0
293 -164 -157 0
-187 352 330 0
-370 479 163 0
-5 -336 152 0
442 16 -430 0
482 -430 -270 0
201 -143 431 0
156 142 284 0
396 -214 -421 0
267 -82 -359 0
-116 -343 -321 0
-50 174 413 0
211 44 249 0
298 460 -331 0
-328 477 347 0
-354 121 110 0
257 266 -49 0
419 -113 -287 0
37 243 208 0
447 354 -52 0
-280 449 -204 0
133 -464 -17 0
-45 111 -323 0
136 -114 -370 0
53 -471 -301 0
356 454 13 0
-416 321 -334 0
208 -129 322 0
307 -354 -326 0
120 252 397 0
-364 336 440 0
-14 -347 290 0
156 -333 63 0
-2 -198 -199 0
389 440 155 0
440 48 -497 0
234 -333 409 0
299 487 -186 0
-398 -374 -366 0
321 332 316 0
99 146 118 0
278 68 -48 0
-366 320 24 0
-283 -335 404 0
181 435 118 0
356 350 -334 0
343 424 443 0
74 -289 -169 0
-1 -204 235 0
185 348 -392 0
-180 326 -144 0
218 -270 -474 0
-152 -252 251 0
-205 -1 115 0
450 69 122 0
-67 -208 11 0
-240 -419 -331 0
-286 -280 -277 0
65 -108 361 0
161 226 194 0
207 -18 307 0
-188 -116 341 0
-113 134 214 0
193 71 -187 0
-280 393 62 0
296 -86 78 0
238 -497 180 0
-117 103 -235 0
245 249 168 0
431 373 473 0
318 261 374 0
-357 227 378 0
-208 -44 -137 0
475 -1 172 0
-438 -494 460 0
-214 170 -149 0
124 342 242 0
303 -207 167 0
50 196 260 0
452 -48 -233 0
81 461 347 0
-221 500 -56 0
141 489 159 0
-393 -78 150 0
412 -441 -376 0
383 -382 194 0
26 -194 -326 0
403 -231 -158 0
209 -212 198 0
-238 165 -439 0
-239 -319 -382 0
476 22 209 0
-220 23 -186 0
154 263 452 0
-99 -171 -291 0
8 -358 -378 0
177 -225 389 0
246 -80 -103 0
-211 38 142 0
-105 65 -18 0
-467 44 149 0
-130 -61 326 0
199 -447 -285 0
29 -153 198 0
-162 -407 -119 0
328 -134 43 0
-260 -5 -227 0
-33 -451 -106 0
-382 -102 456 0
-157 -243 168 0
433 157 423 0
-310 -420 196 0
-26 -456 -230 0
-89 139 124 0
-71 -33 393 0
305 -290 131 0
-272 408 -12 0
385 -329 -116 0
391 -431 278 0
-207 -73 441 0
-67 -441 -12 0
337 -89 26 0
384 181 170 0
-19 466 -79 0
-427 -368 -83 0
471 326 387 0
124 -241 107 0
-133 -109 359 0
461 -267 478 0
155 -177 133 0
-393 -46 -223 0
211 -266 -111 0
397 -315 -351 0
-68 -118 55 0
-56 89 -106 0
-437 193 -303 0
115 444 418 0
256 290 384 0
205 369 361 0
145 367 60 0
87 472 -177 0
52 -1 366 0
465 -336 231 0
-448 380 34 0
295 -176 315 0
-171 -305 190 0
465 -293 -380 0
126 -237 -212 0
189 -205 -29 0
434 -157 -357 0
32 374 109 0
192 -26 -177 0
37 497 323 0
449 -156 178 0
444 -114 -196 0
-347 -13 248 0
-74 -77 -422 0
495 -182 -314 0
482 164 326 0
-176 -456 442 0
354 -473 -161 0
-485 -351 377 0
27 62 -397 0
433 157 221 0
-17 323 467 0
-107 116 -129 0
-155 -18 -462 0
50 -108 -223 0
-312 -106 455 0
463 -431 -197 0
-99 79 18 0
-283 192 -420 0
36 -49 -20 0
410 110 274 0
-323 -142 -217 0
373 -233 -292 0
74 -227 135 0
429 -55 250 0
457 -287 308 0
204 348 161 0
-356 133 426 0
16 369 -475 0
-465 -280 -224 0
-188 -481 -176 0
65 -453 -115 0
35 -69 339 0
14 -74 390 0
2 -441 223 0
267 -120 -12 0
297 -129 -389 0
-465 286 153 0
-191 -33 186 0
93 -230 192 0
-3 -124 331 0
441 -383 219 0
-51 410 -443 0
-325 400 6 0
481 -86 -241 0
431 62 -156 0
-183 243 329 0
347 340 224 0
-245 -54 -321 0
29 -202 26 0
-193 363 -12 0
372 282 -297 0
149 257 65 0
26 260 -58 0
470 -77 -38 0
-53 -491 389 0
-468 -254 -354 0
150 32 280 0
-457 -126 -136 0
257 423 352 0
-336 -310 -124 0
-381 188 60 0
119 241 -295 0
-306 296 -478 0
45 -473 322 0
74 23 141 0
210 166 478 0
373 376 -185 0
-9 -260 99 0
-11 -6 -216 0
-298 487 -93 0
-230 -329 -273 0
403 -307 386 0
-473 361 368 0
-378 264 117 0
291 428 202 0
-313 -493 288 0
400 -349 134 0
-130 -295 4 0
122 -395 373 0
-494 412 -460 0
262 273 3 0
139 46 -317 0
-191 369 -418 0
479 -47 176 0
21 -447 369 0
-380 171 -417 0
-318 421 -310 0
86 -214 -464 0
-445 478 455 0
-208 171 -417 0
-107 -327 -248 0
8 -44 218 0
-166 -148 -213 0
-262 422 367 0
300 -361 75 0
58 304 -34 0
-388 -467 277 0
422 51 -303 0
90 230 -180 0
19 -68 -479 0
323 308 -269 0
366 -449 34 0
-438 475 187 0
252 479 483 0
-62 -442 252 0
-380 -136 -323 0
171 -87 473 0
460 -365 478 0
-446 -490 -216 0
-452 -213 12 0
-347 -171 254 0
62 359 -423 0
-409 -108 271 0
-216 58 224 0
-326 -463 486 0
407 107 -257 0
254 -433 421 0
81 -169 -64 0
-322 166 -428 0
133 73 361 0
24 -466 -223 0
-212 430 459 0
17 -10 394 0
-357 472 218 0
-457 -379 380 0
402 -177 48 0
-6 -201 342 0
85 359 170 0
-97 -230 -339 0
90 443 -125 0
227 150 -442 0
166 29 -385 0
-149 229 136 0
-382 321 5 0
-67 110 -55 0
-446 104 363 0
295 -194 -363 0
-425 -276 -405 0
258 -52 -346 0
-77 55 -351 0
-103 -279 -186 0
-387 -319 -159 0
-73 -118 396 0
348 -253 -361 0
-57 -341 159 0
93 -282 -238 0
404 -51 459 0
-35 -171 -291 0
183 -413 1 0
-239 401 -341 0
325 316 480 0
-272 -232 -31 0
-377 -387 100 0
-432 85 -159 0
-276 -470 -417 0
123 -146 -384 0
247 -123 408 0
-249 219 -214 0
142 108 -82 0
-404 19 -5 0
-447 11 -450 0
-19 -385 -233 0
472 50 308 0
-186 34 -137 0
-26 451 71 0
-200 19 -482 0
53 -73 383 0
120 -128 -240 0
246 -290 -52 0
311 404 -485 0
-198 -474 419 0
-109 -466 173 0
127 -410 -83 0
498 192 -279 0
-163 -334 -476 0
-451 80 417 0
-432 294 365 0
126 -392 139 0
146 348 471 0
209 -265 -115 0
196 9 -475 0
491 311 -96 0
6 301 286 0
167 63 476 0
71 264 443 0
-23 422 -490 0
171 126 -463 0
138 -352 135 0
-274 -219 312 0
318 -234 -290 0
-162 -224 465 0
71 -328 -7 0
-15 247 422 0
184 28 -286 0
-320 163 454 0
-84 -234 -467 0
-130 23 -402 0
-163 273 197 0
-163 -223 -126 0
-200 -324 97 0
292 68 -155 0
-43 -465 -193 0
-42 171 201 0
181 449 62 0
4 -134 405 0
208 239 250 0
322 499 124 0
-202 -397 429 0
14 334 -26 0
-306 253 298 0
-345 -169 120 0
-225 122 307 0
164 -29 37 0
30 -192 197 0
-176 -200 -353 0
-223 -57 10 0
-184 430 -131 0
442 -430 323 0
406 -234 -341 0
-97 466 -166 0
-239 -474 -164 0
-20 -406 2 0
-233 232 -289 0
-255 -452 -177 0
-87 400 -245 0
430 432 -5 0
258 -66 -236 0
216 -325 23 0
360 340 -497 0
242 160 40 0
-329 277 -49 0
61 -275 484 0
302 -371 240 0
58 -321 -259 0
-216 152 -252 0
82 84 102 0
-188 -445 -80 0
51 -265 198 0
103 -437 -471 0
314 499 353 0
180 438 -362 0
-335 -305 55 0
-422 366 -43 0
-367 267 305 0
341 -498 221 0
416 498 -494 0
413 289 -184 0
301 -344 149 0
187 5 300 0
107 -309 -71 0
-48 315 -233 0
255 -237 21 0
437 356 -495 0
455 372 -282 0
-185 184 77 0
14 146 -379 0
251 -449 325 0
278 -230 75 0
-151 173 104 0
-31 294 -117 0
423 -493 365 0
-301 -385 -131 0
-206 465 420 0
295 114 495 0
325 403 426 0
194 122 -290 0
-226 477 148 0
460 -487 331 0
494 460 202 0
312 41 -138 0
-154 -496 484 0
490 -309 -222 0
101 -315 -423 0
31 -321 74 0
296 498 478 0
134 343 23 0
80 18 -98 0
413 -87 -411 0
-441 260 168 0
361 -127 50 0
194 58 -176 0
224 72 231 0
468 -90 362 0
-321 319 337 0
151 349 165 0
-416 132 133 0
483 -495 -311 0
217 -243 -192 0
-78 -443 215 0
-268 43 -320 0
-398 131 -489 0
-83 165 -322 0
-424 -202 -253 0
-280 -193 -373 0
-476 201 -213 0
-427 -500 -365 0
-475 49 -275 0
-187 -16 368 0
-206 -378 263 0
56 324 -367 0
-178 -497 -297 0
423 401 -63 0
342 309 -62 0
-487 -16 -416 0
-30 293 212 0
-198 4 -429 0
127 253 225 0
118 -108 -154 0
-309 -152 178 0
-219 488 -407 0
-254 185 -402 0
-257 -168 -279 0
-383 227 -238 0
-429 456 -17 0
-333 477 -431 0
-292 -36 367 0
-380 464 -64 0
169 -142 496 0
-465 -162 28 0
-89 -343 216 0
209 -435 -356 0
290 -344 483 0
250 280 460 0
151 20 -366 0
43 322 -104 0
-455 -397 50 0
-422 154 -485 0
-100 -434 226 0
434 -360 93 0
-227 168 206 0
-309 -81 -152 0
235 421 377 0
-204 213 437 0
169 78 431 0
-163 -357 41 0
-305 93 498 0
-299 -179 117 0
-86 -34 -433 0
62 -134 -233 0
97 -418 -354 0
-89 -25 164 0
115 -487 392 0
329 246 -127 0
422 -136 -161 0
403 10 458 0
-136 -392 -263 0
357 -129 -138 0
-230 418 310 0
366 473 37 0
263 -386 269 0
64 439 -461 0
126 123 -451 0
-54 -10 446 0
400 -435 422 0
-91 311 405 0
254 311 350 0
-265 -120 -68 0
-447 266 -472 0
140 -421 216 0
-304 -74 -402 0
-8 294 -482 0
210 -121 -358 0
408 26 -496 0
78 484 234 0
-277 -414 -317 0
311 -342 -285 0
371 471 386 0
-407 -161 312 0
53 -252 -218 0
270 274 -280 0
-423 111 -454 0
-375 -74 223 0
215 -162 255 0
400 -213 -409 0
-335 -59 65 0
158 9 -490 0
-74 224 -249 0
299 182 440 0
486 -63 58 0
-4 483 -121 0
-277 113 171 0
-365 -191 452 0
-201 -5 82 0
-323 -340 -320 0
-91 -241 40 0
275 -459 -10 0
-221 -232 -80 0
-97 -460 -192 0
72 -187 499 0
289 185 68 0
455 103 -485 0
399 -446 440 0
-239 -387 -414 0
-157 482 -494 0
-401 276 -152 0
-365 468 -301 0
120 -142 -295 0
-395 82 -24 0
357 -102 -125 0
278 472 338 0
120 -449 90 0
146 271 -402 0
-18 397 393 0
-192 -77 362 0
-207 -405 -275 0
-251 211 248 0
163 148 461 0
117 -137 -436 0
188 -193 -431 0
78 -125 -284 0
76 -493 242 0
314 -79 229 0
235 -491 -247 0
340 351 -333 0
-343 -312 -18 0
488 172 184 0
264 -69 -62 0
-167 -44 -127 0
-194 -234 467 0
395 257 -275 0
481 189 -228 0
-404 -452 -61 0
177 -360 -202 0
-213 -24 272 0
197 387 -173 0
467 -388 273 0
-393 -361 -215 0
152 -469 65 0
-466 157 279 0
50 89 138 0
-31 -198 461 0
-338 372 282 0
44 -154 377 0
-412 -133 -190 0
-392 -5 -95 0
146 42 479 0
-422 76 306 0
-146 -26 424 0
-329 393 81 0
475 -72 -161 0
481 -405 -430 0
243 50 240 0
418 187 320 0
25 90 474 0
-375 -42 188 0
-261 -185 78 0
47 321 -161 0
84 -365 -54 0
344 383 -290 0
37 64 -268 0
410 -201 -112 0
267 330 -253 0
-280 482 -160 0
364 -467 -66 0
54 -180 -50 0
356 -62 337 0
-224 -16 358 0
261 69 180 0
-208 -289 109 0
-212 -118 258 0
-409 197 74 0
-308 115 -245 0
-161 63 -59 0
8 -482 -110 0
38 -366 491 0
-268 293 469 0
79 8 31 0
400 417 419 0
134 143 -455 0
361 -464 486 0
500 -475 -386 0
-54 -7 122 0
-52 -16 57 0
-42 364 -138 0
496 203 72 0
-280 212 386 0
429 296 245 0
-190 -399 -342 0
415 52 460 0
-188 10 -5 0
-294 255 -298 0
445 106 -283 0
-413 -355 171 0
-60 46 442 0
-380 -31 -427 0
-50 -449 -138 0
449 -103 419 0
336 -254 346 0
-103 198 -166 0
402 250 436 0
-74 117 -94 0
255 -440 419 0
-29 -245 49 0
-424 440 359 0
-275 111 -12 0
34 429 -129 0
-174 205 235 0
107 365 -489 0
165 -248 17 0
500 116 -342 0
416 155 264 0
-204 -9 -140 0
62 57 190 0
-182 -335 155 0
198 -138 -226 0
-239 -434 295 0
-470 232 -207 0
411 408 -98 0
360 350 -184 0
-18 277 17 0
-51 -321 454 0
70 71 -484 0
-180 -25 165 0
-348 -405 -95 0
-234 197 428 0
328 -68 86 0
439 -128 216 0
-190 -416 -203 0
317 174 -94 0
-331 -178 365 0
193 -491 340 0
-50 -193 9 0
-404 -465 431 0
9 -203 -362 0
-379 435 -116 0
438 164 -485 0
-88 2 -239 0
317 401 203 0
-399 198 102 0
317 -200 222 0
-285 236 488 0
282 -164 -14 0
326 119 347 0
-268 21 -332 0
-25 -51 149 0
413 359 -455 0
-22 149 -88 0
-121 29 74 0
-104 -141 135 0
-262 117 -430 0
374 14 -261 0
497 197 -48 0
-273 -39 286 0
226 71 -327 0
395 -361 -126 0
-216 343 483 0
72 63 -495 0
26 -452 57 0
201 31 337 0
61 -318 283 0
171 238 123 0
199 162 378 0
95 -383 -231 0
383 -12 216 0
462 313 -177 0
354 -398 9 0
463 190 15 0
-147 -58 -457 0
-493 -312 -71 0
238 147 105 0
215 -389 -157 0
358 -173 -148 0
171 -476 317 0
126 -197 -342 0
-434 368 139 0
-164 -193 484 0
-287 -133 -248 0
-357 307 -410 0
404 -342 -255 0
321 400 343 0
-177 439 272 0
-171 330 222 0
264 -224 201 0
-456 443 153 0
-339 228 90 0
101 452 97 0
-187 2 -286 0
-243 335 -475 0
-230 -257 -347 0
-219 304 319 0
-348 36 265 0
432 75 32 0
343 -490 -347 0
-357 -92 -94 0
477 -2 -494 0
-277 -448 -67 0
-71 390 -430 0
39 -69 -191 0
452 -349 -244 0
205 440 214 0
-99 -319 -486 0
60 -367 109 0
-493 -320 86 0
309 -169 128 0
315 -168 -321 0
-347 358 -495 0
-340 -269 458 0
169 -400 143 0
-355 181 -397 0
-115 -118 53 0
388 -386 58 0
311 382 462 0
-472 -408 441 0
-166 171 -217 0
297 -494 172 0
-157 454 311 0
-203 -315 90 0
81 86 445 0
-478 270 -466 0
89 -113 -440 0
-221 454 -74 0
-37 -328 -86 0
100 54 445 0
-119 332 333 0
493 331 -441 0
-139 120 -417 0
290 -63 -67 0
245 210 486 0
-83 -19 -344 0
249 -396 -229 0
-357 136 -496 0
-323 438 123 0
-276 160 53 0
498 -17 11 0
461 402 -137 0
-57 -49 -221 0
358 -46 -367 0
132 273 -479 0
-240 168 -297 0
-217 -316 234 0
62 -320 -447 0
-314 258 -178 0
-433 172 -476 0
-29 291 -36 0
-336 -419 -96 0
232 10 -402 0
-233 -19 189 0
-80 91 -249 0
367 491 61 0
52 -282 -390 0
-39 162 418 0
-363 -415 166 0
-162 5 119 0
-363 -107 -461 0
216 239 -176 0
-486 484 439 0
358 -445 347 0
-220 -238 411 0
283 349 306 0
-47 -340 170 0
403 -28 12 0
-128 -274 -372 0
5 -371 413 0
385 241 298 0
-471 -8 5 0
422 -348 -269 0
-337 -296 491 0
171 129 490 0
-286 -188 -114 0
-341 -273 -124 0
-440 82 -294 0
-128 92 307 0
-237 420 -147 0
-464 -159 34 0
-409 80 350 0
284 -406 -78 0
-336 190 -174 0
-229 -458 8 0
208 318 427 0
347 -34 233 0
-451 -405 500 0
201 -207 164 0
-171 395 152 0
-8 -213 409 0
359 111 108 0
237 -382 -309 0
349 -252 -26 0
279 315 -63 0
-253 -40 332 0
-361 426 -194 0
-497 -387 6 0
-179 241 84 0
69 -386 80 0
-207 88 244 0
122 299 -396 0
149 455 -469 0
-280 -148 463 0
9 48 -378 0
196 -277 -322 0
403 -209 -206 0
96 -158 18 0
-415 -481 -126 0
21 -235 -417 0
192 255 385 0
410 233 129 0
231 -374 253 0
-82 114 413 0
-349 -209 99 0
161 212 249 0
-268 -269 -233 0
47 -343 -268 0
274 53 456 0
-418 36 416 0
-27 453 -285 0
491 -235 -152 0
-303 261 247 0
-291 327 390 0
-243 -121 -55 0
-342 -170 223 0
-324 423 115 0
-139 -77 321 0
-23 -184 -202 0
-99 179 14 0
294 404 -367 0
248 266 -282 0
-181 93 -54 0
-463 -366 -3 0
417 -253 -370 0
160 -206 293 0
376 75 100 0
75 438 390 0
-274 -452 -78 0
-444 331 33 0
10 -20 -379 0
-51 -326 300 0
-26 -143 -427 0
177 -2 279 0
-395 9 427 0
356 -194 116 0
195 -358 -164 0
-108 -152 -425 0
396 448 482 0
187 -208 452 0
-218 -232 90 0
-344 437 -206 0
-374 213 463 0
326 233 71 0
-161 291 -298 0
-254 234 -455 0
385 -201 -305 0
151 -211 -82 0
1 -321 64 0
371 -446 88 0
464 -71 -224 0
64 5 240 0
-222 -490 326 0
193 31 -158 0
-473 -432 -208 0
-473 206 324 0
292 -91 -261 0
-12 -126 469 0
485 41 -333 0
-273 82 -375 0
378 -331 -18 0
-414 314 -411 0
-38 161 -41 0
-305 -197 -95 0
-500 139 210 0
356 -412 -170 0
-423 242 410 0
222 268 -420 0
323 150 241 0
-83 460 -152 0
491 -388 46 0
-92 110 -426 0
386 -367 309 0
211 148 187 0
-20 -232 37 0
-329 -362 -240 0
379 -240 -140 0
143 39 429 0
484 62 131 0
322 17 -480 0
34 91 46 0
-183 315 -354 0
193 182 28 0
441 377 398 0
-396 -453 167 0
-364 480 -290 0
401 253 -83 0
481 -207 -337 0
-493 -352 126 0
405 -255 -72 0
-207 41 218 0
-276 49 155 0
-132 6 -255 0
-37 -83 57 0
-493 197 264 0
-374 -222 -88 0
155 341 385 0
115 190 285 0
-94 181 459 0
-367 404 464 0
-43 352 360 0
-390 -383 -421 0
-174 -109 -193 0
381 271 -141 0
-136 -154 -247 0
-215 -325 -165 0
450 -40 -492 0
-374 -449 -412 0
469 199 -65 0
470 -224 -294 0
324 250 -295 0
379 -35 -139 0
95 71 -461 0
-281 95 450 0
12 467 375 0
-203 401 282 0
383 -499 146 0
160 432 -494 0
-266 -382 -175 0
113 -115 184 0
-9 237 41 0
-62 194 189 0
8 330 -39 0
481 -233 -368 0
-311 469 134 0
-20 239 -242 0
333 126 -317 0
201 131 -108 0
-447 -82 160 0
-234 315 -289 0
-17 -370 -281 0
495 248 159 0
-307 386 -369 0
-363 -315 -93 0
-36 -338 220 0
77 -300 425 0
471 107 372 0
-153 -222 218 0
358 329 -52 0
-246 36 -67 0
307 -17 -76 0
-145 -268 -30 0
-151 -29 -44 0
437 -37 -494 0
-416 84 -208 0
472 -274 -438 0
159 65 -211 0
-247 136 -48 0
-394 142 36 0
-84 308 350 0
-387 -195 401 0
-352 68 152 0
289 -101 72 0
-61 -346 344 0
-216 321 -77 0
-152 477 89 0
-402 475 303 0
8 63 -211 0
-90 161 -117 0
417 -493 439 0
465 180 450 0
153 -228 264 0
253 408 431 0
199 375 117 0
46 289 -397 0
195 370 462 0
-245 390 -496 0
-458 157 471 0
479 281 300 0
-11 29 -499 0
476 -78 92 0
-225 395 180 0
144 -266 -186 0
62 229 -480 0
23 114 13 0
-360 -254 461 0
439 87 -422 0
-451 218 475 0
-144 -52 231 0
-397 -184 -31 0
-12 -385 -282 0
-392 35 -279 0
-254 438 -377 0
204 -477 436 0
275 205 -150 0
-75 189 -373 0
-236 383 257 0
130 -451 -192 0
-95 -153 352 0
171 395 -368 0
72 -493 -437 0
-173 63 -130 0
-351 -280 290 0
454 396 323 0
-218 394 -23 0
-364 232 -48 0
-341 -57 203 0
-78 -157 -41 0
302 -446 -333 0
281 463 313 0
326 -342 287 0
-35 -167 -441 0
-266 -238 -35 0
263 -205 319 0
199 -469 -265 0
-20 227 -190 0
-104 288 -486 0
-209 -314 -441 0
389 182 82 0
143 448 339 0
-341 -132 311 0
-71 419 -452 0
79 274 -451 0
-114 -102 -475 0
-455 23 375 0
-11 220 -321 0
-113 -448 30 0
-357 13 -494 0
-197 409 61 0
-362 -364 44 0
-422 471 -124 0
350 62 14 0
-135 160 278 0
407 -282 -71 0
-460 437 467 0
30 -495 -457 0
358 18 -495 0
-459 457 -435 0
365 -310 -251 0
102 251 -278 0
-118 92 -176 0
462 -169 432 0
18 496 -301 0
296 466 479 0
-211 -306 -134 0
-229 -215 362 0
-436 418 -50 0
385 -51 -138 0
-94 358 194 0
387 -20 -18 0
-76 129 406 0
-211 -65 288 0
238 499 409 0
-64 -114 -23 0
276 27 97 0
41 167 -232 0
372 323 -226 0
478 -88 -67 0
-438 37 435 0
-349 -91 -2 0
29 -273 320 0
-435 427 206 0
-392 -178 141 0
-381 -447 -325 0
211 106 154 0
299 234 321 0
-263 -482 489 0
-109 255 -93 0
330 -10 241 0
-16 299 426 0
-348 55 -182 0
470 430 106 0
2 308 -90 0
124 149 -28 0
-132 -288 79 0
370 -250 265 0
156 -89 390 0
298 122 29 0
240 63 15 0
127 -154 66 0
-399 222 3 0
294 401 -377 0
-75 -90 423 0
42 -333 195 0
408 -495 -254 0
-485 -401 -445 0
338 -259 -197 0
414 -181 469 0
460 264 -210 0
-196 162 2 0
-285 -224 -196 0
491 -380 305 0
58 362 310 0
-253 -366 -489 0
216 -123 61 0
40 197 32 0
-295 58 -346 0
150 -497 52 0
-119 271 -154 0
-199 342 115 0
17 325 -197 0
7 372 -451 0
182 -337 179 0
353 -253 -399 0
11 -453 -352 0
177 -91 187 0
269 -115 348 0
-344 362 -98 0
-239 33 380 0
-26 -184 404 0
405 -72 411 0
-165 -362 -55 0
336 481 143 0
-481 -9 -186 0
-433 -104 157 0
338 52 378 0
294 -489 361 0
246 -38 155 0
220 -178 212 0
-327 -1 -5 0
469 445 25 0
185 493 -354 0
-90 359 -15 0
240 -251 344 0
-158 434 -453 0
376 -403 -176 0
-175 240 -281 0
5 497 216 0
-336 397 302 0
-88 -314 -137 0
-444 -419 -393 0
-481 -406 -457 0
373 8 92 0
-268 323 176 0
72 259 -471 0
-178 339 95 0
-116 477 -194 0
-34 -250 359 0
113 -188 292 0
147 -221 -44 0
-292 -500 -443 0
325 431 153 0
-171 -67 106 0
-233 459 21 0
-461 471 23 0
-58 273 246 0
-382 -30 -416 0
-385 -277 -366 0
140 26 -134 0
-44 224 -168 0
-52 -500 -382 0
-16 472 392 0
129 -483 65 0
189 -270 -462 0
-451 232 379 0
-159 481 13 0
-48 -326 165 0
192 198 -471 0
459 496 99 0
-391 169 337 0
-65 -63 34 0
-133 105 287 0
251 -194 71 0
156 372 -40 0
211 245 393 0
182 133 44 0
6 -411 -70 0
496 -466 -158 0
-60 -455 -426 0
448 -472 -317 0
294 -192 365 0
-106 -482 339 0
-379 -17 -393 0
455 189 235 0
-246 -367 -413 0
-319 -3 -198 0
277 -102 -196 0
27 -42 366 0
355 397 -308 0
-151 397 -79 0
377 230 -135 0
466 367 -173 0
446 -156 -177 0
-255 379 -58 0
-244 393 -3 0
-94 -357 316 0
265 299 260 0
210 170 -220 0
234 339 -169 0
288 315 -58 0
125 114 45 0
-237 -228 288 0
-385 211 127 0
-221 -295 394 0
-161 117 426 0
257 442 -397 0
