p cnf 500 1850
93 -464 259 0
-419 135 22 0
69 380 72 0
343 312 -365 0
-388 307 -384 0
284 -149 -331 0
263 -435 -183 0
-235 321 -17 0
201 394 -106 0
-321 -479 131 0
-140 188 444 0
496 -493 -462 0
-180 236 -348 0
-339 149 173 0
-132 -420 -480 0
140 -289 -5 0
8 -147 80 0
219 -441 314 0
35 -149 -351 0
26 -327 130 0
-43 80 -302 0
398 391 -341 0
152 458 -17 0
414 345 315 0
-407 153 384 0
477 -71 194 0
-120 168 141 0
-358 353 -383 0
-396 79 474 0
-34 387 159 0
-418 -300 477 0
-227 -346 476 0
193 -449 447 0
-107 -365 452 0
-289 338 187 0
-399 -74 231 0
351 407 -84 0
-413 456 407 0
-361 -357 372 0
-208 104 -207 0
240 361 -213 0
427 -373 333 0
-359 342 -294 0
-287 -469 -355 0
-357 -351 -431 0
181 48 -166 0
325 -414 -256 0
-159 -176 -255 0
-260 422 89 0
261 -417 -82 0
-247 233 391 0
462 -333 -148 0
-81 -102 349 0
-218 456 -271 0
271 -133 11 0
-389 -442 235 0
185 20 63 0
235 406 -325 0
-227 -420 222 0
-172 302 -475 0
-365 71 -99 0
279 159 317 0
314 101 421 0
6 -425 364 0
-50 97 -389 0
-247 -291 -233 0
-476 -348 122 0
-431 470 -191 0
-309 -32 -41 0
70 -174 -272 0
-439 -404 315 0
473 -252 -285 0
-135 -284 -349 0
65 -321 16 0
161 289 -485 0
-309 -166 -242 0
416 -479 194 0
444 434 -22 0
109 497 -482 0
316 443 484 0
369 58 475 0
-379 -186 174 0
104 421 70 0
152 -303 -386 0
-27 -279 410 0
97 372 289 0
-405 -352 -319 0
313 -219 -121 0
348 382 223 0
194 479 -391 0
-100 206 380 0
330 -171 2 0
200 -491 284 0
422 -376 203 0
-10 389 -107 0
-19 178 125 0
77 -234 127 0
31 -129 -459 0
-418 25 117 0
-147 360 120 0
424 172 -483 0
182 -254 -138 0
116 215 452 0
-147 260 438 0
174 -37 198 0
-119 -197 -87 0
-80 -447 -415 0
465 -121 -43 0
-383 479 53 0
253 180 -462 0
-167 288 -411 0
-118 -42 -419 0
-4 340 462 0
230 -12 100 0
-210 174 -276 0
360 -465 117 0
54 62 -391 0
306 -310 -41 0
-128 478 386 0
-284 -18 122 0
-479 -261 -84 0
-147 -9 138 0
-153 324 -94 0
351 366 -377 0
392 -336 -76 0
432 320 -246 0
-92 171 -283 0
-2 -245 -331 0
128 -48 261 0
-414 367 -313 0
-264 46 328 0
-118 -274 -277 0
-44 -404 208 0
-275 339 -320 0
-436 251 -223 0
452 394 471 0
-56 311 474 0
-291 429 330 0
-457 -396 289 0
-126 -136 205 0
182 -244 21 0
-77 13 154 0
372 10 -49 0
243 148 -377 0
-103 235 183 0
-202 -384 439 0
-309 -45 134 0
-348 -438 -444 0
-288 69 -447 0
166 -275 -148 0
246 373 364 0
143 418 -466 0
27 -235 -109 0
343 -460 140 0
-443 67 -183 0
49 -140 115 0
338 -309 450 0
-217 -277 365 0
-447 -267 487 0
-108 -426 -302 0
-30 259 -75 0
95 108 354 0
387 356 -109 0
288 420 379 0
-233 -65 87 0
-456 294 85 0
148 -425 -348 0
-411 495 194 0
-36 -359 114 0
28 -372 447 0
437 31 -3 0
201 61 424 0
-490 139 -304 0
391 -111 -412 0
108 -254 93 0
-68 -315 174 0
242 77 -74 0
-483 -392 374 0
19 454 228 0
-19 -77 -149 0
378 152 217 0
-295 -479 -339 0
325 341 114 0
-315 -496 -142 0
-242 -221 -114 0
-321 -475 -58 0
2 -277 94 0
296 221 -425 0
-7 -472 241 0
-214 350 17 0
-442 -68 427 0
-268 -124 59 0
-145 -491 465 0
9 -217 344 0
-43 -63 168 0
-400 107 163 0
-296 66 -268 0
-473 -245 217 0
-222 -146 296 0
136 434 193 0
-204 -167 461 0
4 -470 296 0
-145 -429 156 0
-394 -109 -49 0
62 199 123 0
-159 -412 365 0
-393 84 -76 0
-216 63 155 0
89 447 -160 0
-55 277 -22 0
-426 462 261 0
-329 232 -259 0
-64 269 408 0
5 412 26 0
-403 96 267 0
-468 -467 -129 0
-61 -55 355 0
288 206 -222 0
-230 269 224 0
-143 367 50 0
377 101 -262 0
-197 -431 -497 0
-249 201 -484 0
476 330 389 0
39 287 -358 0
75 -158 69 0
474 -268 467 0
495 259 144 0
6 -16 -192 0
373 134 197 0
-469 63 189 0
-381 374 -72 0
24 269 110 0
-335 -432 476 0
-488 270 -214 0
56 213 -374 0
-43 54 390 0
56 135 190 0
-332 -344 -52 0
397 26 -485 0
216 188 -220 0
18 286 37 0
411 -267 -238 0
-325 -131 159 0
-215 383 -93 0
-261 -246 -377 0
-349 -404 426 0
155 -313 -339 0
-347 142 499 0
-70 -298 -496 0
403 82 386 0
-255 -327 -80 0
243 90 -192 0
-198 -491 -300 0
-362 351 422 0
-125 267 150 0
475 335 456 0
336 289 -223 0
-159 -264 234 0
100 150 302 0
-78 -407 271 0
407 59 -349 0
185 33 -119 0
-280 -262 439 0
-170 -271 -460 0
-422 -136 -120 0
-85 -369 -112 0
348 285 -128 0
-331 419 341 0
-172 376 195 0
-414 264 452 0
409 -362 320 0
-9 484 -171 0
273 60 -141 0
-397 -223 305 0
-54 -488 228 0
-309 -280 224 0
101 259 198 0
180 481 -308 0
-493 -37 137 0
442 12 -282 0
-199 -330 -498 0
-65 453 -36 0
-438 350 -103 0
-89 214 329 0
-351 -279 184 0
474 187 -312 0
-278 419 299 0
-26 331 -175 0
221 266 334 0
-315 -287 -352 0
-157 -425 -22 0
-364 -295 366 0
-82 -353 234 0
-290 -314 171 0
-74 92 -300 0
96 9 -132 0
-236 -75 -33 0
-361 -300 408 0
139 367 -193 0
-72 394 273 0
-125 -253 83 0
51 -293 187 0
-349 -332 102 0
26 386 282 0
-65 220 -143 0
-290 -153 -485 0
408 331 -26 0
-383 456 -237 0
491 -150 328 0
220 -65 254 0
18 -487 -119 0
465 427 -54 0
-234 376 -442 0
-61 -80 -10 0
-276 -453 108 0
445 -300 56 0
-132 -441 -428 0
311 202 -7 0
-15 121 86 0
-44 -186 -251 0
440 53 392 0
272 -238 270 0
210 84 -332 0
316 -108 223 0
-322 -135 422 0
92 -320 245 0
-225 -491 -131 0
-105 -194 -349 0
-5 98 272 0
-124 -354 169 0
-467 -296 -271 0
419 473 307 0
208 349 -200 0
-356 -35 148 0
-346 406 342 0
-313 -71 -246 0
-149 282 -349 0
-447 -94 366 0
-82 -266 -298 0
-344 27 -38 0
-315 7 -11 0
129 -87 6 0
-310 160 -218 0
1 364 163 0
-345 -378 189 0
118 -156 423 0
318 450 -149 0
468 1 452 0
-433 -341 -114 0
138 337 -213 0
479 -238 -145 0
332 393 385 0
-135 -391 263 0
144 221 -171 0
318 -378 -52 0
-234 456 -380 0
-446 383 382 0
-500 238 448 0
-118 -366 45 0
317 -38 110 0
-4 -176 234 0
310 -40 -389 0
-15 155 3 0
-358 55 252 0
104 374 165 0
107 -81 -245 0
148 404 -82 0
-264 -355 237 0
4 1 -281 0
-458 -423 29 0
-155 -84 -189 0
-447 -363 397 0
-488 495 7 0
342 -334 -420 0
-440 -203 400 0
340 210 81 0
133 -412 431 0
214 -397 -189 0
188 426 -64 0
383 -190 -356 0
-97 98 334 0
-16 -467 -87 0
-339 253 148 0
-442 -203 457 0
259 57 -113 0
-356 261 197 0
215 -205 441 0
214 -46 -218 0
-126 418 -146 0
-291 -29 469 0
227 175 -436 0
481 28 178 0
-172 84 -295 0
492 225 461 0
-98 -456 -340 0
-397 -286 -236 0
79 -210 -184 0
110 -124 -446 0
396 -121 142 0
174 233 109 0
-417 499 340 0
-125 398 -101 0
75 61 1 0
93 366 356 0
442 460 43 0
-251 -331 -455 0
-237 -172 -132 0
-338 -482 -166 0
148 404 -453 0
-21 -185 309 0
-273 471 -424 0
-44 -455 461 0
71 -467 12 0
-435 -151 131 0
437 369 358 0
284 -88 338 0
-293 62 -317 0
102 32 -491 0
-395 -283 197 0
131 -73 493 0
52 -181 490 0
19 -332 -62 0
72 -384 -243 0
165 -400 369 0
-7 418 86 0
250 226 -79 0
-385 77 213 0
-144 -424 -179 0
-53 -275 378 0
258 -198 326 0
-487 348 466 0
-465 46 268 0
-122 154 133 0
-312 -460 -294 0
-180 -367 399 0
197 368 221 0
118 214 353 0
-340 -429 -8 0
-222 -106 -184 0
413 -303 -103 0
124 176 -128 0
-226 48 -279 0
47 -366 314 0
144 346 255 0
-177 345 378 0
269 -72 136 0
444 57 -417 0
61 310 -101 0
-271 -290 284 0
-500 -184 38 0
324 37 -194 0
155 -224 80 0
181 353 100 0
86 -417 -33 0
87 -458 152 0
462 -296 223 0
91 227 47 0
-162 -413 444 0
371 417 -60 0
152 221 -418 0
-313 500 245 0
-362 330 44 0
192 -274 -394 0
441 11 -3 0
422 -374 445 0
476 -51 382 0
-23 306 -302 0
64 496 482 0
-242 73 -469 0
-174 -457 -143 0
-276 189 -76 0
398 -314 -140 0
-116 -8 386 0
185 -243 92 0
255 -268 51 0
147 409 116 0
-6 145 74 0
-474 66 -168 0
-338 -77 -217 0
437 -346 -263 0
-39 20 97 0
124 238 109 0
448 -1 -121 0
22 -128 -359 0
-274 -62 -22 0
258 181 -196 0
27 340 -165 0
-496 263 -148 0
-81 -242 339 0
-126 479 11 0
-213 51 -206 0
-147 155 452 0
-116 -426 433 0
112 -248 -300 0
-85 -209 463 0
-430 61 -182 0
4 -379 139 0
-294 175 -248 0
-395 140 209 0
-320 -20 43 0
201 90 265 0
-259 367 112 0
371 -25 102 0
-391 -267 -390 0
-134 118 369 0
416 187 171 0
-5 -338 295 0
-261 -414 208 0
305 -248 139 0
436 449 -446 0
-183 86 368 0
241 -371 -152 0
-413 -462 -142 0
-80 142 490 0
-263 -104 -250 0
-221 42 212 0
-96 134 300 0
-425 208 -448 0
-103 -216 -14 0
194 -175 -389 0
297 -175 400 0
440 -449 468 0
381 -393 289 0
74 -422 -22 0
-352 -476 260 0
480 -78 -266 0
-18 305 -493 0
-221 156 494 0
-27 -245 -3 0
367 356 425 0
468 437 -446 0
92 235 139 0
61 -182 -275 0
-131 214 -373 0
337 218 101 0
-457 399 129 0
101 -443 -116 0
302 -406 -199 0
109 436 -29 0
155 -439 -471 0
-264 -271 316 0
270 263 424 0
276 -30 -294 0
461 -64 -476 0
255 387 221 0
99 -86 240 0
106 3 419 0
431 -111 110 0
368 149 -327 0
-375 -274 -380 0
-59 -61 426 0
-69 -93 129 0
146 -50 -268 0
-266 -8 175 0
395 30 -141 0
-248 -316 -352 0
284 73 -454 0
11 -36 -4 0
24 -22 228 0
-428 113 -65 0
-314 194 -57 0
-415 114 -47 0
-372 60 320 0
-320 -264 438 0
172 -57 423 0
-333 -106 -388 0
-266 -349 208 0
-6 75 -204 0
-498 61 86 0
24 -103 -69 0
87 65 -265 0
-271 327 -407 0
-392 261 335 0
327 -483 -284 0
-349 -213 -453 0
-203 447 -419 0
427 218 -389 0
28 363 -300 0
-469 72 -473 0
-224 246 341 0
-412 -409 -282 0
-84 -376 -1 0
-269 7 -258 0
-371 -223 -115 0
-392 377 410 0
-456 -53 -170 0
-322 -28 482 0
-197 145 354 0
-431 452 -214 0
-384 -352 -60 0
-428 -128 281 0
-141 -210 495 0
-128 -106 -492 0
248 149 -497 0
24 -344 308 0
208 -241 134 0
116 -34 294 0
86 409 94 0
-73 -246 467 0
-23 -211 -90 0
414 455 -200 0
-290 160 402 0
31 -242 -279 0
129 -470 296 0
-145 -102 -187 0
199 -438 -201 0
-333 -373 -23 0
37 -467 342 0
-365 90 -62 0
-120 319 285 0
-229 -475 -1 0
-391 -15 393 0
380 477 -299 0
154 211 460 0
477 316 498 0
-351 477 216 0
-199 -271 -213 0
166 -29 76 0
8 -60 176 0
376 -197 -290 0
-46 -39 -432 0
431 269 27 0
-69 -79 40 0
200 171 398 0
344 454 308 0
46 -380 -36 0
177 -150 54 0
-113 -369 8 0
-492 -398 -435 0
199 451 -166 0
412 97 157 0
-153 -282 -349 0
334 -28 78 0
130 -32 406 0
44 -52 -145 0
-97 -201 -184 0
352 263 -423 0
-96 15 123 0
262 -113 239 0
-428 -67 -8 0
373 -216 -280 0
-447 83 212 0
30 313 189 0
-109 380 -398 0
229 -397 -81 0
-135 -152 -79 0
-244 -75 375 0
-464 -9 -269 0
-455 -463 -413 0
-13 -445 289 0
395 335 -273 0
171 31 -427 0
-264 -289 345 0
-77 452 -366 0
-159 -103 97 0
159 148 52 0
-316 496 468 0
-338 -131 -272 0
-212 -55 174 0
-396 481 451 0
-89 -331 -278 0
-458 -44 -226 0
321 -205 -491 0
-59 274 -343 0
-297 268 136 0
151 31 -421 0
173 123 -407 0
-460 248 -66 0
-5 490 375 0
149 -300 -174 0
-481 -150 339 0
334 -252 168 0
-407 -465 479 0
-63 454 -470 0
259 -444 -392 0
423 -40 -265 0
441 362 77 0
-195 291 432 0
-185 186 -379 0
309 111 22 0
109 -311 -446 0
-62 442 213 0
-459 -123 44 0
-231 -202 -257 0
226 -339 418 0
445 -416 -16 0
-438 -241 -54 0
405 -171 -257 0
133 -433 -288 0
294 -381 -389 0
-491 -69 -153 0
98 -390 266 0
-213 -328 -85 0
-249 145 -344 0
-100 -347 483 0
393 -122 -400 0
99 -13 33 0
174 -425 -436 0
-149 179 -4 0
413 -257 263 0
300 -397 -280 0
-160 -10 431 0
-392 16 289 0
-170 -254 107 0
316 13 -281 0
-407 428 -306 0
-111 -355 -475 0
289 70 173 0
243 59 182 0
-32 -293 -330 0
-102 276 -4 0
-383 180 -33 0
349 -113 -256 0
12 -484 -263 0
-39 466 106 0
23 -108 -284 0
219 -182 -255 0
-313 -187 176 0
-339 -470 -400 0
12 -236 378 0
-366 -186 274 0
182 144 -412 0
-32 -225 -499 0
-110 -177 287 0
-221 -297 190 0
-490 379 355 0
-156 -281 -460 0
357 294 -140 0
-241 97 -42 0
-223 30 -295 0
-294 -162 -488 0
294 -197 -10 0
-98 -366 -105 0
104 119 299 0
454 -32 79 0
-160 76 -481 0
-208 108 -188 0
193 -16 191 0
141 -279 -343 0
-255 -45 458 0
94 64 -469 0
-380 350 -384 0
-424 264 161 0
19 -55 -207 0
146 316 -46 0
428 -337 33 0
-247 -425 -414 0
165 -398 -90 0
-433 217 -400 0
-229 -107 -307 0
-229 418 -20 0
-399 236 -451 0
-355 -307 -263 0
194 -40 -181 0
250 -235 64 0
-415 -115 256 0
-351 -491 -443 0
-386 411 189 0
221 -388 64 0
-372 -491 250 0
-321 315 -152 0
-482 494 -252 0
297 -172 -4 0
484 -437 201 0
387 23 463 0
275 -290 -313 0
-92 -370 146 0
333 -167 420 0
209 -255 29 0
-182 373 -230 0
464 250 375 0
160 294 333 0
131 374 473 0
327 -247 62 0
-360 -440 124 0
343 -38 33 0
-42 285 104 0
-456 118 -11 0
-34 233 -30 0
390 -96 79 0
9 -476 478 0
346 -480 302 0
-465 365 -255 0
-413 119 385 0
277 278 147 0
-374 264 -158 0
-325 282 271 0
182 398 -378 0
-119 50 205 0
104 -129 429 0
-375 -374 312 0
-391 370 282 0
76 384 303 0
388 -65 -182 0
323 -132 23 0
-276 -442 432 0
396 313 23 0
105 244 -326 0
265 461 -31 0
306 366 -222 0
-277 387 400 0
56 -403 -60 0
-254 340 -371 0
-463 -458 -409 0
-282 133 -351 0
-88 18 372 0
-464 -234 -71 0
85 -165 75 0
94 -114 265 0
-91 143 -273 0
397 424 13 0
485 -462 268 0
376 -156 -326 0
-10 277 387 0
379 241 -397 0
-477 75 89 0
404 177 473 0
142 301 -189 0
210 168 247 0
-336 206 349 0
-8 493 263 0
413 -387 320 0
364 25 112 0
-359 -34 122 0
-176 332 58 0
-90 400 -404 0
250 -368 -354 0
43 -259 153 0
-396 -23 138 0
378 -163 295 0
463 464 -203 0
479 332 -278 0
-360 16 -226 0
-228 -254 -282 0
-401 -417 -259 0
426 239 407 0
-354 208 -18 0
-133 303 329 0
-221 -448 76 0
-401 91 -49 0
-327 -137 112 0
-486 -8 -104 0
-162 410 -189 0
-5 -213 352 0
-65 -402 99 0
-134 437 22 0
469 -308 -68 0
-435 -443 -20 0
-319 -19 -122 0
115 -15 -165 0
484 -414 -389 0
-464 345 21 0
82 319 448 0
-197 160 409 0
-5 -214 -294 0
-140 408 304 0
287 45 -477 0
-343 70 305 0
-284 425 -220 0
428 -415 -242 0
214 -425 331 0
135 334 392 0
-314 304 -58 0
-116 -212 -386 0
-211 474 -283 0
-382 -379 125 0
-239 57 -267 0
118 -356 -246 0
119 -410 329 0
-402 -277 44 0
-181 429 367 0
288 -73 414 0
-52 416 -235 0
117 474 -180 0
-4 123 431 0
-242 231 216 0
-17 -162 480 0
-172 94 -269 0
453 169 143 0
-289 -202 172 0
-438 211 -454 0
298 -289 -380 0
-167 431 129 0
92 -439 -481 0
245 -205 490 0
-475 -215 42 0
366 41 46 0
291 95 342 0
-39 -179 363 0
-222 -414 329 0
-342 148 -159 0
-327 -96 291 0
293 56 -427 0
308 164 -100 0
-109 -186 425 0
-59 -158 -196 0
302 -495 476 0
449 401 422 0
448 313 -239 0
352 277 -73 0
-500 298 288 0
281 245 -416 0
-161 178 -61 0
-61 -68 -431 0
229 -140 -197 0
477 305 151 0
462 199 -422 0
-307 206 137 0
-66 -340 171 0
462 -168 94 0
126 198 -200 0
-472 -494 75 0
-219 469 308 0
-174 -214 136 0
455 106 -392 0
-304 117 -164 0
-361 315 268 0
-369 -403 -145 0
-63 -409 341 0
-35 266 -263 0
385 324 431 0
-241 -129 437 0
-434 -80 -52 0
-180 -84 -309 0
-411 -157 -203 0
-456 33 86 0
-354 -178 64 0
491 407 469 0
251 -253 393 0
-30 81 199 0
-352 366 289 0
429 -342 245 0
413 -421 -268 0
-283 -63 -430 0
-428 499 240 0
391 -64 461 0
149 223 -418 0
121 317 369 0
-351 359 64 0
401 -351 -311 0
369 279 475 0
-54 286 -233 0
-390 -388 131 0
485 -446 -386 0
311 390 34 0
446 -254 -119 0
466 154 224 0
402 -431 -390 0
-129 145 245 0
65 220 -289 0
364 -80 317 0
94 411 -475 0
-143 -467 332 0
-339 -18 -367 0
242 227 -40 0
-270 334 115 0
86 398 -274 0
282 -418 -214 0
336 -32 -59 0
-251 -21 250 0
-31 -444 403 0
442 -403 19 0
497 120 -351 0
-104 -52 -41 0
-376 66 222 0
332 361 29 0
419 164 338 0
-235 -412 -133 0
150 -237 249 0
-234 -204 -158 0
21 373 3 0
26 91 -404 0
-97 -60 -409 0
-115 163 214 0
-266 -386 -415 0
-68 -32 39 0
266 -434 454 0
-174 -45 367 0
-287 -216 -105 0
373 -494 -415 0
145 -91 -11 0
469 210 -277 0
-284 148 60 0
-221 -43 192 0
27 -78 -95 0
86 111 288 0
-70 -309 232 0
-456 -73 -188 0
476 -373 -411 0
-63 -329 227 0
-97 -48 -113 0
9 74 416 0
-64 207 324 0
-26 4 269 0
-18 -189 427 0
349 -467 21 0
-23 -453 146 0
-162 107 471 0
79 -418 -354 0
-221 -264 -239 0
-255 -387 -198 0
422 -36 -296 0
-434 -428 -48 0
-316 -175 -118 0
325 478 369 0
-351 -34 -114 0
-42 402 449 0
-448 -383 93 0
-168 226 -306 0
-366 462 357 0
406 -493 -22 0
114 -154 350 0
362 -296 -248 0
75 246 376 0
-297 -452 -195 0
-86 -87 -484 0
-30 81 -3 0
-44 348 478 0
-248 43 394 0
-442 -85 397 0
480 -398 329 0
188 -311 244 0
-360 -253 -348 0
-167 -89 20 0
-326 -296 -144 0
-171 484 -174 0
-360 193 337 0
-251 80 329 0
309 -158 236 0
384 -206 30 0
474 -161 385 0
-420 -236 301 0
500 16 -249 0
-261 -205 142 0
-450 -10 -124 0
390 266 218 0
68 36 420 0
-203 -70 -309 0
167 289 -42 0
235 -460 -368 0
372 163 489 0
-247 -267 242 0
479 141 -140 0
162 -294 -197 0
-239 311 402 0
-139 -500 150 0
108 101 23 0
-365 -485 -273 0
-103 -184 -221 0
-59 -107 -164 0
-145 -305 288 0
-92 -411 -422 0
130 46 124 0
-365 -284 10 0
296 272 -95 0
312 269 492 0
-29 -372 -99 0
321 95 -166 0
-454 -271 -215 0
488 499 61 0
-175 487 -479 0
319 146 -103 0
296 -111 12 0
-205 -161 -29 0
423 -284 -305 0
163 359 328 0
482 456 -57 0
219 74 382 0
388 -126 -349 0
452 -467 -189 0
-122 227 185 0
338 -362 283 0
-71 327 68 0
-372 -452 24 0
461 297 -57 0
193 -61 -261 0
498 -468 251 0
-298 105 255 0
-291 -132 -224 0
277 437 483 0
-161 445 -428 0
392 41 401 0
-455 85 -432 0
-289 107 384 0
309 350 -66 0
213 11 472 0
265 277 127 0
-231 -51 239 0
377 -175 -290 0
-147 7 152 0
-333 -68 140 0
-99 233 408 0
261 231 372 0
-328 -200 -333 0
28 -145 308 0
228 -265 -203 0
111 329 -380 0
-61 -450 -247 0
-484 471 455 0
-122 -296 -8 0
-325 -62 143 0
417 6 395 0
356 -451 442 0
415 121 -177 0
-438 -89 473 0
13 -268 118 0
69 18 218 0
-18 122 101 0
316 106 498 0
-93 141 -429 0
-451 118 -308 0
139 -310 -185 0
363 398 198 0
473 141 451 0
-494 -226 424 0
258 279 -222 0
273 310 -324 0
107 -450 -300 0
340 387 -242 0
-495 381 -6 0
489 204 333 0
-94 -315 128 0
447 -118 -72 0
-423 -364 -23 0
-195 175 -250 0
-220 -265 254 0
-97 279 498 0
225 115 -119 0
98 -347 -70 0
-205 263 397 0
-189 -470 -23 0
31 26 298 0
287 110 158 0
-95 -387 -62 0
-214 -287 -297 0
-353 -423 -329 0
-144 371 2 0
287 105 432 0
-257 472 -316 0
-303 -499 357 0
-358 99 -384 0
-256 474 -48 0
286 358 -481 0
223 -357 27 0
-126 -253 -345 0
-119 -226 280 0
229 297 -461 0
-333 -299 497 0
-316 124 348 0
-90 -465 -182 0
193 243 206 0
-419 -278 -249 0
-230 -224 -380 0
5 -490 -69 0
-319 -390 -115 0
403 461 -129 0
93 367 340 0
160 -23 -300 0
394 264 201 0
163 -311 86 0
-276 -18 145 0
216 21 -151 0
-278 -464 8 0
-485 219 -370 0
255 7 -307 0
-201 230 -209 0
406 78 -192 0
-183 -461 141 0
-274 -496 66 0
405 470 -159 0
438 251 308 0
-300 91 438 0
-354 252 -150 0
300 -82 -187 0
-377 -29 -445 0
121 -194 304 0
401 -303 -373 0
6 -407 49 0
485 -360 182 0
-253 -409 -307 0
-391 73 368 0
-248 -170 -112 0
-179 -61 -469 0
-56 -17 -229 0
236 395 418 0
148 -241 -402 0
-66 -187 249 0
-67 -357 34 0
403 296 -240 0
224 -114 2 0
204 -33 235 0
-13 -346 -416 0
-471 284 -268 0
-232 245 -272 0
-62 149 383 0
495 -415 -331 0
494 298 49 0
34 431 336 0
-410 -167 -176 0
-72 -389 280 0
-435 -475 -272 0
296 -468 146 0
402 -46 -299 0
-313 440 -2 0
372 -352 477 0
-180 -498 -55 0
-112 -142 20 0
-448 -108 434 0
263 -487 -444 0
-368 -202 498 0
138 -466 -156 0
-53 255 328 0
-355 -253 -46 0
-232 -280 -410 0
-342 -13 -99 0
-313 61 -496 0
137 -354 -445 0
-390 -497 474 0
-335 -439 -273 0
1 483 343 0
-355 -6 70 0
-456 -67 -295 0
326 -85 -280 0
-88 478 396 0
-340 -8 303 0
-136 205 -329 0
325 124 165 0
257 272 -244 0
44 -47 308 0
-230 -314 -43 0
440 417 7 0
245 -344 -93 0
79 51 -132 0
255 499 -398 0
-465 -80 -21 0
88 350 -425 0
76 72 -3 0
-421 209 37 0
-55 -109 341 0
-298 -460 -58 0
388 -370 -185 0
40 -400 53 0
-376 -136 -359 0
164 190 -8 0
168 -226 351 0
371 130 -263 0
-329 -361 -30 0
-143 216 -342 0
100 479 -259 0
-234 294 -96 0
398 421 -497 0
354 149 -337 0
297 363 -177 0
176 -247 39 0
-477 76 180 0
-450 -270 276 0
118 354 -431 0
-75 -489 -465 0
-189 -177 349 0
-183 -399 334 0
154 268 -189 0
228 -184 -296 0
-278 479 486 0
-301 -30 180 0
-449 -164 456 0
10 -367 57 0
-89 209 4 0
13 -476 157 0
-371 -387 -74 0
6 -254 436 0
-105 377 -433 0
-371 -131 -186 0
19 -452 104 0
-285 208 358 0
304 84 243 0
-434 203 366 0
240 429 -162 0
-381 364 -268 0
-379 -22 412 0
-437 -30 466 0
462 345 -353 0
424 96 257 0
-215 30 77 0
50 -360 453 0
378 -77 -85 0
54 392 -143 0
-160 -94 280 0
160 476 -25 0
-135 156 -164 0
126 319 -256 0
454 389 41 0
-289 18 305 0
371 325 224 0
449 -136 317 0
293 324 265 0
340 -404 393 0
-300 -49 286 0
-45 -453 272 0
-269 11 309 0
165 496 280 0
166 212 258 0
-18 -140 244 0
-420 44 -374 0
-38 -213 -450 0
-375 -208 -462 0
-96 35 425 0
-172 492 471 0
-280 -452 -126 0
-198 172 -179 0
249 379 372 0
-6 206 -422 0
-428 450 -101 0
-411 -267 -262 0
308 -220 399 0
119 -395 351 0
-155 -411 -162 0
314 -370 -17 0
453 264 -384 0
66 -451 -71 0
407 406 484 0
-63 -466 -115 0
-331 175 379 0
-151 443 -447 0
88 197 -234 0
239 426 191 0
22 -234 129 0
-134 288 274 0
266 97 460 0
-355 262 -449 0
-441 -83 287 0
304 -442 19 0
-284 -206 212 0
-410 122 203 0
392 113 -94 0
204 -42 -164 0
422 -19 -206 0
313 -351 -471 0
-296 -200 -412 0
-485 13 -459 0
-14 164 390 0
-39 460 -394 0
108 -305 -124 0
-314 -134 498 0
-211 -459 181 0
-66 -365 -435 0
-12 38 398 0
69 57 -318 0
-83 112 373 0
491 332 -300 0
-130 -458 -486 0
496 58 97 0
79 100 -368 0
331 110 213 0
-349 -295 247 0
-277 -221 213 0
-122 -196 -89 0
462 327 -288 0
-426 16 -412 0
499 238 357 0
-192 420 -491 0
-19 -303 112 0
-406 -26 -245 0
-500 -232 -246 0
-220 500 482 0
314 -279 49 0
-38 495 -2 0
-300 473 -241 0
453 337 -296 0
424 387 -247 0
96 352 -268 0
325 1 -92 0
11 -456 385 0
-203 486 466 0
-68 358 -493 0
-385 151 481 0
53 -382 32 0
313 -156 360 0
112 398 59 0
254 -399 441 0
-463 296 -267 0
-216 -42 -36 0
-217 -67 -132 0
304 279 -161 0
382 378 181 0
-228 13 374 0
-88 -309 -472 0
364 -317 -31 0
233 235 -341 0
367 401 -359 0
368 436 -362 0
455 343 468 0
496 204 -154 0
-307 -45 -389 0
-423 417 251 0
4 -296 67 0
466 -424 -441 0
-113 455 -373 0
-20 -463 -243 0
-356 -357 249 0
-347 15 289 0
384 221 -62 0
-268 -255 245 0
449 -399 261 0
-146 200 135 0
118 -307 -242 0
413 282 -105 0
211 210 -12 0
354 -316 -277 0
-50 236 246 0
-273 -6 214 0
-442 382 47 0
177 332 -287 0
-63 129 84 0
-328 449 384 0
-183 -413 -153 0
-414 -422 -456 0
86 -214 411 0
154 339 -18 0
380 73 298 0
234 359 143 0
372 -116 464 0
-299 61 -97 0
-450 468 312 0
-181 228 -370 0
143 320 -265 0
165 366 -222 0
-441 -391 157 0
102 -126 -304 0
-447 -425 -399 0
-62 -391 486 0
-196 -13 60 0
15 -473 -174 0
-323 -80 -484 0
34 -185 40 0
-454 -357 32 0
-355 -412 298 0
20 -295 473 0
-140 214 -120 0
-282 -36 -204 0
-44 402 31 0
386 -1 385 0
62 377 363 0
-435 -337 49 0
426 289 326 0
-302 -125 -229 0
-383 -284 -339 0
142 -220 -457 0
149 -444 341 0
153 -325 -385 0
353 200 350 0
70 -101 142 0
157 -228 486 0
-62 383 188 0
334 433 172 0
-492 238 -119 0
-137 142 166 0
489 73 266 0
385 193 -246 0
-403 -110 -25 0
112 -398 -329 0
456 -341 290 0
418 499 -346 0
-275 381 -152 0
445 -364 -356 0
-114 -465 453 0
-356 -70 81 0
44 474 -416 0
463 337 220 0
487 -405 432 0
399 -67 -46 0
-42 372 -206 0
-281 430 134 0
-170 -461 201 0
-365 -412 -187 0
182 -148 49 0
-483 -205 60 0
-162 -100 203 0
124 195 490 0
-74 45 69 0
161 452 -103 0
-102 235 147 0
469 115 484 0
100 275 -230 0
276 161 253 0
41 -415 466 0
15 365 -55 0
468 14 462 0
289 283 -374 0
209 -101 -336 0
450 -112 -259 0
410 -463 -312 0
169 14 390 0
-376 249 -39 0
283 -488 101 0
-156 291 185 0
137 349 -386 0
-401 -185 -417 0
220 -316 -43 0
295 -95 -414 0
-371 -199 -187 0
-313 377 -162 0
-314 -436 113 0
-15 311 34 0
-109 118 381 0
257 17 296 0
-46 104 270 0
-376 234 -430 0
-126 -475 430 0
-483 -271 -233 0
279 -298 -407 0
68 -139 -46 0
204 -214 -155 0
-462 422 149 0
-317 -14 -457 0
-130 -101 480 0
106 -278 -410 0
-185 -21 115 0
103 -127 -7 0
-275 -67 -344 0
473 -282 -118 0
-105 -308 -316 0
199 393 492 0
-434 -55 -388 0
-111 -307 -264 0
240 123 113 0
-104 310 437 0
-194 -295 268 0
-36 -331 -312 0
-258 -156 246 0
-495 -341 -300 0
-270 23 489 0
92 210 -170 0
-171 275 -452 0
-444 490 -49 0
131 -222 -388 0
-460 -129 -480 0
259 90 -20 0
188 79 25 0
-421 -450 -337 0
-361 258 -372 0
326 87 -304 0
-8 61 341 0
246 -480 458 0
108 -335 90 0
-78 -435 364 0
455 329 -356 0
-196 -285 51 0
268 159 -53 0
480 -60 178 0
-104 -260 -479 0
-87 367 -209 0
-473 90 -321 0
350 -309 -24 0
-289 -134 -191 0
75 -174 -315 0
-253 -228 -306 0
-84 -230 431 0
-26 34 366 0
365 -460 -224 0
-61 229 23 0
270 -312 329 0
-186 351 -474 0
340 -173 -412 0
-117 -426 416 0
488 -237 -119 0
268 405 -78 0
351 -18 -53 0
363 123 10 0
159 11 216 0
160 -498 -44 0
-89 -17 6 0
241 -337 -436 0
179 -202 -398 0
-254 174 227 0
-35 8 -273 0
-143 -93 -185 0
-209 335 437 0
-447 28 112 0
-64 484 -170 0
329 -391 -246 0
195 -292 197 0
129 240 -322 0
-66 426 -425 0
409 -366 -240 0
-365 -54 -141 0
-347 -467 101 0
387 -314 361 0
-500 209 -138 0
143 342 -98 0
-291 496 -249 0
227 52 -483 0
395 24 -294 0
385 196 258 0
-90 -350 -363 0
403 -217 -391 0
374 -101 -404 0
142 -30 311 0
297 -406 -326 0
196 -360 -6 0
-12 -353 -168 0
286 59 -63 0
267 203 103 0
-222 207 482 0
-169 -149 -367 0
-436 201 -61 0
278 -57 -90 0
-228 -290 110 0
370 -428 341 0
-263 143 124 0
-225 -88 -136 0
-413 -128 296 0
-320 236 460 0
-9 361 455 0
362 259 -167 0
63 364 -82 0
-467 456 -406 0
-185 -75 356 0
-266 -313 150 0
-323 154 155 0
451 -476 500 0
266 -445 387 0
-245 -221 -215 0
134 71 -140 0
-174 409 -167 0
109 178 -175 0
-103 -300 -268 0
160 -472 235 0
442 -185 -86 0
303 468 243 0
-303 -20 200 0
-36 -401 396 0
-157 -151 488 0
-232 -398 -122 0
408 -24 57 0
-293 230 -33 0
48 303 493 0
-190 381 439 0
304 -495 496 0
4 -247 367 0
381 437 -139 0
290 -268 190 0
-455 336 -432 0
89 458 -148 0
112 -309 109 0
422 -256 41 0
485 -39 -219 0
424 -292 -183 0
56 -267 -418 0
-199 279 323 0
437 494 -157 0
-327 -410 -417 0
-483 225 308 0
197 -416 -259 0
-68 424 18 0
-317 -425 -227 0
473 -37 -127 0
-49 402 20 0
-446 -456 -180 0
330 10 188 0
210 43 200 0
56 301 400 0
327 275 317 0
-385 -369 -410 0
54 -329 458 0
241 127 426 0
-222 -122 -85 0
-378 -430 -474 0
-63 -194 -150 0
110 172 -470 0
-364 468 19 0
395 -255 1 0
-24 335 -463 0
-145 -48 -409 0
310 -246 -23 0
-241 469 -401 0
35 315 -426 0
-287 -381 -260 0
31 -387 -161 0
-110 206 -443 0
128 240 -195 0
-303 28 -404 0
-68 -164 398 0
-328 188 496 0
247 284 477 0
26 319 -306 0
-364 399 187 0
-485 221 -25 0
-482 419 296 0
-88 448 -462 0
-418 452 297 0
97 126 -450 0
-70 -191 287 0
158 -290 -256 0
-189 -370 252 0
-152 394 -425 0
-216 -396 440 0
84 -42 263 0
467 158 460 0
-95 -358 106 0
-458 -80 -147 0
316 186 -293 0
127 -418 28 0
418 411 -343 0
-459 140 -276 0
49 -57 -233 0
107 440 447 0
216 119 253 0
-66 -92 -187 0
433 149 252 0
21 330 376 0
-279 -245 -290 0
240 -105 -46 0
-347 -373 -196 0
484 160 -39 0
-303 332 403 0
23 -160 407 0
378 -467 -260 0
-402 181 -439 0
-142 64 -91 0
316 -47 225 0
-48 449 -447 0
-192 -256 -367 0
2 -433 173 0
-48 333 243 0
-101 -203 98 0
476 -247 439 0
359 445 -253 0
-385 175 485 0
-12 466 257 0
-96 -79 417 0
44 -282 -245 0
410 81 -399 0
100 390 -187 0
-279 291 190 0
327 -12 -438 0
417 -142 -436 0
240 8 -439 0
429 187 -278 0
128 356 -363 0
189 95 495 0
-14 135 -245 0
417 -422 427 0
-462 146 -343 0
176 -92 -330 0
89 -227 117 0
146 -209 -91 0
468 -80 200 0
142 -419 -145 0
-150 209 -464 0
327 109 -138 0
-91 264 112 0
-254 -479 473 0
-122 -415 148 0
-209 72 -300 0
492 -78 383 0
200 23 -397 0
193 -237 358 0
-193 -49 259 0
-67 -405 268 0
40 -416 343 0
-303 98 256 0
-159 342 140 0
216 -276 -131 0
-374 132 -57 0
-194 214 -54 0
50 484 -46 0
-141 -71 325 0
-78 56 -473 0
-105 -407 -227 0
-139 358 165 0
-226 182 -322 0
-141 -463 465 0
290 -279 362 0
-253 -313 -206 0
271 123 389 0
-17 -463 -274 0
-375 -1 383 0
-13 358 31 0
-446 -135 -415 0
492 -317 -95 0
-215 16 251 0
79 -80 -51 0
262 -281 -84 0
291 357 -14 0
404 168 -220 0
88 -426 -293 0
439 -247 51 0
113 103 183 0
-298 411 -17 0
-113 405 167 0
40 102 -275 0
-57 -36 286 0
-60 164 225 0
340 -421 -299 0
-389 -208 290 0
479 141 115 0
-89 -348 134 0
-339 -122 363 0
-262 -133 182 0
279 61 -217 0
-456 -427 326 0
110 492 -350 0
397 -150 187 0
243 -237 -166 0
333 251 -370 0
377 -3 428 0
-252 10 36 0
221 -264 -10 0
-166 454 -153 0
41 -325 386 0
194 -474 239 0
-65 -56 376 0
302 140 -116 0
-214 -132 -126 0
-294 -325 -221 0
357 -326 99 0
236 -48 358 0
-468 100 -186 0
100 47 39 0
239 -102 -143 0
105 -425 347 0
344 22 432 0
-127 69 -431 0
-131 -239 -81 0
57 -35 -79 0
-10 -484 240 0
-34 21 83 0
-426 -439 198 0
440 -219 -195 0
63 -142 473 0
-234 33 491 0
215 -475 142 0
-471 226 -255 0
180 -211 -91 0
-81 -49 -468 0
414 17 392 0
129 166 -203 0
98 -455 221 0
54 -161 -111 0
-489 315 177 0
-454 -471 -88 0
-113 256 369 0
-107 177 187 0
-148 -270 127 0
-299 -427 264 0
-137 -240 -474 0
462 -485 261 0
436 440 342 0
465 -331 -29 0
