p cnf 200 960
-66 97 -24 0
169 113 -67 0
177 68 144 0
47 25 83 0
85 67 179 0
133 -110 96 0
82 -129 -19 0
162 -94 -41 0
57 -116 192 0
-72 -166 -90 0
64 -144 12 0
-91 -157 28 0
-33 63 -51 0
-6 -196 -197 0
106 164 -2 0
35 78 179 0
102 -142 16 0
112 170 -90 0
8 45 68 0
183 56 69 0
-103 -173 118 0
-176 -146 -147 0
-114 -144 -60 0
-58 149 -96 0
-106 -110 -99 0
-95 194 32 0
-199 11 165 0
44 -35 -185 0
128 106 1 0
108 11 -181 0
179 -67 -153 0
133 -114 97 0
117 -37 130 0
105 -142 -43 0
-109 183 -147 0
145 -22 -12 0
40 111 -187 0
57 198 24 0
-74 200 78 0
150 152 20 0
-79 174 84 0
125 -13 -114 0
128 -200 47 0
-164 117 -53 0
-157 28 -108 0
-188 -93 -139 0
153 -6 102 0
151 -168 -37 0
166 -94 194 0
116 -126 -95 0
-63 -157 -49 0
-40 -61 18 0
-35 160 141 0
-115 -174 159 0
-45 -41 -57 0
-116 123 1 0
20 -194 -155 0
-43 -145 -24 0
-73 84 71 0
86 -6 9 0
-61 -142 -155 0
137 -134 128 0
-162 110 -23 0
200 -117 146 0
143 -119 -144 0
-172 116 67 0
135 -13 -162 0
42 -135 -17 0
-94 -55 148 0
154 46 116 0
-23 -155 158 0
44 -105 -174 0
-19 95 48 0
-95 132 -77 0
-135 67 -164 0
144 -54 -7 0
-178 90 71 0
63 69 2 0
187 -5 118 0
37 110 -144 0
10 -30 -22 0
-191 178 48 0
-124 -52 95 0
10 75 31 0
-171 26 100 0
-116 26 -48 0
180 100 41 0
-17 -148 -126 0
-43 -26 -194 0
-60 -187 152 0
-38 102 -124 0
46 -97 -173 0
-99 -22 12 0
14 29 -43 0
85 -18 -33 0
16 -142 149 0
-157 131 122 0
78 80 -145 0
-12 1 -20 0
-64 95 60 0
-149 -96 134 0
188 123 -37 0
-164 77 -93 0
194 -35 -150 0
71 44 -39 0
-112 119 -36 0
2 -32 -178 0
194 110 179 0
-97 -98 196 0
195 -95 -115 0
-72 -143 -166 0
-199 -27 155 0
-20 -42 -60 0
-152 62 -196 0
175 12 -104 0
111 -63 -169 0
75 179 -21 0
-138 -112 -23 0
90 200 -62 0
56 -21 39 0
134 -76 130 0
98 83 70 0
8 142 -43 0
176 39 114 0
-41 -21 123 0
12 -200 -15 0
141 165 20 0
132 3 -44 0
24 62 179 0
127 -122 -91 0
185 -100 -200 0
56 -107 -192 0
16 -86 62 0
-184 -147 32 0
149 -120 34 0
-118 90 -22 0
16 -123 -132 0
101 164 -151 0
-30 141 -186 0
-60 166 -27 0
69 118 8 0
-9 152 -133 0
103 189 -156 0
191 -70 27 0
-101 184 171 0
70 -142 149 0
-145 -124 -186 0
129 -26 34 0
-38 60 36 0
81 -10 3 0
116 197 148 0
67 93 -85 0
-157 152 118 0
63 160 155 0
50 1 70 0
-79 93 69 0
-149 78 -195 0
-1 160 190 0
-71 45 -17 0
9 78 128 0
98 -115 180 0
199 109 -178 0
152 -182 93 0
12 -129 -28 0
-55 -76 -41 0
188 -52 -122 0
142 -71 -162 0
-80 -42 -135 0
-75 74 54 0
-71 117 73 0
-107 163 -109 0
36 152 -194 0
15 -34 163 0
-36 -163 -174 0
8 -170 -88 0
63 91 -43 0
131 199 -168 0
45 -52 -165 0
57 79 7 0
154 -141 180 0
-146 156 -195 0
69 -186 -16 0
-112 -65 85 0
174 142 -67 0
-133 -33 -15 0
155 -38 181 0
164 -4 -166 0
-199 140 -7 0
-166 134 -54 0
-114 200 186 0
189 -126 -49 0
187 -54 107 0
177 130 71 0
-185 -86 -169 0
-70 -16 11 0
79 115 -59 0
-165 172 90 0
122 -174 32 0
-81 -192 5 0
77 -189 -96 0
-46 151 -69 0
-10 43 -21 0
-165 196 64 0
-129 45 159 0
39 89 117 0
-194 -195 150 0
191 97 111 0
37 -91 111 0
-138 25 65 0
-88 -81 151 0
-75 114 -177 0
115 3 -117 0
-149 82 178 0
179 150 -56 0
-121 123 -184 0
-90 119 126 0
53 -56 137 0
65 77 42 0
-186 177 156 0
-75 -66 -63 0
-14 -124 136 0
171 -77 63 0
175 170 56 0
69 -79 100 0
32 -183 69 0
135 -133 68 0
-90 65 106 0
192 70 -5 0
89 74 185 0
-115 -143 -20 0
-45 60 -145 0
41 -159 14 0
15 48 -119 0
189 113 -200 0
-194 -142 -147 0
134 -70 -49 0
-164 92 -145 0
-62 103 13 0
188 46 -42 0
-190 -162 -83 0
-149 131 -85 0
-120 -3 189 0
-138 -183 100 0
-89 -179 -72 0
-196 56 -120 0
41 57 8 0
-151 -36 -73 0
-110 198 134 0
-181 -80 96 0
-98 -138 3 0
-32 78 168 0
-178 -191 31 0
1 105 183 0
185 -71 -101 0
-162 -6 77 0
41 -101 -64 0
111 -138 70 0
185 -62 -127 0
-53 -110 166 0
167 130 194 0
26 92 57 0
69 -123 -48 0
-114 -199 -74 0
132 75 73 0
42 23 -6 0
110 187 189 0
-167 -130 -114 0
-148 -161 149 0
73 -141 -21 0
-151 -145 75 0
-128 68 -1 0
141 -174 96 0
185 -159 147 0
-143 -52 -110 0
175 188 -198 0
-85 -56 169 0
-96 28 -117 0
-172 -95 -56 0
-165 7 148 0
-174 -198 -183 0
-173 -14 -138 0
194 -62 -183 0
-173 113 -75 0
195 118 7 0
55 75 -78 0
119 -111 199 0
44 136 -80 0
112 -64 4 0
157 8 -9 0
153 -90 -27 0
-50 -128 96 0
-34 130 40 0
79 -167 154 0
175 161 32 0
-195 59 91 0
-100 -27 -184 0
9 -96 -22 0
60 97 -7 0
-132 -74 -76 0
-108 -90 -195 0
-31 100 -139 0
91 115 195 0
157 72 -127 0
73 -173 147 0
-27 180 -166 0
12 -172 -40 0
-21 57 -151 0
112 -86 98 0
-108 82 -196 0
4 111 -31 0
-133 52 -148 0
87 160 21 0
-125 -55 148 0
150 -46 196 0
157 137 -144 0
128 -123 -104 0
146 10 -157 0
158 -64 97 0
37 131 25 0
188 104 133 0
195 -63 -164 0
43 136 -74 0
23 -122 -124 0
-10 61 47 0
-195 -89 -36 0
40 190 21 0
-25 23 175 0
-73 133 -153 0
-107 -133 156 0
189 -101 111 0
-151 -198 -42 0
67 -109 -23 0
-5 -111 -149 0
-122 -121 -147 0
140 -3 68 0
141 142 -108 0
38 127 6 0
111 -169 180 0
185 51 -125 0
101 -23 -194 0
-108 76 -169 0
195 -169 -157 0
82 122 139 0
-26 146 -112 0
116 -85 16 0
-75 140 182 0
155 167 92 0
28 -24 -52 0
101 -28 -183 0
-81 -114 -74 0
-141 -104 -77 0
148 -8 -58 0
-161 -32 5 0
-104 9 52 0
-198 -151 44 0
-125 -152 112 0
16 -37 -15 0
35 31 189 0
152 129 -71 0
101 40 -114 0
196 32 110 0
97 11 -25 0
-156 -25 -83 0
14 50 -63 0
3 -54 48 0
-157 -198 23 0
-93 -155 113 0
80 -70 95 0
-115 -131 81 0
-49 -93 126 0
-119 -42 96 0
-7 146 -185 0
182 54 -82 0
96 -146 165 0
145 124 -92 0
-169 194 12 0
167 -92 -199 0
-27 178 138 0
-59 165 38 0
-157 -198 96 0
55 6 -77 0
-20 -79 -7 0
-35 -186 43 0
115 80 197 0
-139 -194 -92 0
-150 -105 -83 0
50 85 -21 0
43 179 52 0
-168 -120 -22 0
-155 33 53 0
-181 -165 70 0
-86 57 -78 0
-63 -187 -72 0
89 177 196 0
-11 131 6 0
184 119 -26 0
118 199 122 0
-69 17 186 0
-4 -23 -67 0
60 -110 -159 0
-11 110 -146 0
-115 -174 91 0
41 -8 -172 0
-183 106 -58 0
78 -171 95 0
-151 -87 -93 0
-40 22 -197 0
-110 65 -73 0
-66 73 180 0
149 -84 145 0
47 -7 183 0
-39 -21 -102 0
-178 195 145 0
-200 -27 170 0
-110 -48 -79 0
64 -85 30 0
125 -81 -186 0
-65 54 -55 0
111 89 151 0
55 19 -56 0
190 12 -156 0
-164 -106 -123 0
171 -115 -40 0
36 -121 86 0
-87 -77 -51 0
-117 156 -144 0
-131 -65 -143 0
-183 -164 -110 0
-10 59 -108 0
27 45 -29 0
71 -49 -144 0
-153 117 200 0
-124 -85 -102 0
-70 140 -130 0
31 141 190 0
-75 158 -194 0
116 87 -165 0
142 -146 -169 0
-171 -60 77 0
-20 185 -13 0
55 130 1 0
74 125 98 0
-66 -104 -175 0
-113 172 -133 0
-98 138 109 0
-142 191 -127 0
154 -47 34 0
-121 115 36 0
115 61 -82 0
-92 109 179 0
-141 140 -74 0
-141 178 -120 0
-4 -79 55 0
82 -123 -54 0
146 -165 54 0
-68 37 -164 0
-92 -120 170 0
108 68 48 0
-103 48 42 0
181 35 94 0
-138 -181 -144 0
-64 61 -73 0
-62 115 79 0
-98 12 -82 0
-120 181 -46 0
137 -85 198 0
34 152 169 0
151 -136 10 0
43 -76 -82 0
-141 139 -136 0
-1 99 -144 0
-104 89 -110 0
-180 85 -187 0
-167 140 49 0
-109 -76 -146 0
-184 -161 85 0
-182 166 -134 0
79 131 -31 0
-187 -96 -121 0
-82 -101 -52 0
-66 150 132 0
141 179 53 0
-180 51 161 0
47 -184 -154 0
-186 -84 173 0
-106 -22 -182 0
186 101 61 0
-57 -98 -194 0
175 194 -133 0
64 -179 -164 0
140 26 -155 0
-180 127 -20 0
78 199 35 0
27 142 -65 0
118 -47 93 0
-176 -92 18 0
107 39 -116 0
44 71 -50 0
-200 21 -124 0
199 171 -169 0
161 -49 -13 0
-122 96 14 0
-133 -46 198 0
-135 -115 109 0
18 -152 -187 0
-81 -61 -90 0
-54 -106 -20 0
-81 158 -78 0
164 51 133 0
-12 -55 182 0
52 1 -162 0
-71 -6 30 0
-99 165 138 0
-48 -47 -195 0
168 -24 95 0
137 -63 51 0
-47 -135 4 0
171 20 87 0
140 28 -128 0
-158 -118 -113 0
1 -148 -42 0
-167 -100 141 0
15 82 -89 0
-150 158 178 0
137 39 127 0
-157 104 40 0
177 -65 199 0
-132 -153 -156 0
-107 137 76 0
-119 -168 122 0
182 -99 -32 0
-116 134 68 0
-123 33 -159 0
-44 -86 119 0
180 17 -63 0
51 -82 -44 0
-60 -77 12 0
-61 178 -17 0
-103 -3 160 0
63 9 -59 0
143 102 123 0
-88 -98 -22 0
-45 -123 147 0
11 -34 194 0
25 -107 -153 0
-197 57 -75 0
156 -55 102 0
148 135 -91 0
-121 -40 114 0
198 -31 -175 0
130 -167 56 0
141 -57 -99 0
-173 192 43 0
-11 -154 -37 0
197 39 -168 0
-88 10 -101 0
200 -164 -131 0
32 26 -28 0
-157 24 194 0
-36 175 88 0
24 -190 61 0
-26 145 -100 0
114 191 96 0
111 18 83 0
-4 5 -180 0
-161 69 -148 0
-162 -136 39 0
-143 157 31 0
44 -140 -11 0
-14 13 -186 0
25 -134 163 0
-61 16 140 0
142 20 2 0
104 -186 138 0
194 12 -64 0
-87 -132 63 0
67 -102 167 0
25 148 -176 0
53 -173 29 0
-57 -191 -68 0
45 -126 -135 0
-29 -7 182 0
-62 137 29 0
-44 121 -186 0
-200 -69 95 0
142 -23 -104 0
-167 155 102 0
9 -101 31 0
-141 -162 -180 0
-108 65 115 0
80 97 58 0
-183 -104 109 0
67 96 -97 0
198 17 -184 0
-193 119 77 0
112 35 -174 0
-41 137 111 0
-119 -142 187 0
-159 -187 -12 0
153 80 -169 0
67 -75 -135 0
-8 97 -198 0
96 -177 43 0
-75 -53 -93 0
166 173 26 0
41 88 -37 0
-78 -162 -198 0
122 -159 6 0
94 -167 194 0
27 -10 181 0
170 -65 -81 0
-1 -19 -15 0
55 -73 125 0
-79 97 157 0
96 -101 -141 0
-1 167 -35 0
9 3 -121 0
154 184 93 0
1 6 126 0
-149 -25 -150 0
-70 195 149 0
98 -196 24 0
21 -45 181 0
-107 -158 -58 0
84 -80 115 0
183 -165 -20 0
-198 155 -188 0
121 -11 184 0
130 89 -48 0
13 27 118 0
-20 13 193 0
-9 -165 -77 0
-194 -127 21 0
-174 119 -5 0
115 2 -162 0
-3 129 -63 0
-25 -188 19 0
-147 74 -140 0
121 139 137 0
-90 -150 85 0
8 -155 -67 0
164 40 -143 0
168 35 181 0
85 -193 116 0
-155 172 -135 0
78 -83 182 0
-15 70 -55 0
11 51 44 0
114 169 -163 0
160 -142 -179 0
-162 -149 49 0
-110 171 -192 0
7 -77 -149 0
-191 170 51 0
-141 -191 143 0
-177 15 -38 0
-12 -62 -57 0
181 134 114 0
174 -164 -133 0
169 166 -196 0
166 136 -164 0
148 -69 150 0
61 100 184 0
69 -184 97 0
-180 -113 -117 0
66 198 -131 0
-182 112 160 0
-127 -131 -99 0
63 168 -47 0
1 158 71 0
35 -65 -186 0
113 73 199 0
33 -69 51 0
-29 -69 -42 0
95 -22 26 0
51 -86 -59 0
-26 184 -172 0
-159 -36 164 0
-172 -163 132 0
-15 -88 97 0
-82 136 56 0
-81 -30 56 0
-60 -95 126 0
98 -168 -142 0
-126 -102 151 0
123 38 86 0
169 180 98 0
-91 133 187 0
-64 141 -169 0
127 79 14 0
-158 20 -34 0
198 -142 116 0
130 68 -124 0
86 43 -192 0
18 -153 50 0
143 -173 -49 0
20 -72 -48 0
180 -11 -178 0
102 -10 -85 0
-24 83 -79 0
32 -195 -187 0
-193 6 115 0
158 164 146 0
151 10 -138 0
77 -199 -150 0
-28 -6 113 0
-79 -122 -22 0
9 -32 21 0
-111 18 -200 0
53 117 -33 0
-172 74 -66 0
24 -22 78 0
-169 -62 59 0
-45 152 91 0
-130 -162 106 0
-41 123 -10 0
76 -187 120 0
-149 -148 -163 0
-61 1 31 0
70 12 -4 0
-20 -93 -167 0
49 -96 -18 0
-105 -1 -190 0
-43 -120 130 0
-187 -2 -68 0
-174 24 140 0
-23 -131 172 0
-170 -197 3 0
-96 164 -112 0
-136 -163 83 0
127 -4 -182 0
-140 47 -60 0
-66 38 185 0
-103 188 110 0
-115 180 128 0
-20 -198 180 0
134 -133 38 0
14 -29 -133 0
-171 191 -174 0
-45 -190 24 0
162 -10 196 0
68 -9 195 0
-122 -14 53 0
12 60 -137 0
86 -8 -160 0
125 -8 -115 0
-102 -122 -195 0
120 -45 -11 0
86 -1 -20 0
-96 -80 15 0
-144 198 183 0
102 33 -95 0
-172 170 111 0
39 59 64 0
107 7 90 0
-25 183 142 0
132 -142 87 0
-155 -198 -88 0
200 -160 12 0
-46 -190 160 0
-100 -121 34 0
38 -67 35 0
141 -182 163 0
155 -184 -199 0
169 27 -174 0
-109 72 66 0
-36 125 56 0
33 -73 -107 0
158 -102 -176 0
-93 -47 37 0
-136 -173 168 0
-125 -165 -22 0
-173 50 -83 0
-86 169 92 0
-124 97 -151 0
-67 -183 2 0
-102 61 132 0
12 -64 -141 0
200 39 38 0
-190 90 125 0
14 95 134 0
53 -79 -148 0
-6 128 -42 0
148 194 -1 0
152 163 -1 0
-139 -129 -170 0
200 -138 -109 0
-61 -179 85 0
43 53 -4 0
28 87 159 0
-96 -8 -46 0
-126 -103 -108 0
163 101 133 0
10 149 -135 0
194 -158 -66 0
22 -87 -99 0
130 -163 57 0
152 117 -14 0
71 135 -79 0
54 -32 -162 0
163 110 -134 0
174 182 -178 0
82 4 -103 0
176 -99 -22 0
-90 -65 -116 0
31 -29 104 0
100 -113 -157 0
-9 113 11 0
-157 -141 92 0
28 23 95 0
-124 -91 -186 0
-16 -31 145 0
120 -134 85 0
120 155 149 0
181 -13 -146 0
177 80 110 0
52 102 -84 0
147 -141 99 0
-146 193 173 0
-57 -182 -32 0
95 12 106 0
-105 73 -153 0
49 -39 -117 0
-123 -134 82 0
137 6 150 0
-1 166 -81 0
-24 148 9 0
79 154 -176 0
92 -80 45 0
-133 -143 -98 0
113 -108 -171 0
155 -9 -152 0
109 -8 155 0
-174 -140 -85 0
-189 -149 -190 0
-109 196 132 0
-37 -20 104 0
131 16 -146 0
-13 91 -18 0
-33 124 -34 0
57 34 134 0
29 -40 -194 0
-165 -126 -195 0
-141 -175 156 0
-147 -135 89 0
123 -174 -65 0
200 -125 -151 0
-177 -164 -179 0
89 -164 168 0
90 1 -159 0
-198 -135 -166 0
76 -91 -154 0
92 135 183 0
55 -154 -7 0
175 -33 79 0
8 -62 -26 0
-54 168 43 0
-73 -57 118 0
133 -189 173 0
-70 -180 156 0
-180 13 19 0
17 71 53 0
148 44 93 0
-111 -113 -31 0
72 -121 195 0
171 -35 135 0
-65 151 55 0
-67 -136 -192 0
123 -55 133 0
116 -134 -49 0
-57 -84 23 0
-117 89 -186 0
-102 -173 107 0
-55 -189 -130 0
-59 -46 88 0
-142 44 169 0
3 161 100 0
149 -62 146 0
44 73 24 0
-198 -6 68 0
57 -159 153 0
-142 190 38 0
-71 34 -162 0
-148 75 -144 0
-126 168 -50 0
-13 162 -43 0
-106 -104 152 0
82 -168 -85 0
187 128 49 0
35 106 9 0
124 -21 -115 0
45 50 53 0
-115 85 -31 0
179 -49 -27 0
-96 142 26 0
184 192 -95 0
-86 -84 -14 0
-46 147 -25 0
91 191 162 0
152 -198 -181 0
-23 39 13 0
143 -29 -2 0
-180 -189 196 0
-138 -118 67 0
-60 28 -1 0
168 -123 67 0
23 -111 155 0
-53 -66 -52 0
-31 22 21 0
18 143 117 0
-30 124 -92 0
180 5 177 0
-147 55 48 0
-36 11 69 0
80 -95 -78 0
27 -177 -137 0
33 152 96 0
-34 65 54 0
34 -91 -36 0
65 -115 128 0
-39 62 150 0
38 154 -113 0
-147 1 200 0
147 -117 33 0
-198 78 -2 0
-20 112 181 0
193 -200 147 0
-188 135 182 0
-184 164 -103 0
1 -4 120 0
69 -89 -196 0
11 191 -166 0
-188 -134 157 0
-16 102 -175 0
-45 -36 -82 0
-177 -123 -133 0
104 68 -10 0
90 172 -77 0
-132 -3 -156 0
-7 32 4 0
179 -8 -129 0
-132 10 -25 0
-45 138 -192 0
-49 160 29 0
-158 -182 196 0
95 -82 54 0
102 -113 30 0
9 -194 -34 0
17 -91 -152 0
-53 -176 151 0
78 47 11 0
100 -168 -93 0
-54 -45 146 0
-2 -46 24 0
-8 151 93 0
145 -9 -198 0
101 -175 -65 0
-13 158 -196 0
-194 106 25 0
176 -61 -24 0
