p cnf 1000 4000
550 -586 202 0
-69 565 138 0
-625 -989 11 0
-16 563 -675 0
467 -864 866 0
-372 721 -126 0
-79 -657 232 0
905 461 102 0
-618 -502 298 0
-285 23 -975 0
612 -484 -313 0
25 -772 -245 0
535 464 -55 0
-963 613 609 0
-544 184 655 0
607 541 914 0
-171 658 -607 0
-619 198 -214 0
-753 -312 -512 0
80 -149 891 0
486 788 210 0
-701 459 840 0
-875 -532 -55 0
-157 110 451 0
-837 -351 -973 0
811 463 -95 0
-338 -584 1000 0
-648 194 946 0
-735 -248 -3 0
82 -855 -74 0
-123 829 -249 0
683 480 411 0
-326 -828 -60 0
290 -655 48 0
-694 395 -648 0
-869 -858 920 0
545 347 240 0
-633 -847 -286 0
-620 319 -163 0
774 264 -307 0
795 -220 996 0
392 -580 -986 0
728 -169 235 0
742 50 349 0
-556 -780 16 0
-474 -458 -521 0
706 -184 -8 0
-482 747 -354 0
933 284 487 0
-953 -587 -346 0
-16 -932 -413 0
983 -293 817 0
-427 118 267 0
-229 -692 -495 0
-109 -65 823 0
418 352 -653 0
-679 -350 592 0
-963 -497 -606 0
909 -202 -293 0
-625 -202 722 0
-840 862 -661 0
898 -749 603 0
-33 387 188 0
-834 655 68 0
-183 598 649 0
-994 -709 739 0
151 347 -174 0
-945 -590 834 0
471 160 -789 0
-483 -454 -128 0
-893 -186 -300 0
936 -739 40 0
927 -791 -459 0
-242 -744 -582 0
967 -273 821 0
444 -866 480 0
943 -334 1000 0
-728 134 308 0
-52 780 116 0
512 435 276 0
508 -164 720 0
-706 729 -85 0
610 337 27 0
-727 -819 988 0
969 70 277 0
366 101 -927 0
-859 956 884 0
-893 905 167 0
983 -349 526 0
403 -29 -721 0
845 -828 98 0
257 178 793 0
-131 915 691 0
145 774 -499 0
655 -699 -794 0
844 -126 -541 0
797 338 -42 0
51 469 -613 0
374 -934 -456 0
-750 848 225 0
-800 722 183 0
-126 -270 -486 0
-292 476 86 0
700 81 -170 0
157 -609 -978 0
-363 -26 609 0
-162 -803 -588 0
870 -641 -202 0
-105 468 -838 0
436 690 -170 0
-388 160 -623 0
-274 144 173 0
-998 -34 -872 0
47 390 -454 0
230 -598 -982 0
240 -892 572 0
-300 -716 -544 0
-4 -307 273 0
616 -127 665 0
-890 -458 737 0
-160 1 -896 0
695 930 -28 0
953 -372 426 0
448 -384 -674 0
679 165 -243 0
892 -746 8 0
-606 -340 -722 0
-228 -61 220 0
-929 639 451 0
117 59 -84 0
-575 -29 411 0
466 90 823 0
-667 -12 810 0
95 384 87 0
-174 -334 977 0
215 -629 942 0
526 569 614 0
711 -468 630 0
690 -782 -148 0
-992 854 -869 0
-221 -919 -190 0
899 821 -243 0
316 678 653 0
334 -661 -732 0
-606 -525 707 0
-761 318 521 0
-146 478 182 0
-225 269 -966 0
110 -234 -347 0
-884 82 756 0
392 -370 437 0
734 -190 -599 0
-94 -958 916 0
444 181 819 0
-801 -237 -304 0
-994 765 706 0
220 -610 -513 0
558 541 -10 0
390 -992 -277 0
-198 -370 486 0
820 -826 356 0
-821 322 -245 0
174 21 324 0
580 -761 332 0
-108 675 -99 0
-191 97 -865 0
486 -683 -906 0
537 -796 -196 0
-356 615 -503 0
593 -253 -625 0
268 387 935 0
-549 -700 -442 0
3 -218 416 0
-642 491 -70 0
-684 825 -375 0
-472 723 -147 0
-222 299 532 0
-12 385 -349 0
-956 -607 -785 0
-53 147 751 0
3 -734 -1000 0
-504 346 726 0
605 716 27 0
406 496 442 0
-245 -443 -151 0
913 -971 699 0
194 404 893 0
396 985 822 0
-818 3 164 0
-47 -829 -341 0
203 -129 939 0
-642 -293 -168 0
-124 -334 -34 0
-605 195 655 0
-587 445 -141 0
980 -139 -822 0
-559 -452 -113 0
140 526 469 0
366 -911 198 0
253 100 -569 0
33 871 -739 0
912 688 -85 0
-776 375 175 0
-636 -859 -771 0
-259 956 402 0
439 -434 383 0
89 -419 -735 0
269 -657 988 0
416 -79 -903 0
-843 560 612 0
-252 201 -486 0
934 430 -891 0
265 249 468 0
-208 575 813 0
638 580 -425 0
-675 623 76 0
-406 781 -924 0
-208 -515 -432 0
-299 -391 -802 0
420 889 -529 0
260 7 681 0
-559 -429 982 0
-414 782 -611 0
929 397 -389 0
939 703 -782 0
198 -467 -240 0
-677 -883 -31 0
759 617 -50 0
-655 -957 -501 0
621 -558 939 0
-572 -498 -302 0
-527 -692 -25 0
-516 -108 207 0
319 -419 151 0
-621 -130 -196 0
76 -299 -113 0
-716 39 -547 0
654 -513 -642 0
362 606 100 0
412 427 -702 0
-513 -593 -117 0
82 -822 204 0
-689 362 -318 0
772 207 629 0
-996 -879 -408 0
169 774 649 0
345 -463 703 0
-392 790 -96 0
311 791 -946 0
396 920 -152 0
916 -423 635 0
-521 718 40 0
-735 110 -707 0
879 -222 609 0
-963 -160 -628 0
157 620 609 0
904 78 395 0
852 -407 -820 0
89 -627 59 0
-872 904 912 0
-920 372 235 0
972 -762 -193 0
708 -539 -558 0
185 -164 -174 0
626 -454 -630 0
817 17 805 0
812 737 -84 0
162 -706 427 0
-712 111 -836 0
-248 798 -883 0
-350 316 295 0
-150 26 -999 0
-374 -810 -290 0
-388 -17 -730 0
195 -307 -439 0
-117 337 -319 0
-429 833 444 0
-406 432 -386 0
-781 -162 -230 0
365 -253 140 0
609 819 241 0
-253 855 -700 0
-686 17 526 0
100 485 457 0
508 -275 -71 0
526 836 -523 0
952 383 161 0
-97 258 -877 0
731 488 -236 0
-900 -307 -10 0
-904 -397 654 0
-178 -630 -459 0
295 -843 -675 0
119 865 861 0
160 72 -693 0
981 596 -330 0
395 -953 -879 0
-980 -214 -738 0
432 606 -90 0
-828 -329 848 0
-692 276 -483 0
288 -454 -697 0
893 -783 808 0
-709 -512 -84 0
198 -580 779 0
251 -436 -848 0
-529 260 333 0
96 552 79 0
-531 807 -149 0
987 969 544 0
959 992 464 0
-363 930 -53 0
-71 300 -322 0
-662 85 193 0
570 836 -823 0
342 863 70 0
588 921 274 0
-618 -545 678 0
554 -549 -62 0
-428 -640 -343 0
533 -651 993 0
-197 351 484 0
564 191 208 0
865 -583 84 0
773 939 -23 0
830 -858 841 0
531 409 -224 0
278 232 666 0
-481 -663 -918 0
-39 -369 -490 0
-383 -490 266 0
844 335 162 0
742 234 -56 0
-809 -219 -836 0
-786 552 291 0
-376 -253 -688 0
604 392 -544 0
343 -819 352 0
957 549 754 0
142 943 -480 0
-254 763 -108 0
393 326 -672 0
809 159 -599 0
-719 -45 -654 0
260 392 -545 0
-820 782 -738 0
148 -594 -667 0
-656 -744 433 0
689 -755 -326 0
553 -683 44 0
299 -88 670 0
-513 65 -8 0
-835 237 -413 0
339 599 -142 0
-901 -522 -887 0
-914 664 -431 0
334 309 -681 0
880 -163 -313 0
177 916 -542 0
502 298 521 0
-600 -51 712 0
420 -240 370 0
558 -575 -369 0
636 147 -713 0
593 -123 9 0
115 381 805 0
357 781 784 0
953 874 158 0
-516 -352 761 0
-770 170 -415 0
931 -880 844 0
-207 -423 -883 0
-725 125 214 0
226 277 872 0
-419 -282 88 0
-409 -767 -717 0
-109 607 432 0
773 703 -14 0
616 603 -146 0
-997 73 453 0
-111 -327 713 0
-106 727 787 0
-601 -420 100 0
767 54 102 0
248 861 246 0
491 -745 -401 0
-751 -490 201 0
100 -95 299 0
468 267 -864 0
-115 261 585 0
413 529 -96 0
765 -820 307 0
-354 -119 -954 0
74 190 475 0
-496 736 513 0
-518 4 -987 0
-210 910 -342 0
-640 -855 -123 0
-943 222 503 0
-225 -244 -422 0
833 -638 263 0
917 -943 -447 0
-260 -899 76 0
186 -974 200 0
-751 -5 -769 0
-958 -903 313 0
-271 -642 -989 0
-622 -345 -945 0
600 108 901 0
780 -391 828 0
-241 -994 -890 0
-496 860 350 0
-246 544 362 0
265 453 940 0
-104 -646 807 0
909 721 -865 0
-862 -986 493 0
25 -21 409 0
-452 415 -471 0
-356 -550 206 0
990 412 264 0
606 -685 -939 0
916 407 -787 0
461 609 -944 0
-918 847 970 0
503 -297 538 0
-403 963 -22 0
28 697 -598 0
333 -19 310 0
-780 35 383 0
-128 -519 260 0
751 -709 -311 0
-542 -299 591 0
449 911 -231 0
327 496 16 0
940 -350 662 0
877 -928 613 0
-982 -513 -47 0
-827 230 -649 0
-172 -827 435 0
-701 -958 -625 0
-567 878 942 0
784 231 -411 0
-428 -392 87 0
566 -698 937 0
190 170 296 0
-773 -423 -625 0
360 359 -331 0
630 248 -121 0
615 674 -215 0
-185 -329 546 0
-159 -147 -413 0
-745 673 -326 0
-383 615 894 0
354 823 -714 0
-763 -461 602 0
306 268 -551 0
423 -189 905 0
449 897 313 0
-496 -6 -710 0
-317 -815 -461 0
-802 636 74 0
-292 -847 -419 0
-867 875 -765 0
90 -156 979 0
146 210 -944 0
20 -183 193 0
321 -85 -689 0
-630 81 940 0
905 -486 827 0
-898 -826 616 0
-27 -419 -168 0
-442 18 -622 0
633 -934 -678 0
-51 -576 393 0
-66 135 581 0
-227 217 -275 0
499 74 -295 0
822 613 -535 0
-836 873 -912 0
536 999 -474 0
44 798 -793 0
-18 -641 32 0
-515 -791 -908 0
-170 74 570 0
755 -315 177 0
166 420 -695 0
-911 562 -191 0
-615 -404 -880 0
718 -990 -310 0
522 -566 554 0
-229 -378 -468 0
-964 -328 -212 0
-623 640 241 0
-256 -547 502 0
-258 163 -10 0
451 118 719 0
255 877 -369 0
-913 -157 16 0
672 205 352 0
-579 -212 113 0
919 -543 -40 0
205 730 846 0
-763 858 -435 0
-895 40 803 0
531 -376 -363 0
48 -537 -618 0
759 -411 -665 0
-641 931 -654 0
246 361 -878 0
695 974 -913 0
374 -258 659 0
755 -229 592 0
348 -400 558 0
623 233 572 0
376 -703 -347 0
914 -215 855 0
-793 334 -509 0
214 234 670 0
-419 38 -79 0
-423 81 63 0
193 457 -39 0
-978 -518 -571 0
-667 -729 199 0
-968 738 -327 0
174 198 135 0
680 237 -733 0
-140 -672 139 0
-227 -484 -498 0
-883 -577 -477 0
479 140 -426 0
-308 -368 673 0
179 760 568 0
-772 -422 665 0
-731 221 -429 0
669 -365 -653 0
-161 615 661 0
-458 50 -280 0
330 -505 501 0
-320 313 930 0
764 -929 -397 0
798 -409 -906 0
809 -105 191 0
-441 -426 323 0
-674 476 176 0
-95 378 450 0
-550 -458 -826 0
957 -436 259 0
-262 15 437 0
-287 507 -751 0
-186 -262 -979 0
106 792 -675 0
-705 7 -123 0
460 -966 37 0
-470 -132 -80 0
-28 -115 737 0
108 -381 -535 0
666 511 -322 0
124 -87 -518 0
59 -429 -486 0
-629 -50 541 0
523 -230 -999 0
639 36 453 0
-156 -762 311 0
-188 480 -758 0
4 -6 515 0
-807 986 -62 0
-79 -324 -349 0
-38 -847 606 0
-728 372 1000 0
733 -295 -345 0
860 -459 -120 0
-47 -510 -852 0
193 48 -717 0
-145 -827 -851 0
339 -259 -587 0
813 -698 -549 0
215 -550 331 0
570 956 731 0
207 -281 239 0
-653 625 855 0
-789 -456 902 0
-625 7 -84 0
130 -35 -678 0
21 513 -83 0
-527 956 101 0
940 865 -813 0
-639 66 -101 0
-148 60 191 0
-312 -695 -420 0
904 -850 349 0
584 461 877 0
-718 864 -17 0
797 230 223 0
-173 -131 313 0
-698 -663 760 0
265 669 -35 0
34 -174 723 0
128 -584 108 0
-368 76 -6 0
-483 213 -605 0
348 141 626 0
-83 574 -735 0
-690 144 385 0
690 945 -515 0
19 675 284 0
-821 431 -551 0
-127 559 949 0
-125 694 -455 0
39 -509 113 0
951 950 795 0
-693 592 526 0
-223 -213 -24 0
944 -725 231 0
-448 515 856 0
484 262 -590 0
559 -321 -372 0
-786 -190 -480 0
263 555 -827 0
166 244 353 0
-61 -667 750 0
184 340 783 0
-736 -388 543 0
-687 -504 530 0
689 -480 -9 0
629 346 -473 0
-900 -19 771 0
871 623 -59 0
-729 488 311 0
-967 -902 868 0
546 587 137 0
-875 669 448 0
-572 -585 -852 0
-126 -747 114 0
49 -675 -267 0
688 -877 223 0
-122 851 792 0
-399 -930 -253 0
-6 26 -509 0
-305 -855 577 0
-393 10 -956 0
463 987 404 0
307 -785 679 0
-700 525 -480 0
-707 -611 850 0
-601 -205 743 0
415 -707 9 0
-634 -719 357 0
284 738 392 0
884 377 -270 0
-348 -796 897 0
-534 -352 -964 0
-806 575 660 0
391 600 282 0
-782 -287 742 0
704 775 -735 0
747 385 356 0
120 -700 395 0
65 -482 -416 0
384 -904 38 0
727 504 876 0
-314 -516 -389 0
62 -707 594 0
62 -169 -780 0
718 844 92 0
880 -576 176 0
316 359 -2 0
-784 450 295 0
-793 -689 -626 0
-311 -721 534 0
-924 123 42 0
780 423 941 0
523 156 -144 0
809 429 46 0
-215 941 -767 0
37 -280 -823 0
-132 689 722 0
-357 -451 -383 0
317 -958 286 0
-479 719 672 0
159 695 12 0
-139 701 761 0
934 -826 789 0
-672 -519 -785 0
-238 424 -615 0
-783 339 610 0
-256 994 -704 0
284 452 434 0
740 46 365 0
151 644 -125 0
890 908 829 0
-437 92 460 0
564 569 271 0
740 119 -520 0
-265 -973 562 0
967 343 -306 0
450 -282 -710 0
919 -500 -930 0
523 -48 -992 0
-705 -271 623 0
546 -281 212 0
-565 -816 813 0
-737 759 -431 0
704 535 716 0
-721 532 57 0
605 -252 -753 0
578 -339 -615 0
-626 -862 -581 0
-793 -132 -78 0
-889 -723 117 0
-781 680 -471 0
146 612 380 0
993 616 -165 0
-241 -568 -717 0
-61 629 536 0
618 766 -748 0
-478 481 -85 0
-867 598 -46 0
-384 537 110 0
-115 221 514 0
742 587 -937 0
-319 358 -290 0
444 -84 -149 0
435 -571 646 0
-529 -439 -532 0
829 232 72 0
574 483 -28 0
-349 -885 -251 0
-477 -184 -304 0
385 -319 -705 0
-783 370 648 0
677 -923 -817 0
-466 -470 -934 0
109 937 456 0
-148 50 -949 0
-823 -92 406 0
-260 -814 807 0
773 -639 -884 0
-908 -889 -134 0
-402 69 -517 0
-122 -549 641 0
30 -906 -119 0
-649 -175 844 0
-909 -656 -477 0
-781 215 -57 0
870 262 -716 0
-111 -54 162 0
587 -386 -924 0
267 -568 142 0
840 -539 753 0
974 -802 24 0
-135 -383 831 0
-827 644 -39 0
-626 708 658 0
638 553 -779 0
432 104 -141 0
-358 167 849 0
-665 -774 75 0
-204 -584 488 0
-199 -621 -10 0
819 469 868 0
-442 269 831 0
348 -125 -560 0
819 -987 -810 0
-57 -395 -387 0
937 155 494 0
-684 340 47 0
960 624 -1 0
-621 953 -27 0
-409 552 686 0
-798 211 -57 0
216 -944 -349 0
-99 -18 242 0
-47 -470 735 0
-816 5 -759 0
-622 897 -529 0
865 -103 -949 0
-226 168 -331 0
-708 638 -767 0
718 -934 -137 0
221 -81 206 0
-289 41 213 0
181 -679 605 0
89 803 -514 0
297 -318 -51 0
23 -103 156 0
546 797 489 0
646 97 491 0
145 232 754 0
869 -568 744 0
-263 789 -257 0
-447 824 774 0
-234 -851 -529 0
-367 -174 -716 0
667 751 625 0
40 -230 839 0
-992 43 -76 0
-306 -238 -577 0
-507 121 -618 0
965 809 541 0
-360 337 -192 0
347 656 -364 0
-899 -523 540 0
-235 -106 921 0
661 304 627 0
312 249 471 0
895 97 904 0
599 325 -54 0
-378 373 -279 0
-206 -527 -383 0
-633 901 471 0
97 -924 -298 0
-868 -961 -12 0
452 -391 -752 0
169 -524 -191 0
205 415 -792 0
121 604 -684 0
325 815 -941 0
-830 477 102 0
-137 510 -471 0
316 -20 -634 0
596 662 24 0
-750 -571 -118 0
-266 -804 -460 0
-331 -582 948 0
-836 790 257 0
-948 454 560 0
-997 -222 505 0
748 583 398 0
678 238 610 0
807 -250 864 0
-224 877 -226 0
80 579 175 0
568 -460 605 0
-43 -315 -783 0
-756 -663 -315 0
716 235 26 0
108 71 -104 0
647 818 928 0
-48 435 -415 0
125 63 419 0
-819 76 -966 0
184 -267 969 0
239 722 -518 0
168 789 99 0
-445 278 -483 0
335 2 -173 0
-789 832 -328 0
-794 -178 384 0
440 317 -900 0
-393 238 -523 0
-57 552 -67 0
923 -663 -966 0
-62 787 138 0
-119 732 -351 0
255 345 -660 0
-559 235 -7 0
755 -182 968 0
124 355 942 0
771 136 -61 0
509 -84 266 0
58 -530 679 0
-155 -807 554 0
175 853 -943 0
448 -234 831 0
-622 746 465 0
-686 805 652 0
-63 660 980 0
301 -218 599 0
-686 241 399 0
808 665 786 0
660 774 -944 0
936 563 -464 0
-937 -238 -487 0
-248 -332 -183 0
748 727 958 0
765 687 -533 0
116 -756 530 0
-923 110 599 0
-889 892 -995 0
831 -365 574 0
430 -965 -528 0
-732 480 -926 0
-438 678 -918 0
-631 -216 -856 0
541 -681 -815 0
-679 -292 -580 0
-278 -286 52 0
757 627 -448 0
-167 -946 360 0
944 -26 65 0
431 -707 -469 0
19 -791 894 0
-972 819 696 0
453 -83 -157 0
-793 -367 850 0
-949 -808 -981 0
-321 857 275 0
367 848 -414 0
624 -604 -918 0
-226 -225 560 0
593 295 749 0
-192 299 -817 0
-265 872 -823 0
337 -295 667 0
834 302 106 0
618 465 173 0
-7 870 119 0
-455 564 929 0
813 986 -394 0
896 -331 -270 0
966 181 -147 0
575 69 -104 0
334 -401 920 0
875 -240 -708 0
979 378 427 0
126 -898 102 0
-865 -937 -289 0
753 -305 -273 0
-108 -27 -107 0
844 -328 -527 0
-842 -282 81 0
813 299 456 0
690 96 -353 0
-285 -714 -139 0
-275 -272 -630 0
374 -101 876 0
-833 -358 -259 0
77 -494 -473 0
-339 150 545 0
7 -706 52 0
-361 -207 881 0
-33 213 592 0
-716 338 58 0
408 -876 302 0
508 427 971 0
696 -588 -678 0
696 867 9 0
66 195 -207 0
-908 -767 986 0
690 -729 -253 0
436 986 846 0
260 372 46 0
-707 408 938 0
774 936 324 0
-148 474 -871 0
-453 916 -270 0
527 765 -254 0
504 601 136 0
290 -425 234 0
668 865 -63 0
186 -29 135 0
712 859 -637 0
-633 250 -966 0
-915 -21 409 0
204 95 551 0
691 37 -745 0
812 -300 -623 0
994 463 -147 0
-395 754 -986 0
241 936 -995 0
966 -476 -98 0
-145 858 710 0
208 142 -886 0
440 -75 -969 0
136 -180 -876 0
391 -308 -538 0
779 842 -369 0
-69 -656 -895 0
887 494 259 0
633 -415 -653 0
-415 584 -319 0
109 -911 -191 0
524 -686 135 0
101 671 225 0
-316 172 -985 0
538 477 374 0
197 -781 -509 0
-301 6 595 0
382 537 226 0
-575 -460 389 0
-91 -852 583 0
22 889 571 0
-496 -657 -866 0
-904 -564 -822 0
-474 549 324 0
-772 -998 -55 0
-629 130 -949 0
-200 909 -741 0
-833 679 945 0
-20 -25 743 0
-523 -155 -501 0
218 -495 -372 0
-625 747 376 0
477 -325 589 0
-374 923 71 0
-486 921 -156 0
-793 -284 -541 0
-413 -300 592 0
268 -596 -118 0
-915 -856 485 0
-261 462 -332 0
-782 -57 840 0
-828 -461 -776 0
740 -614 939 0
80 -118 -720 0
-390 316 -996 0
21 201 739 0
-296 665 -805 0
206 199 489 0
417 -39 290 0
243 58 766 0
429 483 547 0
872 776 -785 0
137 927 894 0
-338 -335 643 0
-580 -867 -646 0
-727 245 661 0
-66 50 705 0
441 -82 -217 0
561 810 -479 0
857 511 243 0
213 -836 126 0
-159 277 918 0
94 -191 -290 0
884 -417 -423 0
792 953 826 0
355 -163 -266 0
-959 943 472 0
193 575 865 0
-680 -252 146 0
978 419 503 0
651 105 912 0
-295 155 -563 0
398 -778 -190 0
-378 -741 -797 0
-494 -771 -520 0
-956 -252 467 0
932 -711 -34 0
-620 161 57 0
-512 688 218 0
956 927 -295 0
-67 -350 -390 0
502 934 -699 0
767 -319 81 0
52 -297 -492 0
-393 433 -280 0
448 164 -623 0
-627 358 506 0
-223 -885 -434 0
230 495 -782 0
-553 184 948 0
-42 -352 -975 0
383 412 131 0
844 -896 -117 0
439 153 -978 0
105 -51 359 0
-159 616 -569 0
481 944 -113 0
-361 -303 -82 0
-102 -784 581 0
256 -462 453 0
873 586 54 0
235 873 666 0
-960 -301 80 0
718 -619 -962 0
-997 346 328 0
39 -415 -633 0
586 355 -489 0
-239 -771 -72 0
-375 839 281 0
-658 -710 165 0
661 -904 -67 0
17 639 515 0
-582 279 -436 0
456 552 91 0
225 -455 -552 0
-905 -342 831 0
-126 -949 -102 0
-827 -866 716 0
68 -57 -162 0
-384 -217 -756 0
-653 955 984 0
-189 322 -66 0
-529 552 -542 0
-991 914 -216 0
893 -829 -792 0
-924 93 -728 0
-167 -513 759 0
-130 -439 -46 0
-436 -277 533 0
-694 232 -802 0
-874 -976 -461 0
-156 796 63 0
-573 -586 217 0
-185 -132 -660 0
121 -355 -285 0
-809 708 -617 0
-1000 325 697 0
4 491 723 0
240 653 722 0
-452 294 -729 0
-544 537 -177 0
603 585 -21 0
805 -543 -514 0
-595 -469 484 0
992 -378 -445 0
788 59 886 0
-663 -241 409 0
640 28 -490 0
-585 967 -617 0
-208 -502 -244 0
290 626 287 0
14 -721 -705 0
-540 -97 -871 0
-888 -604 975 0
263 668 -162 0
326 655 -72 0
553 -840 462 0
-985 846 -340 0
902 981 136 0
-65 478 531 0
699 267 496 0
529 -260 252 0
-620 62 -431 0
-386 42 612 0
621 622 475 0
-856 -42 -522 0
860 487 393 0
-636 -702 741 0
514 45 651 0
-72 708 253 0
689 36 297 0
-781 918 532 0
481 723 817 0
907 -602 832 0
843 -225 -812 0
767 980 918 0
751 691 -36 0
246 -317 -642 0
154 595 -427 0
-347 665 846 0
-559 -341 -433 0
-25 905 640 0
792 -1 217 0
383 967 699 0
833 174 -917 0
-248 -856 694 0
-657 642 791 0
459 748 886 0
-189 -368 -112 0
72 290 -675 0
-18 551 22 0
-700 260 -204 0
859 -419 -262 0
918 -329 643 0
-116 -857 -951 0
856 88 450 0
420 -928 161 0
65 -516 -863 0
-107 -84 -688 0
828 523 -76 0
-337 -17 -439 0
-598 931 192 0
-655 555 36 0
544 -664 -189 0
642 87 -918 0
654 203 -691 0
-916 -572 -716 0
-700 -897 540 0
-193 968 737 0
376 -625 74 0
-227 839 -930 0
659 -757 -436 0
-795 485 -40 0
-461 681 273 0
920 -801 -299 0
-712 -93 -675 0
-675 -804 63 0
-332 36 -222 0
768 180 772 0
675 -811 -95 0
-285 333 -685 0
-582 -700 613 0
-26 -222 -240 0
-573 -364 386 0
178 -548 -92 0
-256 70 332 0
708 -769 271 0
-142 456 828 0
67 309 -621 0
299 -662 -476 0
977 249 516 0
76 -16 -274 0
-491 -346 559 0
-35 -340 -477 0
38 -623 -650 0
-263 -129 -153 0
373 29 104 0
-424 373 205 0
-230 952 489 0
611 -397 416 0
504 -312 930 0
948 79 849 0
-929 -906 511 0
288 165 630 0
941 -995 -664 0
293 -481 123 0
765 -202 -936 0
-47 -124 -415 0
-125 682 693 0
-466 -383 632 0
-496 -3 571 0
842 747 -162 0
-672 -108 -1 0
-64 -386 759 0
-282 921 -783 0
-144 -788 507 0
435 687 948 0
483 -384 423 0
959 -879 65 0
251 196 -477 0
873 842 133 0
562 -431 -494 0
-798 600 670 0
-582 -521 -933 0
427 -722 -288 0
-523 -49 808 0
-203 885 -865 0
-383 527 750 0
-403 -48 -964 0
-279 200 246 0
751 -337 665 0
257 -223 -427 0
518 -386 -10 0
253 -839 58 0
130 559 885 0
-301 633 -219 0
750 -453 126 0
651 -991 -431 0
-563 544 916 0
-409 512 -620 0
937 679 668 0
535 -225 194 0
33 -303 908 0
-206 825 285 0
-611 814 -192 0
450 -145 -233 0
882 268 662 0
699 -667 429 0
821 -589 640 0
451 -384 323 0
-482 -752 276 0
-121 -816 106 0
959 422 -378 0
-574 -895 465 0
-411 -652 206 0
-561 -550 909 0
-28 945 -237 0
-800 723 656 0
484 941 -382 0
-739 450 -357 0
309 -777 -645 0
-941 -774 639 0
72 -787 -659 0
-315 460 -944 0
380 114 -747 0
521 324 2 0
-444 -500 -620 0
-774 917 351 0
851 133 564 0
-266 -134 530 0
45 287 -378 0
135 -464 1000 0
926 112 359 0
-378 -474 937 0
878 -542 -728 0
726 -561 -927 0
976 -337 308 0
-161 -682 540 0
-926 842 759 0
2 228 433 0
-316 15 -48 0
346 -14 -403 0
-574 -359 276 0
417 979 -323 0
64 -730 170 0
74 675 64 0
449 945 -350 0
-894 -780 657 0
456 -932 643 0
727 202 752 0
-242 28 97 0
-28 284 -222 0
-82 -916 -283 0
93 -954 -128 0
-996 -816 202 0
583 993 -641 0
-189 726 -950 0
290 135 859 0
-523 -195 26 0
-254 -2 -608 0
-44 -21 567 0
917 -684 443 0
-767 -483 -468 0
-877 794 -931 0
816 -429 281 0
941 -292 160 0
-347 -823 874 0
971 -240 435 0
-573 388 -543 0
128 -416 -623 0
-479 132 -949 0
-114 327 834 0
-512 352 968 0
-830 -68 751 0
805 581 -601 0
-757 269 599 0
339 -623 -452 0
-90 823 -210 0
547 -582 -829 0
608 771 790 0
-561 -798 687 0
-135 -414 317 0
-197 897 -206 0
5 -218 975 0
-60 692 856 0
-849 697 -59 0
108 -689 648 0
341 661 -136 0
-118 -88 -384 0
-771 246 72 0
-897 -54 -169 0
-87 696 923 0
-417 56 604 0
834 766 692 0
-848 353 -624 0
-661 698 167 0
-858 -94 -769 0
663 717 -854 0
326 973 -421 0
297 -648 -59 0
-418 375 -435 0
-485 -452 -725 0
-793 403 -865 0
-643 302 -508 0
116 252 -626 0
-752 -153 -943 0
465 -338 -718 0
778 31 -686 0
977 -699 754 0
296 628 896 0
761 949 947 0
658 680 -177 0
226 786 -765 0
-808 -659 784 0
872 -266 245 0
951 -74 -608 0
-556 -463 993 0
-602 -559 -102 0
-316 -375 904 0
986 -141 432 0
-948 535 833 0
-814 -273 -40 0
744 129 -11 0
-68 -256 245 0
582 -695 -797 0
-770 133 -342 0
427 -457 99 0
-424 -305 536 0
498 978 529 0
-436 -651 400 0
267 795 997 0
759 638 700 0
-608 -610 557 0
8 -354 -87 0
-185 449 -151 0
-825 11 -866 0
449 -847 -525 0
-769 806 -536 0
788 546 380 0
466 695 784 0
-408 -370 583 0
475 -596 -653 0
-608 339 -825 0
320 906 -915 0
892 692 810 0
-834 138 572 0
-631 -517 -166 0
-974 -165 -41 0
-99 -90 -921 0
-726 823 220 0
-121 -507 864 0
794 -279 639 0
-898 791 -756 0
-570 774 -566 0
535 223 -572 0
-284 770 -353 0
854 -136 11 0
556 -246 543 0
-9 779 -729 0
42 413 988 0
187 -574 -651 0
65 919 387 0
-256 341 209 0
553 679 416 0
925 -36 -205 0
836 -498 -466 0
468 682 -445 0
556 -211 587 0
956 -133 -394 0
-342 853 -606 0
301 -819 570 0
-224 -615 -874 0
678 873 -755 0
-881 308 -334 0
-380 752 -123 0
-955 -478 -538 0
-9 65 590 0
-43 567 -584 0
334 177 -31 0
-651 -613 -448 0
-619 310 461 0
-871 -207 -140 0
675 82 211 0
-4 -967 -185 0
592 -415 947 0
698 714 -909 0
642 -563 864 0
-990 -903 -292 0
272 676 69 0
130 181 -69 0
-210 644 866 0
127 201 -300 0
-816 283 -100 0
-585 771 480 0
396 418 -365 0
-958 501 822 0
-818 630 -431 0
477 -280 312 0
213 -242 770 0
-988 -130 523 0
-661 -925 -736 0
564 -412 903 0
498 558 938 0
95 -245 393 0
666 -903 653 0
736 459 -566 0
-367 499 628 0
-396 -251 861 0
-827 -251 -624 0
349 -810 -523 0
348 775 -793 0
-690 -925 551 0
-311 -359 490 0
619 -642 -121 0
281 -423 -53 0
278 101 -512 0
-724 796 710 0
-786 -158 -390 0
247 -7 -595 0
-790 -422 -47 0
518 -455 -739 0
854 653 663 0
-413 -891 525 0
-175 661 -613 0
273 741 87 0
50 602 897 0
-609 244 -436 0
893 649 -75 0
31 -238 550 0
-345 -585 -325 0
-555 -936 -394 0
-560 -21 -309 0
584 -893 -371 0
934 -313 -1000 0
-359 -221 32 0
-96 661 544 0
-598 78 -584 0
915 728 -107 0
496 -729 756 0
-301 378 351 0
-830 825 638 0
222 403 -313 0
-217 537 916 0
285 -743 780 0
-304 616 -25 0
-791 -801 209 0
603 175 59 0
-504 -83 -160 0
-815 -723 752 0
-323 785 793 0
-138 -733 379 0
516 -75 499 0
504 -811 300 0
569 -657 -782 0
678 -365 104 0
831 145 994 0
687 69 -299 0
21 -250 -945 0
-369 -275 424 0
769 377 903 0
-560 81 -171 0
-870 -905 581 0
758 -588 19 0
311 594 24 0
-706 278 -12 0
155 -939 -495 0
391 -779 -590 0
151 -33 -720 0
458 964 294 0
759 -428 323 0
-336 697 -856 0
522 171 -490 0
-990 -43 -994 0
-286 -985 -717 0
-539 -929 382 0
-938 3 493 0
-762 -681 849 0
582 -864 490 0
-699 645 165 0
-804 578 442 0
-614 -130 -746 0
381 987 155 0
-819 242 -851 0
-798 439 -69 0
-975 -392 360 0
43 -644 -242 0
79 526 -86 0
-983 724 -580 0
-109 661 855 0
770 -539 -513 0
71 -669 -419 0
-821 -801 663 0
168 681 324 0
576 -858 180 0
-349 288 746 0
-448 174 -591 0
-555 436 -390 0
701 171 -279 0
-258 852 482 0
175 -861 765 0
-297 -913 -572 0
64 -811 480 0
894 -973 204 0
422 -763 926 0
-57 20 -302 0
978 -898 -415 0
584 -186 184 0
-863 242 -261 0
882 -106 -889 0
448 -654 127 0
-777 325 -496 0
-670 -414 875 0
-180 588 -108 0
-909 651 -824 0
507 -527 711 0
846 850 599 0
733 -106 -501 0
879 473 -86 0
-591 -467 235 0
963 -422 -516 0
-80 769 166 0
973 19 259 0
-350 713 192 0
-593 -881 -12 0
217 -298 -798 0
960 474 13 0
-92 -255 -702 0
342 890 -707 0
253 -870 280 0
139 -560 433 0
-369 -632 625 0
394 626 815 0
414 -998 -411 0
-296 -322 -723 0
853 -817 -552 0
123 -663 -474 0
920 -817 24 0
366 987 -117 0
302 -73 -386 0
-205 -770 -401 0
-577 -817 -468 0
84 -252 -89 0
-812 -261 546 0
413 -319 -548 0
14 870 -538 0
-199 -703 -335 0
-148 -609 379 0
-657 -981 -295 0
332 540 16 0
300 -110 21 0
260 -783 210 0
537 -91 -878 0
946 148 546 0
-47 -693 86 0
513 -317 -488 0
22 -304 406 0
-611 245 33 0
971 583 -905 0
-404 746 536 0
890 -186 -328 0
703 223 906 0
-381 -313 707 0
223 -827 761 0
-711 -652 -510 0
482 265 -680 0
651 -639 -166 0
-330 335 -28 0
614 514 923 0
85 -124 -553 0
-629 745 -186 0
597 -512 431 0
915 -759 -676 0
823 44 -881 0
-614 -923 642 0
-344 689 -268 0
535 337 -333 0
594 883 -908 0
33 909 -639 0
4 -12 145 0
820 -555 892 0
307 731 889 0
14 945 -67 0
891 -299 401 0
371 -908 537 0
-118 715 -485 0
794 558 -897 0
-596 785 -79 0
631 522 271 0
-679 -377 447 0
554 669 57 0
-2 -946 -280 0
740 310 -653 0
-569 379 35 0
-104 101 308 0
546 -850 -777 0
214 -525 -521 0
-492 590 -379 0
668 190 325 0
520 462 56 0
-403 -546 -8 0
-721 18 -892 0
-627 -283 -921 0
-622 556 -835 0
-811 660 548 0
-392 95 363 0
664 -254 261 0
362 -972 688 0
265 -497 -481 0
-462 -293 865 0
268 417 -859 0
-369 -208 -798 0
324 314 62 0
990 -122 -450 0
-237 57 694 0
-328 -283 265 0
-433 -426 134 0
254 163 446 0
-47 -706 -185 0
260 557 -904 0
-574 -847 -750 0
-832 -341 1000 0
230 606 -466 0
-863 53 94 0
633 -688 520 0
94 920 -200 0
-331 135 268 0
2 -246 58 0
494 -223 -988 0
-785 510 442 0
26 -889 -390 0
477 930 -912 0
740 55 414 0
571 -711 -875 0
212 760 140 0
-521 627 -739 0
856 -610 679 0
653 474 -369 0
-140 -720 421 0
-598 -553 674 0
-556 -201 -229 0
990 -933 475 0
-213 -434 -203 0
-840 520 705 0
-234 -256 -187 0
408 -595 -274 0
-395 -26 308 0
-761 -474 -511 0
872 21 -692 0
127 -256 -258 0
269 -191 -195 0
959 386 370 0
60 906 -258 0
-968 -443 -73 0
-197 610 -590 0
-860 388 -699 0
-160 229 -446 0
294 816 653 0
72 -811 201 0
356 -317 -995 0
393 -346 23 0
-715 -802 -459 0
534 -859 209 0
-229 -599 -460 0
41 344 464 0
-900 -244 -601 0
858 990 663 0
-253 222 -788 0
835 -717 -426 0
358 941 164 0
877 -553 -818 0
467 -944 686 0
894 -884 -284 0
191 -271 13 0
252 9 -672 0
646 366 -114 0
-603 -36 -107 0
-478 -54 -580 0
-811 24 540 0
-811 -554 -196 0
-266 279 803 0
-629 732 -915 0
-25 38 -406 0
-407 761 -269 0
21 -122 -67 0
-570 -111 74 0
86 -513 188 0
-589 -414 -817 0
93 -711 -444 0
870 -813 952 0
945 48 47 0
990 742 -86 0
117 -106 -872 0
145 631 -668 0
816 -317 -792 0
61 469 -829 0
198 628 -135 0
-118 167 825 0
57 334 -100 0
-801 -367 5 0
181 -862 520 0
-246 88 181 0
-108 570 -376 0
490 -986 -38 0
152 -107 -462 0
994 -508 748 0
-17 -572 268 0
-413 887 159 0
-376 -329 -470 0
795 308 -830 0
569 870 104 0
-765 129 -205 0
-371 -973 451 0
-432 661 887 0
-53 791 -625 0
328 573 630 0
-602 435 941 0
435 -320 -513 0
-968 -129 765 0
-586 -247 604 0
208 -173 -757 0
-359 -570 -980 0
141 926 -398 0
-400 343 381 0
437 375 562 0
755 -932 -7 0
-895 216 765 0
-852 184 -668 0
544 823 972 0
-565 37 -906 0
-880 307 83 0
-95 -551 -494 0
417 -367 -576 0
955 312 93 0
245 -620 -810 0
588 370 395 0
-644 726 647 0
995 114 -668 0
333 831 943 0
-786 -118 970 0
905 705 -683 0
-317 476 587 0
-608 624 -895 0
153 909 -932 0
-811 976 -985 0
-246 920 -131 0
619 101 887 0
-727 -558 -988 0
892 -788 -317 0
-580 560 997 0
-70 829 67 0
-263 557 -732 0
746 310 -981 0
-69 -1 -581 0
-60 879 958 0
995 -824 -99 0
-642 968 -810 0
35 808 -232 0
-917 109 -350 0
654 -468 256 0
-330 -534 236 0
-161 -915 -46 0
-386 103 724 0
176 919 -950 0
375 865 635 0
-483 253 -686 0
-319 -290 -502 0
-138 186 108 0
-104 195 -528 0
-596 49 -146 0
-317 -489 660 0
-663 -952 -629 0
-93 220 -446 0
-658 678 662 0
-490 -487 -646 0
-915 431 492 0
-55 -115 631 0
139 -794 574 0
232 414 502 0
-727 -871 -456 0
839 984 514 0
-935 605 998 0
-203 -722 586 0
443 -395 -692 0
-612 -48 27 0
897 -684 410 0
331 76 -163 0
768 -559 680 0
-621 239 -596 0
157 881 660 0
368 780 -681 0
-393 -632 359 0
-978 -748 -479 0
-983 612 -232 0
782 -387 636 0
-168 992 -916 0
383 -200 129 0
-883 169 964 0
496 -547 -928 0
128 -260 372 0
785 -178 -787 0
711 833 -356 0
-128 979 804 0
-810 261 -898 0
-994 734 -706 0
604 252 154 0
-771 306 -10 0
432 853 78 0
-10 -493 -670 0
206 -345 359 0
-636 95 877 0
353 30 871 0
85 -427 -234 0
560 -901 -130 0
-935 504 33 0
-65 12 890 0
-617 268 -757 0
-530 450 -55 0
734 -662 339 0
-592 159 -135 0
-769 143 -436 0
-301 -586 498 0
-446 757 821 0
477 -331 -788 0
-241 -825 -901 0
-828 -561 -334 0
-136 386 -509 0
-211 262 130 0
-683 617 -190 0
402 980 857 0
-281 -774 978 0
-34 -898 137 0
-1 -252 853 0
460 549 -735 0
-810 -251 930 0
28 -468 306 0
-844 -745 866 0
861 11 737 0
-665 198 -122 0
108 580 23 0
-803 -62 -385 0
-827 109 -804 0
871 -306 593 0
-272 -594 -508 0
947 -156 68 0
-356 -898 -868 0
891 -240 -737 0
768 156 886 0
102 -711 -299 0
-901 -363 -406 0
438 -866 -338 0
-186 -977 -88 0
505 -314 897 0
-378 -165 -67 0
925 -684 434 0
-727 -813 -703 0
-816 549 -611 0
-656 967 -622 0
398 -116 -20 0
387 848 294 0
966 -448 -985 0
-470 973 -73 0
763 -642 -599 0
-11 748 7 0
-289 414 -616 0
-389 -320 567 0
782 -60 -733 0
314 -831 -401 0
-71 982 -156 0
-965 485 865 0
764 683 -418 0
-217 -578 399 0
-63 -271 -20 0
929 602 -744 0
760 330 -790 0
763 -872 369 0
795 71 -831 0
-187 -110 720 0
-485 -103 432 0
784 -788 237 0
-676 -339 134 0
299 -638 -418 0
-524 -52 932 0
661 667 -446 0
-397 -296 656 0
776 312 -280 0
766 502 -409 0
669 -362 369 0
-953 673 -25 0
115 -222 878 0
-632 859 696 0
773 223 -647 0
-405 -785 -685 0
-824 -761 -612 0
300 419 -22 0
988 585 -252 0
-475 -902 -322 0
-460 -626 126 0
-571 877 750 0
-375 -152 -139 0
-390 -292 -976 0
-781 216 -690 0
-710 -66 753 0
-676 -116 -920 0
539 -601 -269 0
-440 504 -279 0
323 173 -402 0
-338 -662 222 0
45 -620 971 0
-52 -569 -218 0
373 146 -262 0
204 -779 -26 0
-972 -257 -521 0
-276 376 -40 0
-8 501 -191 0
-568 -70 410 0
601 -513 -466 0
569 262 -624 0
-449 -275 -724 0
511 779 645 0
184 925 -401 0
-253 827 -634 0
-912 -524 -628 0
132 -625 72 0
790 -232 187 0
370 494 -807 0
-324 -203 900 0
-446 -124 -541 0
546 336 -748 0
-113 688 -377 0
-708 323 664 0
-233 747 697 0
-662 -894 -559 0
-996 -425 502 0
-295 -783 -58 0
579 -887 728 0
-263 617 299 0
-312 -655 502 0
612 -135 74 0
-968 602 -619 0
-742 547 -890 0
-346 905 -776 0
662 176 343 0
-131 987 695 0
-490 441 -191 0
-346 -676 -758 0
354 773 353 0
638 -126 913 0
109 -857 763 0
570 1000 311 0
717 766 87 0
535 72 622 0
644 -579 135 0
689 874 768 0
-510 752 911 0
982 -524 -837 0
410 970 487 0
601 -74 43 0
373 687 -559 0
398 236 267 0
549 272 -487 0
-975 436 -730 0
245 886 990 0
784 -805 -236 0
950 593 718 0
-433 -627 911 0
-931 921 756 0
-381 652 -46 0
-137 -976 -995 0
642 238 -66 0
-283 -654 -32 0
31 -834 633 0
750 614 -883 0
355 -487 988 0
-628 -222 206 0
-479 6 162 0
-384 -92 -32 0
414 802 -357 0
596 -591 -920 0
-95 -352 554 0
807 -584 -330 0
120 904 -415 0
733 -882 -109 0
597 842 -977 0
-173 -771 139 0
861 484 -958 0
-97 -930 627 0
896 -729 -530 0
-562 -302 -32 0
491 -717 864 0
-781 -754 250 0
-801 -396 462 0
732 968 541 0
-292 -835 -859 0
146 -254 641 0
729 -909 -658 0
-918 -213 558 0
492 815 -759 0
295 -641 -138 0
343 826 -296 0
357 644 125 0
-179 -303 221 0
-115 -109 391 0
-3 -392 -70 0
380 331 -952 0
-375 413 -133 0
499 576 543 0
-588 -369 -478 0
688 -519 -731 0
-878 998 47 0
-486 -350 -376 0
-711 190 246 0
243 91 181 0
999 -108 -224 0
-853 838 80 0
-851 305 -468 0
110 -127 210 0
457 -299 189 0
526 497 -982 0
-850 -4 252 0
-267 791 -545 0
164 366 -667 0
571 650 409 0
443 553 -486 0
649 -385 -182 0
-705 254 67 0
222 586 543 0
-447 -304 715 0
505 712 -89 0
795 -794 -398 0
508 894 411 0
233 7 -59 0
866 269 -956 0
-99 -807 -265 0
-407 -977 -14 0
-96 -53 977 0
-695 933 473 0
616 491 -51 0
182 363 -226 0
-541 -350 432 0
-275 419 428 0
629 460 311 0
554 30 -123 0
-394 684 -492 0
540 694 -600 0
-887 664 -204 0
-420 -32 952 0
-734 89 795 0
-555 -366 -573 0
-442 694 -394 0
645 921 -690 0
904 744 -462 0
457 -45 -882 0
-501 -619 625 0
689 -892 -752 0
349 -742 -947 0
479 238 455 0
115 903 -474 0
650 -775 -112 0
963 -508 -337 0
-890 534 -210 0
-130 -580 -537 0
99 824 775 0
-803 829 -64 0
-503 234 -647 0
-953 754 501 0
-14 -279 -897 0
-786 -232 -314 0
-904 832 363 0
-731 -818 -273 0
5 465 -71 0
895 -775 -879 0
633 -898 -207 0
656 -4 721 0
949 -836 -557 0
-455 -881 -450 0
380 585 -996 0
-94 973 502 0
178 840 -228 0
679 86 574 0
353 -601 5 0
283 988 990 0
504 744 -553 0
-747 974 867 0
-178 165 672 0
-918 -258 211 0
-38 -335 491 0
251 -442 835 0
12 -952 739 0
-594 -583 -974 0
-858 -17 -596 0
-342 691 -562 0
679 -458 -144 0
199 43 -782 0
-682 297 599 0
-200 -151 607 0
542 -872 -868 0
-394 -21 327 0
270 710 -491 0
683 632 -471 0
-381 944 781 0
246 347 73 0
-591 239 469 0
-88 150 -836 0
194 72 -83 0
-822 -463 -307 0
-255 -437 -438 0
713 269 -368 0
-451 -846 828 0
-611 -418 -482 0
-524 -174 24 0
-626 -933 -468 0
599 633 690 0
-399 -592 126 0
-532 -912 801 0
435 -99 -718 0
-267 -155 -327 0
-830 352 -34 0
660 -572 -93 0
-642 -120 488 0
-695 -393 -66 0
236 -891 83 0
825 990 576 0
558 -14 -846 0
-896 -954 -666 0
-37 -259 34 0
-65 345 520 0
740 64 -464 0
932 -367 -862 0
-252 -792 -728 0
838 753 -180 0
-878 -622 -327 0
42 182 -840 0
312 940 43 0
232 -831 -659 0
929 70 217 0
124 -666 -77 0
-236 -979 833 0
931 161 108 0
206 -953 554 0
-388 443 -514 0
-393 -322 483 0
-85 590 575 0
-124 729 669 0
685 -135 842 0
385 -49 -699 0
-173 42 -181 0
761 713 954 0
110 786 -748 0
89 674 -893 0
637 -863 146 0
-930 222 82 0
267 -904 -482 0
17 108 -931 0
-849 717 323 0
-771 -938 15 0
348 987 93 0
-602 -606 -247 0
-251 -127 631 0
-884 -445 769 0
-686 797 -653 0
-659 -636 -713 0
-63 -810 -612 0
418 712 923 0
-901 89 -785 0
270 854 -256 0
-725 -647 323 0
-865 295 292 0
658 911 -502 0
967 811 606 0
860 112 475 0
-764 581 -58 0
-754 -855 -44 0
511 -167 211 0
-149 935 439 0
-750 -833 305 0
336 35 -360 0
632 -892 -490 0
-542 -283 42 0
-820 6 755 0
924 -921 405 0
-663 482 -478 0
-33 835 -786 0
-144 389 -707 0
235 -630 -458 0
-178 -122 -337 0
395 -145 591 0
603 -722 -116 0
878 35 -332 0
651 -680 97 0
-81 -548 -819 0
-718 -770 742 0
-729 -734 -591 0
233 -85 527 0
-315 -469 809 0
988 213 584 0
305 69 -434 0
-624 -630 -398 0
622 -424 616 0
-1 -696 261 0
590 -406 697 0
203 -603 876 0
-225 -302 -547 0
-459 -155 -921 0
526 -470 -565 0
-143 -379 189 0
-686 -576 817 0
740 -742 -707 0
931 -342 716 0
155 -305 415 0
829 -272 236 0
-853 -181 175 0
3 -268 -765 0
40 -147 67 0
286 -557 697 0
-574 583 440 0
702 -495 -488 0
946 -8 -29 0
-870 983 -860 0
190 336 435 0
-67 665 15 0
-634 510 886 0
833 464 989 0
-975 -599 -685 0
-860 88 753 0
555 797 -953 0
-481 193 464 0
244 -833 -84 0
230 -389 -214 0
-660 -688 924 0
943 944 -655 0
-160 862 845 0
382 859 -166 0
423 -586 969 0
320 621 -854 0
-188 483 730 0
979 297 119 0
-344 -387 -202 0
890 288 -810 0
825 730 735 0
-146 -521 -61 0
-803 -912 336 0
328 354 139 0
-531 -376 762 0
791 328 191 0
965 342 -54 0
87 396 178 0
355 -682 678 0
-692 713 171 0
-332 600 -737 0
892 224 -760 0
-213 475 101 0
-303 -681 365 0
-461 -392 339 0
610 -104 69 0
454 431 554 0
-789 711 -961 0
459 -323 942 0
-496 827 -592 0
-684 915 156 0
922 725 85 0
-811 822 690 0
-804 -328 -571 0
568 -808 -600 0
321 -752 -168 0
-747 569 986 0
-273 -792 537 0
-828 952 2 0
-19 -351 -60 0
381 643 -801 0
401 -46 -514 0
-475 -175 393 0
-731 -346 887 0
-964 -923 788 0
551 -811 -517 0
930 648 328 0
-526 892 -819 0
-738 -217 254 0
-5 -438 628 0
-904 -644 -334 0
-349 235 613 0
103 550 672 0
266 -503 532 0
322 837 -983 0
311 -513 -202 0
-392 265 -138 0
825 -807 -74 0
826 33 968 0
-47 -128 -134 0
-827 338 -3 0
389 -781 307 0
131 396 -710 0
633 523 -956 0
366 -113 -973 0
327 757 875 0
-985 621 366 0
-312 832 -622 0
750 317 -921 0
691 -393 -916 0
275 299 887 0
-234 39 790 0
-939 162 848 0
-760 -570 249 0
774 -770 -27 0
470 -370 567 0
-802 898 612 0
-854 -174 -64 0
544 -988 698 0
-981 -708 -67 0
713 126 -392 0
838 -868 -128 0
892 -217 883 0
-278 481 -34 0
669 273 82 0
-215 -400 72 0
-967 816 275 0
-486 270 -930 0
-972 -696 -907 0
-587 139 -845 0
686 -628 947 0
-176 -236 -333 0
430 -800 345 0
424 641 352 0
562 582 -219 0
200 415 -506 0
-495 -498 393 0
999 808 852 0
235 781 796 0
619 -267 694 0
-365 248 -408 0
112 745 -567 0
-817 780 861 0
-638 55 -378 0
954 160 -288 0
-583 538 119 0
435 -526 -863 0
838 424 -512 0
-953 -47 -955 0
-793 -709 875 0
-328 -517 -624 0
-666 304 402 0
-408 40 -303 0
994 421 487 0
809 -246 -101 0
759 923 372 0
-318 2 -212 0
30 -645 407 0
890 284 809 0
140 476 -457 0
-950 -232 -223 0
-157 -656 -321 0
-769 210 -441 0
242 -485 -976 0
574 -286 867 0
386 -849 -990 0
717 -250 517 0
354 164 -728 0
987 -608 543 0
-326 69 -609 0
-201 -434 -949 0
-928 -354 945 0
646 -148 -266 0
-110 424 -766 0
-892 -479 -727 0
-453 -956 118 0
-267 -407 560 0
572 669 -372 0
-514 336 554 0
-529 -177 806 0
205 -810 -319 0
-667 -789 142 0
-680 148 393 0
337 -154 522 0
226 963 -8 0
789 -583 -379 0
-100 -292 823 0
-771 899 -927 0
263 44 649 0
-892 956 57 0
-455 -472 -807 0
508 -290 6 0
53 17 479 0
-752 -120 19 0
150 613 -698 0
-895 -802 -459 0
-604 594 -988 0
-58 570 9 0
-359 951 -333 0
591 887 528 0
496 -944 -541 0
835 -807 386 0
-459 931 276 0
59 -520 133 0
-84 -733 -498 0
-161 -984 304 0
208 -592 645 0
-999 687 -857 0
-303 -877 -600 0
602 -900 -364 0
729 169 755 0
-24 -377 -905 0
748 30 627 0
490 848 196 0
342 494 369 0
-227 -358 666 0
-639 325 -731 0
-766 404 939 0
511 256 508 0
-511 422 -735 0
-833 128 -855 0
538 -594 989 0
-477 -590 -333 0
-925 835 -529 0
258 277 -834 0
592 302 723 0
-912 -320 -53 0
701 499 951 0
451 -195 261 0
552 -697 -285 0
-483 -840 694 0
-620 -780 -686 0
870 -908 -840 0
-880 343 -587 0
-655 -142 -467 0
-232 125 -46 0
825 30 -508 0
-970 841 101 0
804 -287 577 0
-650 -882 373 0
-471 870 120 0
972 672 -489 0
-115 -265 759 0
370 -635 -529 0
378 -205 945 0
560 -231 407 0
-998 392 488 0
365 741 -500 0
-859 -840 764 0
533 -62 882 0
541 874 194 0
-669 779 -209 0
-292 -891 -695 0
643 -379 -942 0
-280 -105 -886 0
946 -92 492 0
-469 330 893 0
-956 951 575 0
-766 475 939 0
549 -795 -931 0
721 -926 546 0
511 479 10 0
-562 -713 -62 0
-496 -343 -630 0
-828 554 204 0
309 307 -657 0
-127 777 951 0
-795 -371 251 0
110 834 -824 0
514 279 243 0
126 -595 912 0
581 -392 -121 0
657 693 688 0
800 -699 -769 0
367 -357 -643 0
-16 -889 -74 0
-339 568 983 0
-296 -758 -880 0
-114 559 982 0
353 -550 842 0
-991 591 78 0
140 -653 331 0
-614 457 -341 0
-185 -539 863 0
693 -553 -746 0
222 594 -8 0
760 317 -215 0
4 138 475 0
282 -355 501 0
-463 -455 694 0
-735 -20 970 0
143 -653 319 0
186 971 -732 0
419 449 -916 0
665 161 802 0
379 -58 -8 0
976 -269 914 0
-583 -895 637 0
838 -869 -873 0
-852 472 209 0
516 -125 638 0
802 -984 230 0
717 522 310 0
714 -381 -647 0
134 494 209 0
360 977 452 0
-174 873 -932 0
-889 640 -911 0
-428 -566 -797 0
636 -395 -428 0
-359 -119 971 0
-859 988 138 0
-149 407 -660 0
-138 -678 396 0
-205 714 -416 0
-119 937 -930 0
163 43 23 0
179 -171 -450 0
-924 252 743 0
-383 855 74 0
-596 381 -655 0
674 -673 -534 0
-389 -870 885 0
678 580 -958 0
633 -873 -284 0
-974 -906 -92 0
-719 -668 676 0
610 711 309 0
-974 707 728 0
-84 -683 -532 0
244 188 956 0
-430 -559 -360 0
-369 -745 -200 0
882 -687 934 0
-85 533 -87 0
-706 -105 394 0
760 860 -395 0
-510 -448 -291 0
-952 -859 -459 0
-993 380 834 0
244 926 -200 0
313 -772 -763 0
-375 -467 710 0
-497 -698 354 0
282 -944 860 0
941 -214 -186 0
-150 -561 759 0
860 687 -646 0
320 414 615 0
265 486 569 0
780 784 -924 0
481 -511 433 0
-743 -348 675 0
-366 310 233 0
-895 -642 -983 0
-376 -682 -692 0
609 863 999 0
-894 245 -941 0
55 -371 -618 0
-672 200 413 0
-245 -78 189 0
367 -684 294 0
-19 -165 327 0
220 969 252 0
327 242 -132 0
-228 -469 410 0
667 247 149 0
41 31 -508 0
-785 379 -992 0
744 -957 -561 0
881 635 441 0
875 990 -562 0
179 784 973 0
906 611 -81 0
567 672 -232 0
843 569 694 0
-983 993 -703 0
247 829 421 0
-408 -787 -794 0
945 244 33 0
-897 735 -504 0
240 10 181 0
-551 -915 -261 0
386 -786 -709 0
996 226 703 0
737 -739 621 0
-60 959 -878 0
202 118 -25 0
-999 841 687 0
977 650 536 0
-94 -939 -346 0
81 205 -134 0
-242 755 -391 0
214 785 -34 0
127 -480 -491 0
634 789 928 0
-711 462 946 0
-156 -620 -743 0
303 73 936 0
-65 386 426 0
-992 -638 -233 0
294 -315 -951 0
870 -906 369 0
-446 735 -233 0
108 742 -460 0
-427 -24 501 0
-431 547 587 0
-142 -509 -189 0
-344 693 -811 0
48 766 -263 0
270 -940 391 0
120 494 297 0
-984 632 293 0
-315 -965 191 0
487 828 373 0
-237 -140 944 0
-630 953 374 0
-502 391 -772 0
572 -336 -579 0
657 -33 -609 0
-732 854 557 0
918 756 -517 0
110 -623 -346 0
750 -959 717 0
-387 431 -728 0
956 -286 42 0
768 603 -143 0
-59 363 658 0
-613 -604 -148 0
-124 95 -160 0
521 529 -768 0
-462 656 -836 0
153 235 446 0
742 488 -481 0
-493 -605 778 0
-131 -957 417 0
145 541 455 0
863 116 417 0
102 940 -98 0
340 463 -208 0
-369 -69 800 0
128 327 541 0
-928 -616 -503 0
24 -234 833 0
-540 -421 -751 0
-537 703 544 0
274 475 953 0
-538 940 -144 0
53 -928 313 0
761 -572 -808 0
365 776 134 0
821 -326 -569 0
-200 554 -296 0
972 321 -804 0
102 860 -537 0
738 -839 -59 0
-717 133 -420 0
-852 506 -418 0
-528 564 -235 0
-861 883 489 0
309 -201 862 0
-946 -830 -792 0
37 636 250 0
-650 -638 365 0
-795 -642 -721 0
-663 -259 819 0
-143 -765 35 0
241 -80 -621 0
502 442 899 0
-235 320 -873 0
-825 -918 -872 0
812 886 -756 0
-62 -82 328 0
-625 40 790 0
906 -503 -667 0
494 -55 -645 0
-503 357 -846 0
-140 -200 90 0
-17 722 -27 0
616 787 -867 0
5 -257 671 0
-20 -954 71 0
-680 627 776 0
802 -858 -232 0
653 906 502 0
93 365 603 0
-285 55 -746 0
295 -775 382 0
85 263 695 0
-938 -710 -259 0
807 499 -813 0
-667 328 -207 0
-890 -695 886 0
-66 -589 -358 0
-963 -916 -746 0
969 329 315 0
-582 -608 -956 0
-324 243 -285 0
-581 198 992 0
-651 -131 236 0
861 -449 -36 0
-492 564 -857 0
492 -218 252 0
543 -775 -354 0
974 476 -717 0
897 -172 48 0
66 -175 -891 0
874 403 -135 0
-423 727 494 0
995 -230 324 0
-993 131 949 0
-456 174 701 0
376 -971 -807 0
-907 775 71 0
695 647 12 0
-438 -816 -128 0
522 -312 684 0
-98 684 83 0
-50 385 555 0
-708 -824 -792 0
-420 329 -993 0
-442 899 10 0
-52 969 -889 0
-391 773 -882 0
593 -508 503 0
-699 177 494 0
882 -296 664 0
-848 126 978 0
-511 9 -583 0
705 -896 -407 0
66 -73 172 0
687 -873 466 0
703 -75 -11 0
972 -776 909 0
-783 672 -818 0
640 534 -847 0
-746 -707 948 0
828 -478 725 0
-723 237 -230 0
-480 -235 -111 0
449 -736 644 0
-166 688 332 0
-333 -892 412 0
469 352 609 0
657 270 -412 0
621 -509 -996 0
615 779 890 0
-901 -57 440 0
-845 -415 647 0
917 -784 131 0
-728 -576 -363 0
-711 -923 -82 0
-580 516 552 0
67 673 836 0
628 -686 850 0
-135 -323 46 0
513 -869 538 0
936 -680 -810 0
-584 393 -134 0
734 -404 637 0
570 -53 -425 0
204 -121 390 0
-601 331 846 0
-763 746 -952 0
988 605 -549 0
799 -590 -863 0
-689 -376 242 0
-262 -432 307 0
-17 204 -953 0
-909 908 -538 0
-524 771 825 0
-76 559 -987 0
-600 -375 919 0
-423 -951 373 0
482 -815 960 0
-56 -982 -54 0
684 192 -771 0
693 369 214 0
-187 107 132 0
-449 -913 -476 0
-595 696 592 0
966 358 677 0
674 -956 -950 0
-839 897 -186 0
201 236 -348 0
-808 -842 -35 0
-808 -358 -268 0
-985 81 407 0
-937 795 -519 0
-359 328 640 0
-84 -318 855 0
757 -364 -550 0
72 866 -778 0
-296 590 639 0
175 195 -146 0
559 -744 -365 0
-451 239 69 0
74 -884 -89 0
45 -305 -468 0
-864 434 711 0
-42 -965 -688 0
339 -905 121 0
-742 698 -480 0
-417 672 -931 0
-315 -650 -392 0
-198 -133 747 0
631 -311 -665 0
151 -538 364 0
-456 -143 -541 0
-394 -390 720 0
-42 21 642 0
-941 -282 -466 0
657 805 -429 0
243 389 -324 0
-799 -264 -85 0
-273 -573 -836 0
-594 -278 -435 0
21 580 -781 0
-532 -269 583 0
726 91 12 0
995 -979 -270 0
-671 386 215 0
-523 284 -480 0
282 -939 -332 0
839 918 169 0
-631 -105 645 0
772 -611 8 0
-722 387 979 0
-579 812 632 0
731 -514 -16 0
117 965 -940 0
-387 84 944 0
963 -379 -13 0
141 -909 -841 0
-247 -376 -230 0
270 -253 -198 0
397 638 -46 0
-24 -431 427 0
450 -782 -733 0
-657 543 549 0
-197 259 964 0
218 -542 625 0
556 -31 385 0
-97 675 -981 0
-318 -412 -244 0
740 357 194 0
685 437 856 0
33 -994 444 0
-455 677 956 0
696 612 -14 0
684 -394 607 0
641 -770 572 0
462 -703 947 0
421 -518 123 0
-77 272 428 0
960 232 -58 0
-366 -274 313 0
-8 884 -907 0
-542 -587 -764 0
143 -101 -690 0
-929 -766 -152 0
-749 -312 -336 0
-721 194 403 0
-621 942 -479 0
-265 -954 848 0
84 74 864 0
-407 -270 -346 0
223 -585 -29 0
518 23 -377 0
490 624 -141 0
-453 -835 -410 0
32 995 -991 0
793 6 405 0
716 186 995 0
459 105 92 0
216 -338 -906 0
-347 718 113 0
658 633 484 0
115 -505 370 0
384 -31 259 0
86 598 -700 0
621 -468 381 0
955 803 565 0
-459 144 -832 0
-699 385 -423 0
187 250 -47 0
37 -212 7 0
-676 612 -673 0
57 -278 -179 0
731 -179 -417 0
844 691 942 0
-432 111 888 0
-996 983 -840 0
648 -355 -278 0
467 738 -181 0
463 33 805 0
-537 922 -930 0
-140 589 -924 0
170 64 735 0
753 -158 -773 0
-135 -809 -271 0
-179 -832 925 0
328 921 -853 0
-168 -515 831 0
262 -451 814 0
-812 -971 -440 0
-845 607 -245 0
429 179 -855 0
392 -529 -936 0
-515 -85 -882 0
484 -691 183 0
-136 144 3 0
627 -932 -995 0
-930 219 250 0
-985 525 702 0
-599 -772 -225 0
135 136 849 0
-10 -467 -293 0
-867 781 -671 0
-732 497 -753 0
-809 633 -710 0
514 121 -840 0
20 440 -986 0
-549 746 169 0
-551 248 834 0
201 3 625 0
608 192 -688 0
-568 -734 -175 0
189 238 -261 0
651 -443 753 0
723 -731 82 0
333 585 602 0
-92 -785 598 0
-483 996 -263 0
859 -557 -916 0
573 -638 -583 0
-805 228 142 0
-673 300 -164 0
186 -778 -577 0
151 300 144 0
-779 761 661 0
-718 670 873 0
25 636 -460 0
924 -377 685 0
-897 -632 -474 0
-468 -436 -424 0
286 -729 -321 0
274 195 -858 0
-20 610 668 0
-75 -784 54 0
-294 -384 -446 0
-179 480 259 0
283 -34 -241 0
-68 903 984 0
888 -875 -772 0
519 -530 -445 0
687 251 972 0
218 -851 -39 0
293 80 617 0
-475 25 -992 0
-755 -901 178 0
636 -738 -854 0
-749 117 294 0
-536 741 -761 0
373 -582 22 0
464 -846 -29 0
-586 667 -890 0
-916 13 928 0
509 147 -507 0
15 722 504 0
462 -887 162 0
441 -978 -813 0
-462 29 -188 0
517 -48 -532 0
-992 -130 -459 0
-925 -432 -569 0
731 852 -102 0
752 886 127 0
-623 -430 409 0
-102 -757 -354 0
980 634 845 0
-399 325 575 0
-395 -184 -119 0
16 -868 -155 0
992 -921 -640 0
-956 998 -640 0
839 -705 -561 0
652 -468 54 0
-311 -221 652 0
-381 -147 221 0
394 -440 -924 0
193 -671 760 0
29 -123 -227 0
-377 -557 -146 0
-99 -43 -363 0
383 359 -33 0
-710 -757 -975 0
465 -708 132 0
858 -34 -297 0
-510 239 -286 0
66 201 675 0
436 -534 611 0
700 154 486 0
851 547 -941 0
593 -267 -37 0
727 421 807 0
-11 762 -162 0
-956 -257 -104 0
-833 105 537 0
950 905 591 0
877 171 273 0
-359 636 -787 0
357 -307 -688 0
-746 -386 -932 0
962 -981 395 0
869 727 -424 0
-716 -407 -3 0
-307 -479 -531 0
-971 972 -430 0
-753 98 35 0
27 -729 -211 0
434 229 401 0
-680 627 -161 0
-249 867 -123 0
964 -278 -616 0
-302 -751 57 0
393 267 -513 0
-366 73 -923 0
318 959 -77 0
950 101 -498 0
-111 -596 -51 0
-892 -1000 395 0
-46 426 218 0
-520 -973 183 0
-224 151 280 0
630 5 -91 0
254 155 -438 0
786 392 -582 0
-43 48 249 0
390 -810 -922 0
-945 -283 -126 0
83 747 651 0
-342 768 -429 0
-789 -96 516 0
-353 -478 -7 0
-237 -262 876 0
725 -150 897 0
686 -647 662 0
-326 628 -794 0
-717 930 -711 0
917 -457 615 0
-56 714 339 0
636 222 -73 0
960 -260 -83 0
-15 -677 248 0
-334 -81 -734 0
-367 638 586 0
-593 -371 981 0
-543 -428 96 0
465 660 281 0
646 383 -408 0
-805 167 -599 0
-743 -33 -684 0
455 -487 247 0
59 -371 903 0
-225 -198 900 0
-715 165 799 0
723 -242 972 0
275 -210 -307 0
-751 109 19 0
727 -641 -50 0
655 -60 69 0
695 -934 -250 0
640 262 699 0
46 -586 -721 0
433 -800 225 0
-107 -752 -655 0
67 696 554 0
-132 -949 -637 0
692 -157 580 0
-305 -555 119 0
530 258 816 0
241 -263 -557 0
179 -957 -418 0
-215 789 -610 0
357 942 -488 0
-665 -263 -694 0
-382 -179 -750 0
-683 326 378 0
264 -632 -257 0
742 326 -317 0
520 924 -95 0
-44 612 165 0
-270 -813 571 0
7 -295 -850 0
-769 910 -399 0
906 519 -393 0
-421 -388 874 0
-602 465 -329 0
-397 177 157 0
874 -543 -184 0
611 -405 91 0
324 544 -254 0
-352 -138 521 0
894 902 485 0
-492 539 712 0
735 -229 -92 0
27 -850 -682 0
549 -872 623 0
-936 610 -185 0
-801 621 -120 0
292 54 -475 0
800 -40 506 0
704 491 -337 0
14 577 570 0
-273 20 -695 0
-360 -412 907 0
791 -559 -192 0
-641 -42 -531 0
317 398 419 0
-661 -365 869 0
187 904 944 0
-839 499 -627 0
823 -331 445 0
673 -695 -513 0
-278 191 -577 0
-726 908 22 0
-455 492 -137 0
725 403 -348 0
-64 295 -26 0
-227 146 -792 0
652 627 48 0
178 385 -253 0
171 611 -254 0
-731 -299 -296 0
-67 -111 473 0
-373 -363 -470 0
-321 124 93 0
249 518 -900 0
-246 -261 353 0
-792 30 753 0
705 -483 -457 0
391 369 -566 0
922 233 793 0
151 -445 588 0
719 476 -131 0
-547 -33 -676 0
-545 -490 732 0
-476 979 643 0
-158 -20 -74 0
752 927 -770 0
873 -399 387 0
-977 -373 484 0
-401 785 -121 0
-618 743 637 0
986 778 555 0
-962 845 -579 0
593 642 -329 0
-569 -498 306 0
603 -707 -314 0
381 -763 -312 0
108 897 437 0
-257 -746 -643 0
-699 438 746 0
58 199 -432 0
362 855 -665 0
-762 194 962 0
-35 -648 64 0
-501 979 -23 0
-938 -222 -277 0
346 554 822 0
594 -531 721 0
-598 -38 -365 0
834 519 -536 0
-975 203 -888 0
-450 983 282 0
-562 -395 974 0
803 957 154 0
582 762 -443 0
-911 463 -766 0
746 -392 674 0
-119 243 277 0
-885 -718 -312 0
909 -919 -286 0
389 690 186 0
-393 308 394 0
-784 421 640 0
-325 618 865 0
205 -699 -417 0
-948 15 34 0
709 202 519 0
184 354 -408 0
-922 -568 76 0
-275 -738 950 0
719 639 152 0
24 985 -44 0
736 607 180 0
-954 289 710 0
-645 65 -246 0
-556 -365 -536 0
-778 618 29 0
-172 555 -48 0
-107 631 71 0
-655 410 -21 0
-850 630 70 0
-660 -320 -412 0
462 -724 -889 0
-348 217 909 0
-925 132 679 0
761 -570 -17 0
656 -130 -245 0
877 710 904 0
800 281 -457 0
-30 654 -12 0
-263 -707 309 0
848 231 -188 0
813 201 251 0
-251 -485 85 0
-87 -606 319 0
191 -710 367 0
364 -922 -36 0
-384 -556 -416 0
443 -285 782 0
-308 -737 -790 0
-143 907 -425 0
-413 506 -192 0
783 581 -177 0
257 38 624 0
154 -73 116 0
-752 693 658 0
20 648 -438 0
780 -715 630 0
-485 -836 971 0
-861 -158 982 0
-687 445 346 0
486 94 491 0
-373 41 776 0
-753 343 568 0
-46 -5 281 0
630 337 -412 0
-404 -266 716 0
-934 -652 -809 0
272 -727 424 0
-191 677 -740 0
648 -892 105 0
-578 976 -484 0
-307 747 -51 0
126 -529 558 0
-492 -27 337 0
-254 -427 -75 0
-419 649 231 0
-700 148 -824 0
-775 20 388 0
-508 275 645 0
982 931 -868 0
789 -192 292 0
402 -952 782 0
-126 -949 44 0
-153 754 -17 0
389 734 -526 0
-496 -272 442 0
-48 66 -369 0
779 -600 281 0
-179 761 -472 0
-5 -375 569 0
-318 -386 -317 0
175 -1000 963 0
-433 -268 500 0
-953 329 -425 0
-75 444 602 0
82 440 -568 0
95 770 -449 0
-432 205 91 0
894 -127 -301 0
-354 722 -375 0
-298 -703 268 0
96 -447 -763 0
77 -13 -934 0
419 791 383 0
-702 -468 -776 0
-126 47 565 0
458 111 -869 0
44 -719 -641 0
537 -545 896 0
-653 -351 11 0
-6 -156 -765 0
-773 -113 -932 0
-857 755 -833 0
460 -912 734 0
731 -827 744 0
-591 745 -228 0
-833 -32 869 0
-731 536 150 0
-710 -786 -815 0
-747 187 154 0
-744 241 -272 0
7 -806 340 0
253 -903 166 0
374 -544 76 0
-982 -535 -409 0
-828 241 664 0
-7 785 67 0
824 -406 -70 0
-676 457 -260 0
524 892 -25 0
-636 -368 866 0
765 99 -675 0
-70 -764 -282 0
277 381 -669 0
-451 347 -965 0
-894 588 -265 0
691 947 147 0
-999 -237 290 0
-722 994 640 0
-750 -66 -680 0
934 992 502 0
565 -826 -552 0
-299 -202 -109 0
408 -264 577 0
665 124 -611 0
730 -843 -887 0
-85 413 -656 0
-529 -355 795 0
880 -799 -28 0
-172 144 -927 0
319 -590 -212 0
384 116 987 0
50 -824 -714 0
-654 -287 -378 0
-855 -877 -204 0
-392 -565 292 0
334 -305 638 0
184 -204 554 0
-884 -345 793 0
-109 -989 -224 0
-666 -133 962 0
-823 456 699 0
-928 798 873 0
281 293 314 0
656 817 -881 0
-258 -130 -661 0
69 -87 -938 0
577 -645 945 0
709 -427 -649 0
-538 782 884 0
-153 724 -379 0
-83 123 -337 0
-92 -629 -255 0
-7 708 -494 0
467 -246 355 0
510 -430 -469 0
-279 -238 598 0
993 579 857 0
851 -734 371 0
973 926 884 0
-930 -774 588 0
53 -330 -467 0
-997 -119 -204 0
-955 -483 707 0
-973 -917 564 0
-9 -100 -941 0
307 -858 595 0
385 494 -260 0
-405 715 638 0
856 14 -84 0
-143 -697 -990 0
262 -919 466 0
535 18 -42 0
-25 -606 -586 0
355 310 -640 0
-120 -848 -169 0
-723 697 242 0
-917 -477 503 0
-40 624 -129 0
779 67 -104 0
-880 -668 -491 0
23 -363 -472 0
863 814 -486 0
-162 -988 -875 0
-639 -660 317 0
-572 637 263 0
-459 131 -372 0
-882 -369 759 0
287 46 -555 0
-809 156 505 0
4 -25 -462 0
-518 -612 1000 0
636 -510 567 0
762 148 -333 0
-172 -37 -188 0
230 767 166 0
-922 96 -422 0
916 73 -863 0
-591 -582 636 0
-199 511 228 0
792 -646 959 0
-860 389 243 0
235 228 -196 0
-635 -370 -736 0
-336 522 487 0
620 18 -908 0
-645 -465 -557 0
356 -625 -687 0
-814 295 375 0
-532 975 655 0
-229 334 -129 0
-473 104 612 0
200 567 -668 0
948 531 572 0
541 430 -419 0
-96 -663 797 0
-816 986 -368 0
869 -444 79 0
82 382 -127 0
838 129 586 0
-982 822 -547 0
-219 632 -295 0
-431 258 -287 0
158 202 -932 0
997 -876 632 0
-267 115 -184 0
-852 818 899 0
803 619 -929 0
-735 668 -642 0
-458 -851 66 0
182 -554 508 0
-266 827 -559 0
236 408 696 0
522 738 728 0
-404 -62 502 0
371 -184 309 0
250 -5 -320 0
-734 -863 275 0
21 845 -61 0
-924 312 374 0
-70 724 901 0
878 -118 352 0
-1000 483 189 0
487 -41 -951 0
-279 12 -898 0
-208 -32 -434 0
238 -773 693 0
-334 417 589 0
-845 -270 498 0
-899 99 -980 0
-174 -141 -524 0
350 18 352 0
499 790 727 0
-455 -999 -542 0
-627 -905 487 0
298 578 160 0
392 -966 -566 0
-212 390 -883 0
995 -835 -525 0
-467 -471 480 0
586 777 -835 0
202 -273 -552 0
-477 208 -460 0
-144 -860 -719 0
614 651 -499 0
417 234 -606 0
157 -763 686 0
-405 468 465 0
-643 998 900 0
532 -942 -563 0
-4 -176 892 0
-646 -618 265 0
596 -845 458 0
-669 -930 -143 0
-882 25 653 0
-978 -609 973 0
697 -446 -730 0
-334 -798 168 0
-331 -665 267 0
467 294 805 0
591 883 -211 0
-976 -776 646 0
13 984 -151 0
-235 749 126 0
-810 431 -30 0
-619 -991 -895 0
502 466 -463 0
-713 -106 -8 0
187 234 -363 0
385 -198 -495 0
-792 -598 -252 0
-23 658 -516 0
443 72 -430 0
976 725 955 0
414 -822 -654 0
-853 613 -550 0
-841 -757 813 0
968 -64 -59 0
-379 876 893 0
892 -798 -833 0
703 -136 314 0
812 -816 -284 0
-905 -168 -391 0
-466 676 -739 0
449 751 -82 0
45 -311 778 0
920 404 -556 0
477 -785 49 0
87 -541 877 0
972 57 118 0
178 -351 967 0
379 -585 -988 0
433 524 474 0
950 -739 -47 0
800 -933 -104 0
339 675 771 0
560 368 -248 0
-72 -791 949 0
-865 907 439 0
395 873 901 0
842 791 913 0
-558 -631 -935 0
-510 -415 362 0
651 790 -798 0
883 708 -148 0
-662 -353 991 0
827 -1000 -256 0
465 8 -764 0
360 -883 189 0
-994 875 -441 0
257 585 -6 0
-80 -883 244 0
-383 107 -208 0
751 891 -594 0
-832 613 920 0
-196 264 -791 0
745 -484 -712 0
606 373 -464 0
-921 -50 825 0
546 -747 -561 0
-101 -298 -263 0
195 -900 -12 0
401 -892 781 0
318 -202 106 0
459 -161 -52 0
-22 414 97 0
-248 666 -816 0
940 -843 -301 0
-605 -990 554 0
-936 -867 915 0
687 -983 463 0
-573 -687 495 0
-755 29 881 0
-774 -305 721 0
-569 -798 513 0
-21 386 -167 0
8 -715 -410 0
33 -712 -187 0
427 128 -114 0
438 856 367 0
-205 525 769 0
-945 -378 -859 0
126 548 -597 0
349 335 -619 0
-589 -963 322 0
-424 -702 975 0
156 -787 419 0
-208 289 569 0
-390 -383 -180 0
-745 -681 304 0
-721 861 692 0
18 739 345 0
-223 -600 -778 0
-463 543 739 0
594 273 102 0
79 761 199 0
422 160 614 0
-609 711 -52 0
276 -765 732 0
715 1 -29 0
320 -167 -953 0
-922 346 458 0
-362 -769 737 0
310 492 -707 0
-252 -548 897 0
-27 75 398 0
752 240 -575 0
-672 251 545 0
914 21 -119 0
271 191 742 0
-346 -477 757 0
-918 403 -588 0
-918 -547 -109 0
389 95 711 0
-99 701 379 0
-150 734 -826 0
143 -405 -387 0
841 -842 622 0
-741 341 -428 0
930 48 -431 0
454 -802 -397 0
231 -24 -322 0
649 -320 237 0
-313 -586 -369 0
606 -774 769 0
152 644 710 0
237 -913 -915 0
-493 -691 925 0
186 -990 542 0
-347 629 115 0
531 975 -523 0
-705 939 132 0
-83 122 -490 0
449 783 -900 0
-108 -431 622 0
355 -96 115 0
-233 -671 -499 0
-557 -96 -141 0
360 -513 -875 0
82 -992 420 0
-306 504 999 0
214 -159 939 0
499 -259 383 0
81 527 836 0
85 -585 -142 0
-371 372 359 0
892 45 607 0
549 -62 -134 0
314 -361 909 0
800 -830 -68 0
-831 -622 809 0
-940 981 744 0
926 522 407 0
-155 -831 -612 0
354 -418 -89 0
993 30 -299 0
508 -916 354 0
-595 -456 638 0
-231 912 -210 0
374 -825 554 0
293 329 392 0
-922 -71 887 0
-462 179 395 0
327 81 771 0
-878 -436 710 0
336 -378 446 0
214 -296 483 0
-697 121 979 0
-180 -469 -41 0
-636 -713 922 0
211 -854 -341 0
-678 760 -30 0
-906 -389 -683 0
-173 -262 -113 0
656 -766 30 0
632 738 -433 0
-837 219 960 0
878 396 -3 0
677 -971 -886 0
-399 -839 830 0
-186 702 -35 0
-7 -250 393 0
-159 69 374 0
-386 -283 705 0
785 10 -57 0
-883 947 736 0
62 472 692 0
-516 83 211 0
174 -379 -129 0
-816 951 -864 0
386 921 81 0
-36 365 -551 0
-939 -406 -743 0
-178 -549 710 0
145 538 -452 0
960 -184 -861 0
-222 456 102 0
-470 -571 -466 0
-318 -423 -738 0
615 814 27 0
-73 -398 759 0
-669 291 -963 0
457 481 929 0
464 -164 900 0
382 -718 782 0
-654 614 -210 0
828 31 -328 0
-393 996 -58 0
-877 943 -539 0
16 -596 566 0
966 213 -136 0
884 681 -43 0
878 396 689 0
-270 -201 127 0
-548 -85 -603 0
904 -216 -472 0
-286 899 -63 0
-943 -662 -845 0
-271 45 198 0
-661 201 520 0
663 296 -430 0
19 462 720 0
-606 -44 271 0
-768 -247 -912 0
878 815 -997 0
779 180 64 0
318 -675 756 0
885 465 -832 0
33 490 731 0
64 328 -893 0
728 190 -17 0
966 -860 -449 0
-3 -738 841 0
-20 868 -16 0
79 931 -449 0
-453 888 -123 0
109 437 33 0
-678 826 3 0
-183 455 -713 0
166 -533 678 0
509 -944 280 0
453 -436 980 0
933 181 -824 0
817 443 -420 0
23 730 631 0
-129 884 -754 0
-406 -348 -276 0
242 -364 -10 0
279 -158 -250 0
517 262 -263 0
350 -582 -535 0
586 843 -707 0
-658 863 -718 0
-42 153 -132 0
6 682 474 0
-199 893 -80 0
-572 -335 -924 0
-131 242 705 0
972 850 154 0
-116 30 153 0
-680 835 -846 0
-160 -480 379 0
-130 -879 -921 0
-407 687 485 0
707 -93 537 0
142 308 813 0
281 667 -933 0
-54 -252 484 0
-890 895 53 0
-37 995 437 0
-850 -271 333 0
144 625 149 0
-22 128 -489 0
568 -526 -490 0
538 -323 -976 0
214 923 -704 0
-563 185 -134 0
730 12 964 0
361 -737 -623 0
-806 792 922 0
-746 472 268 0
-246 -931 -174 0
153 -518 525 0
96 -820 -898 0
985 419 -615 0
995 -30 115 0
-246 967 -212 0
-153 27 866 0
-754 -814 519 0
-104 110 738 0
566 -717 -11 0
-32 997 -639 0
-446 -557 -447 0
-784 -677 -923 0
-220 -810 -586 0
232 -287 587 0
821 -999 596 0
426 -746 -872 0
477 -748 -902 0
370 649 603 0
182 228 297 0
-370 613 521 0
630 859 -971 0
-690 -831 -746 0
785 312 -305 0
-373 765 974 0
924 -509 347 0
-773 665 490 0
94 696 259 0
219 -160 -936 0
102 515 -822 0
-205 717 -548 0
619 846 632 0
-329 922 -739 0
432 429 -439 0
755 467 664 0
102 512 -544 0
-906 225 -600 0
-705 -413 -466 0
269 692 -385 0
906 -304 -517 0
5 216 -17 0
952 -243 342 0
563 -607 359 0
516 987 -673 0
-487 228 946 0
-864 -809 -942 0
566 135 777 0
-227 821 -61 0
-653 -173 974 0
376 466 -754 0
-897 930 218 0
-672 812 289 0
-413 69 -267 0
298 959 281 0
696 992 -717 0
532 -999 -721 0
537 863 -875 0
649 -275 -658 0
519 20 850 0
-427 968 -632 0
-483 -396 361 0
-383 -426 -730 0
674 -955 -980 0
522 -124 -167 0
806 214 367 0
-742 408 -272 0
-690 28 -222 0
160 -334 49 0
795 100 -652 0
-453 210 -255 0
197 -899 -706 0
-140 616 -761 0
60 642 62 0
823 -72 944 0
956 574 -49 0
813 543 643 0
190 57 -845 0
-880 737 -444 0
869 -460 -897 0
-121 -227 323 0
-360 896 864 0
-722 -259 -194 0
670 298 532 0
247 -337 736 0
283 -154 -522 0
67 461 -799 0
-312 -255 -859 0
-504 -342 -583 0
748 991 -615 0
-88 -392 309 0
-288 564 422 0
312 -271 -685 0
28 -583 58 0
116 422 -419 0
-522 -308 -188 0
567 192 -846 0
-12 -275 776 0
371 212 197 0
798 236 52 0
-761 -140 -830 0
-927 -371 229 0
197 -844 708 0
259 -45 -895 0
-380 -508 630 0
733 765 581 0
-968 463 -775 0
-277 -157 -245 0
899 676 -381 0
-564 -164 87 0
39 -728 306 0
912 -344 -207 0
709 -87 121 0
566 -688 500 0
602 -83 -52 0
-656 240 -59 0
-322 15 675 0
-295 758 -471 0
-761 770 1000 0
394 396 438 0
906 108 98 0
439 322 -10 0
326 844 205 0
-76 301 587 0
-779 386 570 0
187 -506 406 0
33 -411 -525 0
-922 249 -748 0
585 -644 -664 0
-877 -670 412 0
661 -758 448 0
-129 322 911 0
-208 -430 -102 0
847 621 -555 0
-264 634 -337 0
319 -865 718 0
328 883 463 0
510 -598 -588 0
-36 -939 24 0
625 978 -319 0
-422 381 850 0
273 -467 -463 0
-573 -163 -390 0
17 -126 70 0
-284 -473 156 0
313 -175 -488 0
423 -463 -502 0
-376 -572 -197 0
288 -389 -909 0
857 -66 -384 0
-234 782 68 0
-976 -320 93 0
321 -428 528 0
229 272 -963 0
-886 612 355 0
-845 306 -717 0
-468 -896 442 0
-848 316 408 0
949 -53 197 0
-360 -826 729 0
-1000 855 431 0
89 247 110 0
-453 -316 -722 0
-883 -95 -927 0
-914 -150 330 0
504 924 953 0
998 240 -689 0
-515 272 -582 0
-850 -461 813 0
-393 50 -38 0
48 848 -140 0
213 598 -624 0
161 -937 -823 0
-490 625 -871 0
-95 -819 -353 0
526 191 -825 0
-225 33 -233 0
361 203 -717 0
-57 -858 450 0
-740 -594 -847 0
-824 334 -245 0
918 577 891 0
-919 -844 -14 0
642 508 301 0
812 -5 -254 0
229 -808 -756 0
759 -3 215 0
-966 456 607 0
432 -721 358 0
152 829 -383 0
-673 999 344 0
-261 -533 -99 0
-264 -599 -200 0
59 -72 -701 0
-438 -7 454 0
-363 -164 255 0
-201 -33 -199 0
-335 -607 -815 0
-354 -966 -582 0
800 -234 -1 0
908 -481 895 0
-677 -588 -305 0
-820 -378 -752 0
22 291 -494 0
513 -951 713 0
-585 799 400 0
738 -654 806 0
-62 -109 127 0
986 -25 -629 0
514 -957 -859 0
-878 222 546 0
-9 -510 602 0
331 -759 -131 0
196 -407 463 0
-354 -324 -445 0
