p cnf 1000 4000
-379 499 -77 0
85 -107 -590 0
-223 -780 -738 0
120 -381 954 0
556 381 -510 0
191 -625 -918 0
-20 -863 412 0
-698 -699 -375 0
556 701 -471 0
182 -508 386 0
251 893 -100 0
806 -625 -991 0
-297 20 -635 0
159 -833 -185 0
688 -215 -245 0
-387 339 -195 0
-580 -365 -2 0
465 242 -709 0
-815 404 -2 0
-413 -109 461 0
351 -62 -16 0
-956 -799 516 0
920 557 -373 0
554 256 -537 0
158 -440 -509 0
381 364 969 0
-412 -261 899 0
-849 -335 -748 0
-426 -371 355 0
-501 -810 719 0
206 446 -526 0
-278 -276 -901 0
585 -836 -931 0
674 -437 -663 0
-121 -640 519 0
754 -645 -764 0
-419 -653 -386 0
-720 54 880 0
-151 614 448 0
926 -712 434 0
84 716 -445 0
-19 682 695 0
75 -214 -801 0
768 999 -527 0
-330 -87 -502 0
744 -390 -509 0
-669 359 322 0
82 -741 -378 0
-540 -94 458 0
-26 -73 -134 0
-425 -73 992 0
80 -723 -549 0
97 359 -626 0
994 860 727 0
727 164 -350 0
-486 832 -552 0
428 801 901 0
898 -448 415 0
924 -483 729 0
822 -874 572 0
251 -553 86 0
219 366 755 0
-317 742 55 0
-867 832 131 0
108 -446 670 0
584 421 -172 0
949 37 858 0
633 -628 -419 0
-598 -520 -649 0
-68 187 -455 0
505 -771 879 0
-403 -804 988 0
-807 989 -396 0
-847 780 285 0
-661 -168 -50 0
-165 -245 559 0
626 427 -376 0
558 -188 -136 0
-368 -100 -249 0
275 -444 -135 0
-633 -138 531 0
895 637 -482 0
-960 -950 -964 0
-356 -222 -404 0
-365 -412 827 0
-206 -241 36 0
844 -995 874 0
-747 636 779 0
285 -828 -112 0
129 649 -256 0
-731 -871 -123 0
-212 942 -470 0
233 -286 -448 0
167 -314 533 0
806 -100 -238 0
516 -69 -767 0
-720 834 -722 0
-278 899 211 0
-544 -141 345 0
-31 142 -33 0
81 -319 480 0
929 627 -438 0
213 -809 -750 0
-2 50 393 0
583 484 660 0
705 561 979 0
798 -107 -65 0
649 -861 -647 0
-893 55 -767 0
-568 226 894 0
353 358 782 0
-699 -986 -158 0
-640 -613 -708 0
-969 -329 563 0
423 625 648 0
-816 587 804 0
235 695 -675 0
-429 -883 197 0
-680 394 -815 0
-789 -279 -287 0
693 -146 -865 0
791 719 -247 0
-174 899 678 0
-487 224 979 0
652 338 -776 0
309 197 56 0
768 -211 -381 0
-652 -170 606 0
918 -589 247 0
574 -735 182 0
800 -593 702 0
-404 -754 672 0
-365 -930 953 0
-602 -982 -331 0
830 59 -409 0
131 551 211 0
-403 435 722 0
139 -731 -945 0
-173 240 831 0
-740 590 143 0
-677 619 256 0
262 -410 317 0
-499 -745 -682 0
-13 494 -353 0
374 -846 -494 0
-714 552 320 0
-313 -350 839 0
-250 355 -154 0
-198 363 -554 0
-726 -235 70 0
-477 713 483 0
-611 979 922 0
854 -117 -105 0
-751 683 547 0
285 -761 541 0
570 865 902 0
477 -43 -923 0
-994 724 976 0
766 596 -430 0
214 -338 -671 0
-976 -544 -921 0
821 87 -98 0
-533 -14 -627 0
-269 -670 717 0
603 -165 292 0
510 -226 -776 0
510 -580 -846 0
255 856 88 0
-418 -986 -37 0
-916 417 258 0
-401 843 803 0
-432 -401 729 0
-264 -401 -413 0
-118 -43 -133 0
-429 111 -941 0
-461 367 -535 0
-101 -263 699 0
-443 197 -468 0
309 600 976 0
141 -894 -598 0
676 -153 -869 0
828 -466 -349 0
-64 -825 757 0
893 949 -867 0
-231 -40 407 0
88 241 -131 0
-331 -301 -805 0
-967 762 962 0
-878 730 150 0
379 -926 18 0
-618 119 463 0
673 851 -485 0
537 556 -929 0
-898 -69 25 0
372 -291 -868 0
-168 -905 838 0
-342 -546 183 0
-728 -789 -270 0
-888 -645 -76 0
-523 624 723 0
-697 -818 850 0
-636 -385 -507 0
877 540 390 0
522 -341 511 0
-53 -598 864 0
-424 -198 545 0
761 -559 -481 0
959 -877 437 0
706 -111 -782 0
-598 -143 -827 0
-862 29 -635 0
-6 -294 546 0
905 -813 -146 0
96 391 877 0
519 -165 -503 0
-436 -999 356 0
-616 178 250 0
418 -365 134 0
-734 -569 -48 0
-825 706 -821 0
586 -963 826 0
101 343 518 0
829 251 312 0
966 610 -191 0
934 541 685 0
670 -193 -291 0
-875 -985 965 0
77 841 188 0
-524 284 86 0
21 -601 -906 0
141 498 621 0
-594 841 -727 0
710 469 766 0
370 -581 786 0
349 203 -677 0
-673 -137 -195 0
-757 -492 -279 0
357 569 -480 0
289 4 38 0
34 346 538 0
-92 -521 -885 0
243 558 933 0
235 -965 -990 0
464 736 -851 0
822 962 172 0
72 841 560 0
48 57 -423 0
-205 -31 -854 0
-177 -292 -246 0
645 -288 733 0
-80 -468 -442 0
-725 449 239 0
623 870 -983 0
138 49 303 0
-837 -956 -73 0
-370 611 -549 0
-168 -405 -431 0
-912 -400 971 0
-594 -953 -64 0
170 -824 841 0
-141 -388 438 0
-226 651 584 0
124 -892 322 0
-768 -932 -79 0
-358 -766 72 0
-318 -158 -765 0
-634 449 -65 0
280 -371 -392 0
129 515 -927 0
-318 717 -364 0
-686 919 -871 0
696 449 437 0
270 -334 67 0
-284 419 -148 0
-595 -935 -40 0
386 -432 522 0
-927 -189 537 0
-202 550 -517 0
74 957 -206 0
136 612 -435 0
925 303 13 0
-297 -942 -957 0
-821 -614 726 0
-351 154 181 0
248 -784 33 0
201 -835 900 0
856 345 965 0
-231 -264 458 0
132 628 -247 0
885 425 -154 0
728 -317 319 0
-33 13 -18 0
-20 -609 765 0
104 -941 -775 0
58 674 -217 0
796 -367 130 0
-909 892 535 0
941 626 694 0
256 510 -38 0
-202 -681 104 0
-941 -798 927 0
830 -706 796 0
-361 -740 -591 0
49 -100 -633 0
353 626 624 0
223 278 -41 0
286 589 821 0
-906 601 122 0
132 312 -523 0
44 -163 308 0
-49 488 192 0
378 831 874 0
-795 -843 529 0
-628 -142 -463 0
985 392 -706 0
-742 -955 663 0
188 301 192 0
492 -209 111 0
595 -736 730 0
29 -313 123 0
47 -617 114 0
594 -27 -485 0
786 -156 -297 0
203 949 917 0
-975 -817 -721 0
-719 245 -412 0
-80 505 6 0
-219 -152 -449 0
-951 -628 -497 0
601 -63 148 0
506 484 466 0
-190 189 65 0
-645 920 743 0
961 255 -805 0
841 -355 509 0
-996 -217 687 0
531 917 -701 0
244 -288 -2 0
876 802 -852 0
106 68 -399 0
755 660 -231 0
671 -771 -291 0
-688 923 560 0
702 -870 -425 0
443 -265 -802 0
-559 582 446 0
-708 -507 15 0
-978 253 532 0
933 -953 -63 0
4 -716 672 0
-106 590 938 0
-340 -910 -199 0
-565 607 -866 0
665 139 -643 0
239 265 310 0
97 591 -330 0
-289 -711 774 0
-322 355 696 0
-62 -167 -220 0
-349 -168 277 0
794 558 -648 0
-826 376 -594 0
918 268 320 0
971 950 -139 0
-656 -2 -622 0
24 580 -250 0
-534 919 -169 0
-602 316 -639 0
-735 634 -174 0
-261 454 877 0
-673 504 341 0
-876 -164 -833 0
902 383 454 0
6 -132 820 0
724 170 332 0
-370 303 148 0
108 -2 -321 0
-709 473 173 0
-188 423 -811 0
-42 -945 634 0
644 -80 -395 0
-731 992 -229 0
133 -347 -490 0
-158 594 -612 0
-276 -258 439 0
10 -519 569 0
105 -331 -906 0
369 -304 119 0
613 -460 889 0
776 566 -250 0
460 897 620 0
260 -817 876 0
35 -969 673 0
498 520 869 0
902 -744 -837 0
969 -246 -183 0
911 -84 495 0
331 67 -958 0
585 -665 235 0
695 331 126 0
369 -272 -863 0
973 -895 586 0
421 243 -786 0
-216 703 390 0
-229 944 -659 0
655 -126 630 0
-277 -59 875 0
368 -622 -581 0
933 749 207 0
-738 237 754 0
309 -253 352 0
-779 -479 417 0
-200 -953 -738 0
959 616 594 0
-874 440 265 0
840 817 211 0
-594 316 809 0
-642 -419 -307 0
-625 -986 666 0
-6 888 -576 0
-545 958 565 0
8 -13 453 0
236 732 -481 0
572 454 -172 0
68 463 -28 0
-827 -129 173 0
-81 740 418 0
-573 313 -122 0
444 959 -755 0
817 -261 54 0
-602 800 822 0
460 -473 -43 0
662 327 -637 0
744 -17 29 0
346 -220 73 0
-824 -859 -138 0
159 -617 465 0
849 405 34 0
-742 -962 -801 0
250 814 145 0
607 565 316 0
-795 895 550 0
-15 -982 126 0
537 -890 918 0
421 -125 -885 0
-137 51 687 0
-505 -539 -866 0
-112 510 783 0
380 -531 817 0
-532 -275 -186 0
151 -417 304 0
-836 757 875 0
883 843 -50 0
346 357 -919 0
-200 -894 17 0
910 408 364 0
-1000 495 -612 0
-903 -876 376 0
-396 858 784 0
209 985 11 0
-512 -323 -813 0
188 -392 -379 0
269 -466 -346 0
442 -55 268 0
-853 720 -959 0
-977 -495 985 0
885 -607 210 0
-880 -920 530 0
-427 -657 655 0
-273 -565 577 0
772 506 473 0
138 115 -803 0
-748 -477 918 0
69 250 404 0
970 -104 741 0
657 30 -608 0
-367 -319 -924 0
944 861 633 0
735 901 618 0
654 -364 61 0
-862 -31 30 0
904 -735 780 0
512 202 324 0
-944 -709 -537 0
33 202 -195 0
-84 69 610 0
666 -100 46 0
377 -5 831 0
-390 -664 -471 0
-1 -409 73 0
-477 506 -918 0
507 -537 -113 0
432 -465 386 0
774 276 733 0
365 -48 872 0
149 141 529 0
592 467 -208 0
697 -235 466 0
606 952 333 0
866 -439 189 0
470 -993 -531 0
-933 -54 -168 0
-576 -239 -780 0
-267 480 809 0
808 -935 687 0
-719 963 -798 0
-999 15 -989 0
246 70 -840 0
614 63 231 0
691 -741 929 0
825 -308 -922 0
-138 230 369 0
472 631 -107 0
-918 -509 559 0
-791 -613 528 0
445 -709 -565 0
538 965 199 0
-661 143 -586 0
324 547 -113 0
-819 -239 184 0
26 612 -702 0
-1 455 -903 0
-389 -525 888 0
-32 -809 562 0
631 -880 -817 0
846 -264 -7 0
34 707 -847 0
-240 288 85 0
-628 -44 -164 0
-735 -628 -478 0
-681 7 260 0
50 -236 957 0
-942 558 -819 0
-166 540 -590 0
-979 -929 -437 0
845 799 918 0
-867 -285 -480 0
-133 -89 -972 0
212 -855 483 0
684 816 819 0
422 991 -634 0
-339 -952 511 0
-346 -971 507 0
458 167 137 0
812 -545 37 0
477 -269 -576 0
51 394 50 0
949 -919 490 0
-999 -818 514 0
997 162 -687 0
-831 -346 515 0
113 -511 -773 0
-198 925 687 0
128 781 -440 0
-712 733 -957 0
417 -101 985 0
-243 145 -335 0
680 840 767 0
-210 -960 -366 0
627 -841 -628 0
52 899 -316 0
575 -289 -176 0
394 -170 -986 0
295 -235 662 0
361 879 -42 0
-474 91 -240 0
162 63 -625 0
729 630 -675 0
421 -347 -594 0
-164 -962 -975 0
414 244 811 0
39 -102 -400 0
169 64 -738 0
128 965 567 0
-31 729 858 0
-685 644 -353 0
439 970 -907 0
-802 -597 723 0
-769 -197 -936 0
982 -381 -635 0
125 144 488 0
710 -571 -351 0
-635 325 -455 0
-61 255 815 0
685 -688 -396 0
-806 -710 714 0
-704 -524 654 0
-162 -888 -541 0
-29 196 -231 0
-570 997 541 0
593 -386 797 0
559 -377 -349 0
97 -588 -939 0
-12 -107 919 0
-840 388 669 0
338 -246 -273 0
676 -389 -582 0
484 -903 -50 0
-949 893 -552 0
-253 671 -90 0
-162 -780 -851 0
596 105 -623 0
559 -78 96 0
-941 497 464 0
-213 333 359 0
139 -752 45 0
683 85 -300 0
689 -496 -353 0
452 270 -889 0
-876 -373 -162 0
-687 662 117 0
-41 -437 415 0
953 -686 -50 0
542 622 253 0
935 14 -129 0
-212 459 -936 0
-822 -985 -598 0
-953 -364 626 0
-618 -911 -732 0
286 -224 -980 0
178 780 -526 0
870 -244 188 0
896 -709 517 0
-851 877 -361 0
-616 746 -717 0
351 -899 712 0
-232 737 -790 0
-666 -774 -878 0
490 -286 654 0
-471 -849 -466 0
46 -742 477 0
-305 760 -12 0
949 414 -637 0
-138 728 373 0
-935 -600 891 0
-594 -407 -384 0
314 104 840 0
813 171 -309 0
-496 362 728 0
-591 644 -629 0
-186 -1000 961 0
-47 164 128 0
394 -419 -34 0
588 953 -460 0
-894 543 -430 0
-996 -381 793 0
945 566 840 0
522 -501 -863 0
801 -845 -964 0
646 -451 621 0
330 -999 -333 0
465 -686 -924 0
-241 108 27 0
9 -114 123 0
-493 -212 -638 0
104 906 -113 0
725 -948 -873 0
-667 -740 -727 0
622 283 685 0
-342 -786 -606 0
-169 -223 -102 0
-618 -310 780 0
98 858 -344 0
-86 620 -660 0
595 -858 910 0
-273 -125 76 0
932 -503 -593 0
986 838 280 0
682 -650 674 0
-327 -144 402 0
239 222 300 0
-304 -534 -454 0
-155 691 986 0
-168 10 839 0
-665 -566 708 0
-112 704 554 0
-20 -386 -192 0
975 388 226 0
610 172 -538 0
607 -591 -463 0
-110 -358 -282 0
-660 -882 -859 0
142 -964 681 0
926 -577 961 0
-88 -774 -617 0
-421 821 829 0
-845 727 -582 0
59 936 -970 0
-300 711 65 0
-862 736 -234 0
-248 -524 491 0
-662 -449 -931 0
-822 -258 207 0
936 -44 237 0
-336 892 326 0
-415 538 -594 0
844 308 -606 0
-104 -109 775 0
-639 504 580 0
460 -939 998 0
-343 -964 -632 0
340 374 824 0
-972 -609 706 0
398 419 962 0
-466 -758 -811 0
733 -174 -267 0
-655 -791 -936 0
-393 -744 511 0
-859 799 586 0
-653 638 697 0
-636 850 -562 0
-959 291 402 0
416 620 627 0
-612 878 741 0
465 -963 -150 0
-887 -480 315 0
-418 715 770 0
281 781 67 0
832 675 482 0
916 -308 612 0
-753 -843 -621 0
-525 -67 -725 0
-993 493 -525 0
-392 594 520 0
400 -823 435 0
-173 -978 -322 0
539 -97 739 0
-438 994 860 0
-339 -105 267 0
122 -576 322 0
-255 -378 -264 0
-514 46 -567 0
497 174 595 0
488 114 -928 0
966 348 290 0
332 674 -108 0
-796 387 91 0
206 -867 137 0
-314 -710 -580 0
-789 -826 375 0
-879 -665 574 0
183 319 99 0
-269 207 -120 0
301 890 -925 0
960 409 -877 0
707 -973 -790 0
247 712 -737 0
-653 432 621 0
-885 -964 579 0
-880 -328 991 0
-769 629 136 0
336 186 -128 0
934 -57 209 0
-346 250 71 0
-793 -146 -670 0
-191 514 230 0
-320 -344 178 0
-558 -493 -4 0
517 -882 -822 0
-610 -301 993 0
682 -408 982 0
-299 406 129 0
867 664 94 0
-579 734 136 0
-984 350 -164 0
851 467 -493 0
-58 -110 -351 0
-410 -188 -266 0
-699 14 169 0
115 988 22 0
-58 821 928 0
-807 935 559 0
-662 -134 -14 0
-685 309 -82 0
723 -332 -463 0
-877 -673 -331 0
-634 537 360 0
-932 -583 615 0
679 -4 786 0
-424 316 -833 0
-114 -78 354 0
919 -69 -994 0
-944 -91 -770 0
1000 -24 -894 0
260 775 -685 0
533 222 -765 0
-377 889 -971 0
-88 -943 917 0
24 -244 -667 0
-502 -799 -177 0
358 264 844 0
-866 -631 -829 0
49 413 309 0
-488 -194 -863 0
-934 512 -348 0
-430 557 257 0
-516 -311 -754 0
-168 698 631 0
720 -268 760 0
692 -696 -761 0
-4 -979 -178 0
465 -436 -121 0
-344 -226 -579 0
820 105 849 0
663 113 -267 0
-132 -159 26 0
-118 30 385 0
542 -423 200 0
218 354 -225 0
-783 440 -739 0
332 -715 -863 0
458 942 -411 0
-642 -31 -498 0
-676 902 621 0
141 793 -140 0
-262 590 -990 0
488 992 537 0
-373 -951 423 0
-209 273 529 0
-189 940 295 0
792 -137 -357 0
-741 -690 45 0
308 -628 -104 0
790 910 949 0
613 -319 -165 0
-310 -3 752 0
373 786 353 0
82 -705 -880 0
927 -758 973 0
349 139 619 0
145 -492 54 0
-611 -37 6 0
136 83 -915 0
-921 595 113 0
-159 320 -545 0
571 954 -77 0
-895 -646 443 0
-977 235 303 0
90 213 -616 0
-892 302 936 0
759 896 363 0
-475 439 950 0
-796 721 742 0
638 708 -839 0
908 -585 -754 0
690 103 -394 0
-527 309 874 0
691 109 987 0
-123 -851 459 0
-8 402 -766 0
602 516 -970 0
-378 -854 728 0
-155 -542 337 0
965 978 206 0
619 -346 497 0
361 555 -919 0
350 -361 15 0
694 205 -144 0
907 912 -656 0
-942 983 906 0
904 -427 -2 0
-857 740 -751 0
-636 -84 611 0
-942 -277 718 0
-790 -200 876 0
-740 762 -133 0
985 107 917 0
247 616 -278 0
-347 819 -787 0
-228 -955 811 0
397 -327 15 0
553 -108 -147 0
685 -186 -996 0
653 -822 -276 0
-97 -274 305 0
31 -120 298 0
663 -846 -532 0
-611 620 622 0
-273 692 712 0
994 427 890 0
271 907 -244 0
-784 995 837 0
-62 -333 -820 0
-244 564 580 0
14 352 507 0
-201 432 -73 0
-127 -798 -957 0
-626 -598 489 0
-658 -694 143 0
-181 -109 184 0
-645 -143 -20 0
-787 938 345 0
925 -683 -215 0
338 -3 -726 0
-50 -996 264 0
974 787 387 0
-288 -443 290 0
-314 705 -992 0
-731 377 406 0
295 -638 -527 0
-738 -232 988 0
-750 -174 -821 0
-373 15 -175 0
-880 838 -181 0
-209 513 -444 0
231 44 -410 0
797 -417 -694 0
12 915 -514 0
-69 639 -155 0
338 -236 26 0
939 793 -126 0
800 840 -877 0
868 289 -35 0
908 830 2 0
138 -783 -371 0
-192 -166 -114 0
60 -173 -263 0
798 762 -520 0
-978 695 -74 0
833 -637 -338 0
-703 634 -639 0
884 276 353 0
-868 -722 -177 0
-846 -166 -494 0
449 -24 -854 0
-947 -49 352 0
6 -816 -105 0
-468 986 -615 0
-183 -649 121 0
-871 799 510 0
-113 492 879 0
984 515 569 0
-321 -929 -638 0
23 713 -220 0
175 148 889 0
191 -729 554 0
-69 -223 -2 0
385 649 550 0
-977 227 245 0
-944 -245 335 0
88 694 69 0
141 785 131 0
175 140 803 0
-872 -639 -967 0
299 752 477 0
-243 711 -884 0
-875 106 -481 0
-182 -297 -457 0
445 -167 -667 0
-482 926 354 0
488 10 552 0
929 -104 -420 0
210 -348 -409 0
110 -799 -507 0
622 559 -777 0
-657 -283 -942 0
-511 -646 205 0
-56 494 8 0
-588 950 -900 0
-646 -133 492 0
879 340 955 0
-704 -617 122 0
382 -594 -557 0
-427 804 291 0
100 -107 750 0
685 653 776 0
565 687 -601 0
-602 -4 -223 0
-691 -634 365 0
11 706 518 0
271 806 -231 0
288 177 -385 0
790 568 -587 0
201 836 11 0
-706 610 -167 0
-518 669 -405 0
741 37 -781 0
-175 -80 -222 0
-641 925 -549 0
-135 -950 253 0
-510 254 195 0
882 -822 290 0
734 330 464 0
213 -559 -574 0
-827 -608 -165 0
-97 385 -724 0
-242 -336 -756 0
252 177 322 0
730 849 549 0
113 -476 -301 0
981 8 -606 0
444 -564 -794 0
-589 -530 -837 0
-222 -486 -787 0
419 769 -787 0
-548 -346 -852 0
464 641 173 0
602 312 -996 0
479 33 -51 0
-836 -828 -685 0
-925 -393 -630 0
933 739 44 0
-667 826 -730 0
-312 279 -492 0
395 -676 -188 0
776 342 467 0
-841 -872 -801 0
-61 931 693 0
-112 -338 -128 0
-694 965 -437 0
-930 -115 -940 0
-891 -623 174 0
248 497 377 0
-611 198 -593 0
791 -424 -610 0
523 -682 -529 0
-178 159 444 0
-504 817 -351 0
39 176 -828 0
-549 -62 -92 0
-196 594 299 0
-256 -84 42 0
-185 -372 158 0
-671 391 -564 0
22 256 -243 0
741 350 274 0
-336 -993 987 0
-251 641 616 0
26 -4 479 0
631 -614 -717 0
398 135 -961 0
-548 984 -52 0
-725 -949 -59 0
226 -245 166 0
43 7 -709 0
35 956 463 0
112 -579 -715 0
-26 58 -36 0
591 997 748 0
-306 -917 296 0
71 811 926 0
-849 297 784 0
-731 540 553 0
-713 -37 -542 0
338 -793 -673 0
-58 -3 975 0
-722 553 387 0
810 711 -625 0
-995 -482 -977 0
-380 -364 30 0
867 -101 400 0
410 -143 530 0
802 352 456 0
-762 -815 -663 0
462 -423 -155 0
-332 -859 526 0
316 -226 595 0
-367 449 90 0
654 758 79 0
748 -912 403 0
5 860 146 0
-321 218 -487 0
441 355 -422 0
-979 -139 85 0
-869 305 -433 0
-674 -29 -771 0
577 982 -816 0
898 -973 962 0
-142 -784 -124 0
785 -136 21 0
646 275 -499 0
-485 -13 50 0
-899 381 -104 0
138 -370 616 0
286 -392 475 0
-702 -973 -316 0
-305 -618 -362 0
-21 -796 -779 0
60 24 903 0
984 -508 185 0
-283 21 -921 0
-609 -880 346 0
71 80 -622 0
-253 -132 243 0
-574 328 281 0
649 579 366 0
-167 45 181 0
-203 -328 8 0
-355 -246 928 0
276 69 -340 0
-870 -910 -390 0
56 -702 -931 0
-148 -815 43 0
118 206 -256 0
167 -917 325 0
716 -442 -109 0
344 328 -932 0
-99 -746 320 0
-326 379 -123 0
452 -793 394 0
53 191 -99 0
-556 444 -129 0
-995 649 119 0
-518 -895 -667 0
-465 -289 -558 0
-976 -592 -741 0
344 -24 -181 0
-778 232 52 0
195 -704 -228 0
-9 -169 -786 0
258 20 28 0
-581 95 14 0
-7 -280 -36 0
672 332 -921 0
-170 330 151 0
-518 -798 988 0
792 24 -278 0
631 744 -360 0
826 247 -330 0
663 304 683 0
627 156 779 0
839 -142 -410 0
547 2 -759 0
-769 -977 435 0
-423 -732 590 0
-28 -181 422 0
-559 423 583 0
149 -92 153 0
183 -525 -222 0
-126 -877 -80 0
-994 633 -694 0
-280 843 -809 0
427 563 412 0
-315 181 -228 0
-847 -806 -604 0
-914 875 433 0
152 -926 845 0
-387 -301 219 0
96 -276 -231 0
515 -303 23 0
-753 423 744 0
658 -576 -77 0
-384 53 -990 0
-19 817 995 0
-110 -331 -217 0
227 640 36 0
308 -102 189 0
418 -467 -491 0
874 986 922 0
-595 811 96 0
273 261 -846 0
-761 17 -47 0
558 -428 -954 0
767 376 -552 0
265 682 843 0
12 357 -35 0
-41 -187 765 0
-310 -232 -927 0
-411 756 -410 0
360 432 967 0
271 803 306 0
-494 -379 236 0
-103 278 -474 0
599 492 19 0
-20 403 -7 0
-549 -675 -973 0
982 -127 132 0
-596 -289 206 0
441 756 692 0
-30 -579 202 0
-26 521 -81 0
-243 -997 -63 0
-188 -753 -139 0
-114 -104 -321 0
792 149 -953 0
407 -548 73 0
167 -198 -632 0
885 306 320 0
399 408 -467 0
10 -166 -476 0
-870 618 -556 0
-719 346 -179 0
14 920 784 0
381 314 319 0
146 -147 -813 0
-158 -402 690 0
22 -430 161 0
289 556 -9 0
66 732 -275 0
882 -734 718 0
239 -297 -418 0
-696 -443 621 0
-344 -347 165 0
783 -207 -10 0
318 -698 -438 0
912 340 797 0
-420 433 935 0
-164 238 610 0
-51 -39 57 0
-885 577 -531 0
318 -182 268 0
437 -653 -381 0
95 317 -458 0
-926 -780 587 0
359 971 999 0
237 164 289 0
319 -975 -498 0
633 -102 945 0
-565 -667 726 0
413 538 749 0
-664 499 805 0
-788 562 98 0
-600 -198 -229 0
949 604 259 0
467 -570 673 0
-390 -715 -832 0
-922 20 809 0
137 231 -79 0
-993 804 454 0
391 533 349 0
-606 499 899 0
-159 840 -728 0
-880 -808 764 0
-849 -997 -897 0
-506 9 -242 0
-550 -719 628 0
776 763 968 0
997 950 901 0
576 406 -101 0
-761 -489 930 0
-1000 -989 731 0
-523 -102 -501 0
80 -740 464 0
-310 347 -694 0
-451 -501 -529 0
47 751 -738 0
-431 -437 -369 0
-960 41 452 0
757 -994 344 0
-747 448 -168 0
-720 -453 -898 0
240 -356 -946 0
-575 -469 -803 0
43 -781 -971 0
-813 -793 -735 0
-353 410 611 0
-404 816 -208 0
-847 862 811 0
412 -600 -816 0
445 94 254 0
627 537 -165 0
-577 966 -410 0
445 138 -59 0
-518 768 861 0
436 -623 -474 0
543 -970 -14 0
114 -893 351 0
800 503 -940 0
446 1000 -914 0
133 203 -53 0
-387 681 576 0
57 -890 279 0
436 -392 590 0
-368 -397 -300 0
313 812 -851 0
-379 -870 -96 0
147 14 812 0
-628 793 74 0
271 -374 868 0
-839 165 615 0
62 188 934 0
725 648 -439 0
-841 -397 -522 0
915 -882 933 0
-209 227 342 0
20 752 554 0
-741 937 -746 0
482 525 -868 0
-601 -447 666 0
944 984 682 0
424 -822 4 0
-157 -518 -277 0
-655 565 -388 0
-611 -435 -491 0
-58 -865 694 0
-551 165 -442 0
-363 -970 -333 0
-602 -879 122 0
958 -238 -440 0
734 -212 634 0
-634 -175 -321 0
174 -898 -659 0
-856 775 436 0
469 528 -567 0
877 -594 228 0
693 134 -325 0
-679 57 -350 0
-336 -984 316 0
-299 -382 -537 0
-247 633 -67 0
753 -556 -576 0
-568 -442 -959 0
-256 -743 -317 0
-446 747 -476 0
266 521 811 0
58 288 -167 0
-336 -335 -122 0
-785 -290 700 0
-560 -838 337 0
876 -574 824 0
245 -378 648 0
-225 27 -640 0
884 864 -638 0
545 -149 428 0
-375 381 -241 0
-691 -781 -863 0
-693 -66 -682 0
-367 217 328 0
314 195 664 0
849 -14 -479 0
606 -618 -962 0
972 807 -514 0
773 669 709 0
-979 -392 -356 0
-476 -606 -679 0
-351 -780 91 0
-724 -13 -814 0
-127 -35 498 0
-747 261 523 0
-882 604 -383 0
-76 839 105 0
-796 -52 -702 0
258 654 -481 0
-27 -340 213 0
673 318 268 0
-546 436 4 0
902 821 -456 0
-347 -979 -275 0
365 -725 -506 0
-1 -107 -677 0
-299 402 367 0
152 -155 -194 0
251 949 670 0
-728 -411 222 0
-585 -686 83 0
-273 867 207 0
-219 239 400 0
678 349 967 0
-734 552 -567 0
102 223 104 0
603 666 608 0
-683 640 968 0
367 -246 -686 0
-279 187 -141 0
271 726 -902 0
-81 -855 -707 0
154 664 -711 0
398 955 187 0
325 -643 4 0
-274 308 -956 0
647 -962 -482 0
71 -68 -319 0
121 -759 -417 0
670 496 -560 0
388 -935 945 0
991 -391 -617 0
-466 721 500 0
878 491 -195 0
-108 861 178 0
-720 769 922 0
-735 -288 563 0
457 -976 428 0
-817 65 -851 0
-392 -223 30 0
-498 -544 813 0
-520 -372 598 0
-987 826 -497 0
-16 209 -452 0
-993 932 89 0
718 -315 -424 0
202 -832 590 0
907 -561 -473 0
-739 -574 -229 0
-484 -323 445 0
-41 -430 289 0
535 -570 901 0
-776 -406 98 0
-410 -673 -518 0
-942 902 212 0
-270 18 33 0
-112 901 257 0
769 -397 588 0
-628 726 -98 0
619 678 -859 0
-207 -685 153 0
694 701 487 0
316 972 -593 0
133 -529 338 0
202 976 177 0
-955 -451 -648 0
-582 327 -423 0
-817 -47 -69 0
-632 -533 203 0
-656 -298 -539 0
450 -539 -513 0
-255 -297 -434 0
839 -581 242 0
-368 278 -643 0
-372 -552 464 0
315 -568 -102 0
582 71 233 0
349 136 106 0
327 613 546 0
-31 -700 -200 0
-967 -368 1000 0
-299 904 -973 0
-192 728 -433 0
-695 483 656 0
-534 159 864 0
-70 106 979 0
-299 -381 533 0
904 101 745 0
-992 -970 100 0
-141 892 629 0
-423 -553 -643 0
236 -963 889 0
40 -269 989 0
-72 -432 -687 0
-837 -552 -349 0
427 985 -857 0
-166 408 194 0
-494 -43 -916 0
831 -639 -816 0
860 -185 -659 0
-45 -926 -660 0
-283 235 370 0
-842 -754 446 0
-439 111 528 0
618 454 -472 0
523 -236 655 0
-970 770 556 0
329 -852 727 0
971 -322 -895 0
231 -36 834 0
-532 892 -704 0
292 -86 385 0
-111 -420 747 0
-906 795 -293 0
-473 843 -845 0
406 -382 -90 0
-216 243 -215 0
-159 553 58 0
-577 438 912 0
268 -837 -414 0
-685 -296 786 0
813 -188 -560 0
477 -485 -583 0
-733 134 634 0
-256 -575 533 0
-381 834 -121 0
595 -153 185 0
411 676 -664 0
-701 -769 567 0
509 593 -889 0
416 -381 -930 0
-847 -32 -742 0
712 -659 522 0
-268 -492 -159 0
123 -8 -455 0
774 -195 -263 0
604 196 -769 0
-946 377 -972 0
-848 -102 -419 0
-936 286 995 0
339 207 584 0
215 365 204 0
810 -475 -631 0
-790 596 700 0
303 954 585 0
-651 -507 545 0
-432 -965 -561 0
291 -926 613 0
613 901 -482 0
246 -840 182 0
-60 513 -733 0
-309 -567 666 0
-688 768 -245 0
-934 52 258 0
532 630 -111 0
-214 833 -846 0
219 -637 -429 0
32 705 -98 0
-594 571 615 0
361 95 -14 0
-198 -285 -223 0
51 -674 909 0
831 -477 -546 0
-168 -970 -362 0
658 -726 -474 0
49 60 -579 0
-86 883 827 0
-224 283 61 0
863 353 801 0
-947 -675 643 0
517 253 -927 0
-28 -415 -249 0
-500 -909 -351 0
-749 695 -996 0
973 -459 -232 0
99 -686 984 0
652 788 345 0
-285 649 -764 0
49 78 109 0
-160 -107 405 0
97 256 -851 0
-613 955 -321 0
-269 265 645 0
-266 -972 -142 0
-564 -15 559 0
-370 147 892 0
641 860 587 0
79 -969 -413 0
-664 -616 -498 0
-1 12 -83 0
804 -524 -522 0
731 979 158 0
379 -889 -764 0
803 -545 -161 0
782 -439 -431 0
895 -700 -346 0
817 622 896 0
-144 140 679 0
-230 963 317 0
-777 -947 -667 0
48 852 835 0
-341 -24 41 0
498 -727 880 0
926 659 -693 0
985 650 950 0
-533 95 -13 0
-103 443 -206 0
-602 -109 -713 0
450 -770 -246 0
998 451 -718 0
575 -207 -681 0
-504 245 54 0
-1000 -326 -432 0
-674 894 -918 0
130 -458 -550 0
147 294 -595 0
745 -516 538 0
-595 936 160 0
639 172 179 0
222 -380 -13 0
-145 -245 -155 0
-874 11 569 0
-40 201 663 0
174 490 211 0
-294 -28 -314 0
-489 -916 219 0
-666 -223 427 0
713 -962 86 0
-871 828 957 0
-935 239 -432 0
-541 -521 961 0
-309 97 738 0
937 432 -88 0
-316 760 378 0
656 -800 -598 0
-319 394 845 0
685 257 -115 0
511 221 -192 0
-120 -522 -511 0
-533 -46 -150 0
85 -68 -212 0
-717 233 883 0
-877 -508 -390 0
-274 -783 535 0
963 -732 689 0
-195 -194 -840 0
-353 744 383 0
-417 437 -2 0
-571 454 345 0
-627 307 53 0
-950 -340 365 0
259 -412 -546 0
480 390 854 0
-694 268 -4 0
-7 834 -415 0
-718 480 -493 0
-696 278 246 0
942 939 -294 0
-954 958 533 0
-823 -860 -642 0
-480 677 -340 0
871 10 586 0
131 -286 -279 0
-292 413 -648 0
826 622 -430 0
35 791 -434 0
-395 684 -291 0
-903 -147 417 0
147 870 597 0
344 3 163 0
-753 636 -128 0
-145 336 -582 0
-703 -906 -459 0
298 -93 345 0
669 591 -789 0
-504 633 -444 0
773 -87 547 0
-487 597 393 0
-737 -237 -670 0
-309 -502 841 0
-167 -833 785 0
361 952 -226 0
-270 -446 561 0
93 -729 25 0
-502 363 972 0
-41 -330 793 0
-475 883 104 0
980 -593 -943 0
-803 -533 963 0
47 -307 -527 0
-617 530 41 0
-347 -170 735 0
-425 960 -377 0
814 291 789 0
-922 436 438 0
-407 -985 -858 0
-571 -945 569 0
-920 304 586 0
790 456 995 0
676 -173 350 0
-460 -961 785 0
-586 2 488 0
-124 -899 -323 0
893 -550 -42 0
682 -701 -663 0
-422 451 -260 0
917 -954 -512 0
-855 -659 -854 0
-569 -540 495 0
-390 581 -712 0
-22 -938 -552 0
852 -25 541 0
-334 816 -163 0
196 25 -634 0
-802 439 -606 0
-24 197 129 0
-918 957 -456 0
626 -915 550 0
753 789 -908 0
105 -588 -360 0
-418 650 281 0
624 -828 680 0
833 266 -939 0
748 -669 -294 0
-559 -566 -444 0
567 220 888 0
-868 43 113 0
218 -20 -474 0
88 905 -942 0
-993 14 -298 0
163 -209 -959 0
195 -348 518 0
860 -281 -235 0
284 305 979 0
175 488 661 0
40 -338 -638 0
52 58 -804 0
110 -193 -372 0
9 -849 577 0
259 -735 -231 0
-156 -189 -814 0
257 -365 -312 0
697 163 510 0
256 272 180 0
-151 -201 -685 0
-451 -468 -543 0
204 266 -949 0
-28 287 -573 0
424 82 195 0
737 -223 -504 0
-183 -975 117 0
98 -410 -573 0
143 795 -555 0
259 -671 716 0
286 -47 534 0
-923 685 -490 0
-889 -884 131 0
-853 857 760 0
-699 154 -309 0
-518 930 -550 0
994 112 -174 0
216 765 203 0
-329 528 243 0
-829 -946 -888 0
462 -158 679 0
-296 -496 -765 0
824 711 601 0
389 690 957 0
-31 322 66 0
-476 -697 591 0
-269 841 710 0
451 -980 681 0
928 -410 -48 0
-441 -49 -610 0
214 989 -789 0
-52 -982 -653 0
-318 -725 651 0
-515 158 -806 0
724 891 -346 0
-79 -324 575 0
383 -972 89 0
-522 -297 -773 0
-125 786 -215 0
-173 -583 178 0
875 -967 -915 0
-63 734 623 0
608 -433 -871 0
158 198 -380 0
-424 928 871 0
584 -535 -240 0
-527 604 -238 0
-756 -560 -7 0
-240 -506 626 0
961 997 -889 0
-594 897 820 0
77 -794 529 0
282 -773 -827 0
-25 357 732 0
-560 -514 214 0
732 187 -565 0
-93 820 -42 0
233 -204 963 0
1 -799 -631 0
176 -26 758 0
442 -361 -66 0
751 -370 953 0
292 -66 -747 0
448 476 -877 0
38 -541 -517 0
-912 648 105 0
342 723 -612 0
-618 55 -166 0
-395 -452 35 0
333 258 313 0
980 645 -822 0
-19 -777 439 0
77 756 378 0
-394 -149 -776 0
314 -649 -490 0
785 -153 556 0
-329 -503 183 0
-810 -718 990 0
16 -466 -247 0
328 321 745 0
671 578 811 0
764 455 72 0
-255 500 531 0
-188 -655 483 0
217 -416 -544 0
-733 -115 79 0
9 192 -284 0
-627 -508 -247 0
961 678 37 0
-532 -59 114 0
-689 708 335 0
640 515 433 0
135 -312 35 0
310 21 -578 0
-870 -789 759 0
70 -667 107 0
654 -685 -62 0
41 469 346 0
-278 566 -511 0
377 293 944 0
-420 923 -80 0
-231 -507 -506 0
-874 889 61 0
-980 878 42 0
620 -811 883 0
-683 -309 -233 0
69 706 912 0
687 491 -920 0
175 -797 -518 0
47 507 -808 0
706 -134 596 0
-258 490 551 0
527 591 -112 0
288 -450 543 0
984 87 -79 0
-219 -872 726 0
975 -421 -836 0
-976 625 136 0
-551 599 -762 0
-818 -331 940 0
-187 498 385 0
374 -563 -346 0
-535 -244 -25 0
2 -42 -272 0
613 -113 -853 0
184 124 860 0
-979 -679 678 0
374 -46 -347 0
285 -176 563 0
-906 263 692 0
967 -950 -726 0
290 -497 422 0
100 -263 10 0
-290 -755 29 0
559 191 -458 0
-494 983 -186 0
-698 847 -796 0
407 623 -439 0
446 920 143 0
-434 -610 -290 0
566 830 -801 0
-97 -923 754 0
164 793 -501 0
-405 -966 737 0
-472 67 -572 0
-954 51 -317 0
46 787 59 0
-194 945 757 0
679 -245 -98 0
-210 144 -852 0
-276 760 815 0
-291 -118 735 0
-71 -291 -747 0
403 312 -868 0
-732 -594 -143 0
-767 344 228 0
-579 471 -664 0
-851 -619 350 0
-477 284 -550 0
-342 525 -917 0
333 157 554 0
824 367 -567 0
-38 511 -309 0
-655 -820 -636 0
-105 -161 121 0
-833 -21 -170 0
741 -85 -601 0
-559 -276 535 0
-987 840 602 0
859 -847 316 0
-908 -53 -33 0
411 -71 -269 0
-297 800 -306 0
-188 630 888 0
67 11 429 0
540 300 -774 0
-634 377 810 0
958 153 246 0
-111 668 969 0
94 -900 897 0
-408 -860 -623 0
689 501 -29 0
-203 -793 197 0
948 183 331 0
774 107 -959 0
-79 601 853 0
892 500 429 0
84 -41 110 0
726 -366 -388 0
-906 998 477 0
-823 18 803 0
-585 -732 -199 0
-635 -711 153 0
513 75 783 0
-486 -938 232 0
-370 915 -526 0
418 -475 946 0
-523 110 -181 0
87 603 675 0
-347 -48 139 0
-565 93 -531 0
653 6 -116 0
445 -661 513 0
-768 102 549 0
-797 963 -109 0
980 464 -156 0
1000 -558 -170 0
-777 143 -69 0
-850 114 409 0
-147 329 722 0
684 -285 -280 0
-577 -298 167 0
-122 -577 724 0
201 -101 714 0
985 -823 -477 0
823 422 -30 0
145 -773 -67 0
940 107 627 0
141 -991 -989 0
715 -320 455 0
899 946 765 0
478 -66 698 0
-73 -763 344 0
514 578 -793 0
40 -38 -187 0
359 -829 35 0
61 141 -130 0
-405 -662 699 0
-655 898 -41 0
-726 -104 -132 0
-952 618 -960 0
415 -662 -24 0
668 -795 351 0
-334 -31 -402 0
-641 -167 72 0
408 -707 679 0
-707 552 -687 0
-558 -278 965 0
-171 -461 836 0
860 514 -468 0
-979 316 -474 0
-216 -938 475 0
-279 333 187 0
307 739 -803 0
-174 94 -375 0
491 -917 -506 0
18 940 283 0
639 515 74 0
781 448 -966 0
-487 134 754 0
-579 -240 194 0
149 841 -657 0
-827 -422 -101 0
763 429 -304 0
822 547 -78 0
-916 -929 -224 0
-237 -83 -37 0
-250 730 -93 0
-204 -301 -743 0
-590 -219 -650 0
-946 129 924 0
-267 216 -703 0
-444 218 -380 0
-243 -292 -766 0
-491 -912 -615 0
-228 -870 294 0
945 344 884 0
-750 592 176 0
-301 -973 440 0
583 -975 265 0
-813 149 -209 0
485 788 245 0
-884 -633 -936 0
547 285 -109 0
908 -815 774 0
-664 447 79 0
64 -955 -554 0
560 -494 -365 0
691 -680 818 0
466 -526 302 0
488 -546 795 0
6 -655 -379 0
-253 -902 -595 0
-280 -169 470 0
989 597 842 0
687 371 -764 0
-911 -333 824 0
-406 736 55 0
98 529 -657 0
-738 -990 415 0
-80 -880 -453 0
955 314 247 0
87 308 -660 0
-499 -709 -517 0
-380 507 -633 0
-644 -980 817 0
-267 287 360 0
-102 -831 162 0
131 -304 -854 0
499 432 810 0
743 -852 677 0
-756 619 -539 0
233 279 -483 0
-260 -461 933 0
-370 -724 490 0
-967 397 -443 0
252 -167 216 0
-216 587 -609 0
525 -801 -688 0
548 777 951 0
176 -113 228 0
719 -660 -820 0
-397 411 894 0
363 -124 683 0
163 -584 -790 0
610 -200 803 0
639 23 135 0
944 -132 423 0
-272 881 -542 0
-1 205 -600 0
-687 -842 728 0
552 -397 585 0
-918 527 188 0
63 191 -634 0
352 229 283 0
-498 -91 -773 0
837 902 293 0
562 -868 20 0
767 572 997 0
869 119 -512 0
-347 213 899 0
149 -579 -991 0
-957 -444 797 0
-271 72 686 0
-482 -859 -21 0
-954 -897 -618 0
105 -912 -738 0
-860 223 926 0
875 164 -28 0
-710 -617 -283 0
634 -427 169 0
240 481 821 0
584 855 -412 0
-498 -3 -265 0
528 -778 883 0
899 -851 831 0
-208 -684 825 0
829 533 782 0
795 -881 246 0
-534 230 -917 0
-715 -10 432 0
-638 629 -575 0
-953 179 -809 0
-412 124 -353 0
443 818 -719 0
94 106 -451 0
-740 430 71 0
-248 -236 846 0
-424 634 -489 0
-382 66 -393 0
898 -179 -964 0
644 607 -331 0
-363 -972 660 0
-955 711 266 0
51 -678 159 0
167 -935 270 0
136 205 115 0
264 -314 166 0
692 -753 -538 0
-400 -540 -568 0
-863 -724 -40 0
874 -382 659 0
-303 -33 139 0
605 268 293 0
-170 235 862 0
-955 184 -633 0
624 535 -842 0
-694 -369 924 0
-174 -452 812 0
-668 -158 900 0
139 241 -663 0
-775 -777 129 0
-7 -494 857 0
855 526 206 0
189 -513 163 0
-115 -526 -997 0
-939 24 65 0
802 839 -217 0
-701 -232 -25 0
-192 -88 -647 0
183 727 608 0
455 -153 -468 0
-149 -604 -176 0
98 342 85 0
261 51 695 0
29 631 404 0
181 -155 -360 0
995 -763 -982 0
101 67 432 0
140 -238 -616 0
-241 -461 -954 0
773 -720 906 0
-922 933 -973 0
44 270 87 0
853 -940 -78 0
-198 508 78 0
776 278 -274 0
-608 -573 -866 0
10 947 -108 0
-939 259 684 0
743 -645 -734 0
944 846 383 0
-603 808 28 0
301 -78 -322 0
-351 -229 657 0
-645 -401 751 0
288 266 534 0
-983 299 -429 0
370 -133 479 0
-650 -22 729 0
874 -386 862 0
-695 463 -843 0
-338 -684 -895 0
689 -492 -204 0
-916 249 847 0
715 724 -237 0
-900 208 -18 0
43 -468 -561 0
182 -571 719 0
-675 -682 203 0
775 703 -871 0
-401 -600 -962 0
-510 541 -586 0
630 530 167 0
697 834 -128 0
-744 -440 275 0
-873 317 -381 0
286 -183 751 0
-340 185 760 0
244 -640 -971 0
-39 -805 695 0
787 41 489 0
751 463 682 0
-158 -816 -419 0
-110 644 -331 0
440 -627 524 0
137 95 756 0
-709 -340 -916 0
-680 -626 583 0
-503 662 -648 0
913 833 -283 0
797 -773 989 0
481 871 954 0
-339 -413 838 0
401 -201 446 0
-796 -874 -816 0
-562 952 14 0
-857 -37 -883 0
869 151 -999 0
-909 374 296 0
26 935 75 0
421 -822 -710 0
-327 -147 470 0
911 361 -973 0
525 -205 871 0
-12 779 -241 0
-847 562 -35 0
-947 -290 -274 0
-815 -256 134 0
-714 893 752 0
107 367 805 0
-269 704 -113 0
-112 -31 -165 0
-745 181 802 0
-468 -622 -740 0
-888 789 766 0
440 -718 218 0
-642 -815 467 0
-551 210 -794 0
-577 -842 -877 0
259 -947 -94 0
939 259 -222 0
-690 -347 766 0
-65 -510 -796 0
-416 -287 530 0
-905 -23 -487 0
-642 -263 -244 0
-1000 -491 -123 0
-627 -831 11 0
-760 -570 265 0
-572 336 -76 0
-15 477 279 0
-940 73 -352 0
-874 988 -205 0
211 -965 -114 0
-972 171 -196 0
891 7 658 0
-761 -813 -13 0
660 490 -123 0
310 -128 264 0
-94 -60 479 0
-27 388 -175 0
895 845 -716 0
742 303 376 0
396 18 -324 0
473 -129 407 0
41 -996 450 0
-454 -410 401 0
418 760 198 0
449 -92 -133 0
289 117 -931 0
-325 308 11 0
271 -718 464 0
890 421 -50 0
-828 -316 -180 0
-102 615 188 0
-105 749 -12 0
874 -116 -735 0
852 -23 618 0
567 -25 -959 0
-808 501 884 0
732 632 -206 0
987 -535 -352 0
-823 -960 -686 0
940 873 758 0
768 201 -749 0
923 -897 970 0
942 742 -355 0
-279 -892 -230 0
882 -248 -889 0
-296 847 -225 0
-226 -228 868 0
999 -713 -517 0
841 96 -430 0
-289 -726 691 0
-490 -921 -203 0
-522 420 801 0
25 -382 681 0
323 565 -664 0
568 918 397 0
-585 -20 826 0
-107 -488 -850 0
-310 203 180 0
796 916 -822 0
-743 -262 -114 0
576 197 -719 0
-497 836 471 0
955 648 -911 0
-201 711 -752 0
-335 -443 -324 0
52 421 481 0
-729 -177 -570 0
-306 -875 -173 0
-515 448 -809 0
902 -71 96 0
45 396 848 0
-601 -839 965 0
-457 71 447 0
47 453 102 0
616 483 -990 0
491 107 668 0
390 -124 500 0
-39 158 873 0
-118 436 -958 0
558 -789 258 0
528 -933 559 0
-128 -24 378 0
433 -666 975 0
-825 -658 -543 0
618 802 687 0
232 216 644 0
639 -529 -337 0
-300 -488 360 0
54 99 706 0
-185 226 69 0
605 -391 725 0
-616 253 -448 0
833 -274 -733 0
550 684 216 0
565 200 -393 0
-97 -3 701 0
556 661 -565 0
-354 -452 769 0
-669 -96 -562 0
245 615 -229 0
-808 771 947 0
219 -910 622 0
-563 581 791 0
-722 -433 206 0
-242 969 -188 0
-325 -977 269 0
468 537 113 0
-399 -431 472 0
-299 543 751 0
-191 590 407 0
441 -53 412 0
-873 -390 -66 0
802 -534 185 0
980 -158 -101 0
571 968 771 0
-436 -829 848 0
85 -875 945 0
47 750 -942 0
-570 -513 -233 0
-709 -78 -316 0
147 -122 505 0
915 530 -25 0
561 -420 906 0
249 51 466 0
381 709 865 0
-160 -748 274 0
-355 298 99 0
374 877 693 0
-229 748 -26 0
672 75 -660 0
-201 -228 -524 0
-764 -332 203 0
732 272 -175 0
-938 723 959 0
596 342 144 0
-445 -767 -36 0
-213 377 209 0
-376 235 568 0
742 -669 -271 0
-604 771 349 0
246 109 -641 0
-478 541 -879 0
-258 -14 480 0
999 423 783 0
239 977 968 0
577 924 -117 0
471 -221 -490 0
-350 -203 -168 0
639 784 319 0
-376 -806 645 0
577 -468 -461 0
946 961 62 0
-354 -139 721 0
469 -447 62 0
95 -683 246 0
805 509 374 0
325 -65 248 0
373 -784 90 0
725 -14 983 0
-446 -862 544 0
68 882 -737 0
-560 595 892 0
46 -671 215 0
-539 174 -113 0
-604 -404 -709 0
847 390 68 0
-85 -592 74 0
38 665 -61 0
396 -296 807 0
-207 -381 99 0
883 -852 966 0
546 -795 148 0
-787 -82 807 0
-68 -235 -360 0
-973 -885 622 0
944 -192 979 0
-553 -273 556 0
476 617 448 0
-957 -732 -607 0
-723 -148 -764 0
-318 901 591 0
820 705 -356 0
147 -308 -531 0
-454 -641 956 0
-841 -483 -687 0
-643 -899 -514 0
711 192 432 0
-561 181 -647 0
66 -672 -649 0
538 -281 -910 0
1000 -361 -272 0
-959 -986 821 0
841 972 182 0
-71 -489 776 0
-315 -561 282 0
-622 359 107 0
366 576 -201 0
-707 -948 776 0
-817 -883 460 0
855 192 -111 0
75 924 -774 0
343 727 581 0
335 -349 893 0
-634 -915 946 0
-419 -762 -545 0
-357 894 535 0
586 795 -664 0
-25 -503 206 0
219 -981 -306 0
-777 99 -700 0
478 -182 231 0
480 -13 -914 0
-661 259 213 0
600 855 668 0
-830 490 -587 0
485 742 552 0
-569 -596 499 0
-127 -46 -894 0
741 613 -382 0
986 416 -418 0
-470 -259 -958 0
-437 -935 -144 0
-377 -40 947 0
735 647 25 0
-72 -579 -776 0
428 69 -189 0
-949 -545 847 0
529 791 -777 0
-902 -145 191 0
-321 832 583 0
-175 -178 -205 0
-631 -627 -495 0
-538 556 970 0
-854 -897 754 0
-13 -503 110 0
471 866 -776 0
644 323 459 0
-589 -286 -793 0
-832 584 -756 0
-378 77 644 0
827 85 384 0
-684 323 -354 0
-554 -499 -701 0
546 84 -450 0
302 -574 752 0
-231 617 212 0
837 351 669 0
-120 -286 -590 0
635 810 -873 0
-784 -61 712 0
141 985 660 0
691 -620 190 0
456 -947 -500 0
185 -265 -333 0
-394 846 -936 0
691 77 -816 0
44 746 777 0
228 -876 598 0
951 -259 954 0
800 326 -550 0
664 -139 -185 0
151 -375 -824 0
298 -40 431 0
-496 866 211 0
-849 -259 757 0
71 -519 -40 0
-527 -973 497 0
-187 814 -821 0
220 -768 465 0
299 -169 579 0
-771 -944 -142 0
673 -500 -401 0
-432 46 776 0
-141 935 -384 0
-424 533 -371 0
862 217 31 0
-129 -772 -488 0
247 -58 45 0
144 50 -885 0
-446 796 349 0
781 664 135 0
490 27 -840 0
-554 623 -370 0
-595 639 -915 0
-529 -991 398 0
-837 -417 -986 0
-969 59 385 0
-192 612 993 0
274 -816 349 0
-575 -992 232 0
473 982 641 0
-207 913 84 0
-959 -250 -675 0
581 -229 -57 0
629 -757 -498 0
-610 -652 395 0
415 -206 -362 0
-249 506 -129 0
812 946 -528 0
939 356 -450 0
-58 106 539 0
-615 -77 79 0
-820 -92 -682 0
541 499 519 0
-649 44 688 0
-359 559 409 0
-470 -843 800 0
-957 -407 71 0
-56 -187 457 0
129 475 912 0
657 359 -108 0
740 949 583 0
-131 -843 -604 0
-489 -662 -452 0
545 -674 221 0
-284 -372 -403 0
-831 -272 657 0
-86 23 -129 0
-636 702 -525 0
-587 214 330 0
-447 -710 542 0
778 610 -684 0
24 -887 -184 0
776 -250 903 0
-532 116 -668 0
-921 885 -835 0
989 348 49 0
523 -20 -2 0
878 -691 -386 0
594 988 -798 0
-715 144 -632 0
-908 476 -37 0
193 46 698 0
738 -660 -274 0
-485 817 236 0
413 674 -348 0
-623 370 343 0
989 28 -425 0
788 -168 -962 0
-543 147 157 0
-781 981 66 0
-588 291 89 0
-225 -805 467 0
-136 -142 676 0
-940 795 -55 0
791 773 -223 0
419 -493 -422 0
630 845 -972 0
847 -381 -488 0
60 569 858 0
-152 961 804 0
-411 765 -850 0
-878 879 500 0
-951 976 -487 0
-431 43 515 0
-754 -168 504 0
-683 914 863 0
-263 -293 451 0
431 637 -833 0
57 -344 -573 0
-108 -819 -605 0
-426 -257 850 0
654 892 -361 0
-496 275 797 0
543 100 869 0
606 949 784 0
343 -727 -72 0
509 -621 -1 0
697 409 884 0
326 702 -351 0
188 -302 253 0
340 17 655 0
-778 -323 -749 0
636 -748 -473 0
853 -934 64 0
-544 784 916 0
-955 -461 -845 0
-748 -540 215 0
829 80 196 0
486 -104 29 0
590 -137 -460 0
641 122 432 0
-536 670 777 0
592 842 705 0
-267 796 801 0
969 641 -710 0
471 -40 207 0
-996 -723 -613 0
708 66 -154 0
-785 136 833 0
584 782 -868 0
-222 -326 -461 0
-487 -579 -389 0
-762 716 267 0
876 904 521 0
77 -273 782 0
872 541 -293 0
426 -923 934 0
323 -337 752 0
436 207 -61 0
12 -868 -437 0
468 637 -692 0
-609 -241 666 0
803 781 -658 0
573 515 -838 0
735 399 -62 0
-852 375 754 0
797 433 -107 0
350 365 995 0
920 996 -509 0
311 -526 -243 0
-551 -810 -664 0
-85 -811 -129 0
-245 856 -416 0
827 504 -229 0
-859 -808 -226 0
478 679 214 0
923 -225 800 0
-404 749 668 0
-628 -885 828 0
-292 -716 36 0
-809 -27 537 0
450 -62 -473 0
269 -579 -296 0
500 -9 -45 0
-670 385 -478 0
-394 -372 462 0
168 173 -631 0
670 -723 -943 0
-906 -43 816 0
276 -202 -407 0
841 560 -59 0
-202 639 -664 0
-773 818 -94 0
298 -166 -416 0
728 843 -595 0
-114 -824 984 0
541 401 429 0
-902 -327 -498 0
215 22 -697 0
834 795 919 0
74 121 750 0
-873 720 -989 0
794 10 966 0
-848 317 918 0
177 -569 528 0
-161 -200 329 0
-557 66 540 0
326 976 -723 0
46 -55 350 0
577 -790 640 0
-796 -325 -937 0
85 453 -499 0
-921 162 697 0
-781 -113 766 0
382 240 528 0
910 -358 122 0
462 343 985 0
-196 685 -37 0
-502 937 -191 0
844 771 -685 0
657 117 515 0
316 -382 -463 0
379 420 220 0
642 -178 -881 0
428 -678 -856 0
588 -84 718 0
888 971 843 0
632 552 -712 0
-759 964 -561 0
608 159 -101 0
-599 43 15 0
-273 -853 -981 0
349 -135 -171 0
-419 -479 -14 0
-314 -651 -881 0
696 137 809 0
-20 -762 438 0
-356 -247 429 0
992 365 -422 0
-957 -293 102 0
-48 -782 -207 0
-42 122 680 0
-321 -81 643 0
132 -124 -289 0
50 -932 -878 0
-812 647 -850 0
204 464 63 0
278 190 -170 0
76 526 987 0
-68 -331 -386 0
-74 -859 -548 0
491 795 425 0
-429 188 322 0
530 -760 -881 0
-716 -649 -5 0
196 403 -22 0
103 53 -687 0
475 -649 -592 0
989 823 -255 0
40 532 488 0
-233 6 -73 0
709 931 -965 0
-772 -9 -708 0
182 -970 -278 0
847 -98 -372 0
-490 -784 400 0
164 45 -778 0
-946 -69 -641 0
-221 -338 -783 0
263 -50 812 0
676 38 -583 0
799 -115 178 0
997 315 156 0
-681 712 -53 0
-325 762 992 0
926 339 -891 0
-790 -165 416 0
393 -292 -454 0
-104 914 -890 0
-381 -858 -18 0
944 -927 354 0
-392 419 481 0
557 702 -295 0
-380 69 -929 0
15 344 -803 0
-485 858 -453 0
211 187 -574 0
41 -457 -757 0
-782 77 52 0
609 -587 697 0
-383 -825 -58 0
-188 -49 -138 0
983 -96 597 0
-863 -828 -178 0
25 -884 791 0
851 -55 -348 0
-47 300 -524 0
-629 992 -503 0
-223 636 -279 0
644 148 393 0
-388 -701 20 0
-935 911 168 0
260 423 632 0
-695 -296 702 0
-201 -173 953 0
-621 -16 843 0
30 -158 -852 0
18 -268 -88 0
251 -145 -544 0
185 -283 -806 0
419 -786 579 0
622 -605 -988 0
99 370 354 0
544 144 547 0
535 -416 841 0
978 743 123 0
602 -417 913 0
118 163 283 0
-454 505 215 0
-543 -145 -741 0
839 3 575 0
-100 -58 -572 0
-737 255 485 0
201 275 -402 0
-33 897 -160 0
-284 -232 -936 0
-416 -455 440 0
-271 -12 -108 0
-954 -949 74 0
646 805 281 0
-740 345 -776 0
-395 -345 208 0
-903 -395 -170 0
655 34 -125 0
-1 794 230 0
258 802 -589 0
-255 612 338 0
665 816 846 0
963 -805 -664 0
66 703 571 0
-587 -486 -926 0
945 302 -275 0
713 953 869 0
-72 353 -783 0
986 -255 225 0
701 108 613 0
184 -396 -808 0
-713 369 794 0
382 299 -535 0
462 -945 977 0
848 -26 -39 0
-656 749 100 0
-22 -739 149 0
-28 -156 -217 0
-117 681 810 0
-250 -483 -161 0
499 50 -465 0
-554 -899 -61 0
-837 926 -222 0
-722 -282 -339 0
979 677 -77 0
325 -715 668 0
-606 -688 -488 0
843 -703 -795 0
-919 -856 871 0
890 -745 720 0
775 -208 723 0
675 866 -155 0
-835 -325 233 0
-81 147 -117 0
457 623 809 0
860 543 790 0
-547 -865 -230 0
-900 876 -662 0
-633 -689 406 0
826 534 -970 0
446 967 -408 0
440 -183 -623 0
-411 216 -569 0
-838 -808 194 0
-89 -538 -551 0
87 142 345 0
-301 -441 -31 0
553 -113 -524 0
-938 645 835 0
567 596 -570 0
-628 -594 -203 0
697 -448 -347 0
811 -64 229 0
638 -873 708 0
308 -482 39 0
-772 43 306 0
832 -191 272 0
326 177 713 0
-198 -647 884 0
590 301 -687 0
-565 764 -53 0
-750 739 758 0
-747 -434 -955 0
40 871 -219 0
279 -728 -266 0
-885 -964 674 0
976 -123 498 0
518 -279 -999 0
140 -421 773 0
592 176 151 0
-425 -444 151 0
985 953 -289 0
-988 -176 90 0
-554 418 -787 0
-614 758 986 0
-6 767 175 0
15 -845 116 0
220 -120 -66 0
-338 -810 -118 0
-165 898 -838 0
838 -170 67 0
-914 -144 -671 0
639 -386 -504 0
-457 -789 -866 0
-397 -173 420 0
-820 337 -967 0
-841 -755 934 0
-62 -328 -159 0
-493 452 176 0
-207 263 583 0
920 -993 471 0
-116 540 806 0
-789 526 382 0
174 813 623 0
-27 -907 -424 0
71 96 -670 0
645 389 778 0
-215 431 112 0
-957 765 -162 0
-553 378 -938 0
-854 -50 -120 0
658 184 598 0
566 -80 828 0
-1 -305 -3 0
291 -473 -566 0
340 41 1 0
259 -780 -435 0
694 96 954 0
-631 -641 763 0
-894 910 -20 0
-310 246 -102 0
176 -694 200 0
44 979 -602 0
-756 822 821 0
-494 -111 879 0
880 473 78 0
-226 -18 320 0
906 291 -36 0
-569 -394 -384 0
-402 740 817 0
-62 530 505 0
-254 -728 760 0
-776 -311 -661 0
826 -694 -179 0
-301 -736 -70 0
765 -114 116 0
507 -885 -557 0
-132 391 896 0
457 -290 -555 0
686 -517 31 0
214 -8 -410 0
874 719 506 0
-586 281 253 0
-842 -230 64 0
-327 833 -502 0
640 -296 783 0
-929 121 -548 0
907 595 928 0
-841 -733 -359 0
944 310 -145 0
260 -535 -545 0
802 -755 -129 0
971 821 -4 0
-253 226 756 0
130 -665 -363 0
989 -336 -973 0
-551 252 -399 0
-174 582 329 0
-489 465 -386 0
136 -123 -953 0
860 611 432 0
377 448 769 0
453 -261 -84 0
-309 93 291 0
-337 109 -371 0
-659 495 318 0
130 668 -141 0
-360 -579 -136 0
-153 -298 64 0
372 -594 636 0
-556 77 648 0
-397 918 390 0
76 -313 276 0
81 959 595 0
46 302 -178 0
-984 -658 -726 0
-345 -806 -250 0
862 -617 726 0
398 -510 916 0
-397 -878 -18 0
251 226 556 0
-139 419 -665 0
-996 -920 -313 0
-462 990 -881 0
121 -801 446 0
-731 -150 423 0
-912 616 95 0
500 510 257 0
-533 -253 610 0
-117 -240 -66 0
-845 15 -70 0
-719 489 415 0
-252 -969 684 0
264 -582 -259 0
-945 -348 943 0
-986 946 -165 0
-166 -164 190 0
-914 -795 947 0
-617 -102 -933 0
810 -957 751 0
-158 808 21 0
619 206 974 0
1000 -753 -748 0
916 -292 608 0
492 197 -387 0
28 -231 662 0
-445 -177 256 0
829 779 -43 0
-210 -254 236 0
-783 -641 -142 0
845 485 376 0
317 -247 -83 0
639 136 -363 0
-852 -50 -56 0
-561 -120 877 0
958 -502 -734 0
89 -95 413 0
518 -359 -892 0
-159 -623 739 0
-681 8 332 0
-95 333 -590 0
286 967 616 0
-875 968 54 0
-254 907 315 0
-202 602 995 0
-312 -3 196 0
984 -233 -796 0
-114 -864 -109 0
742 -985 -886 0
-517 -617 -725 0
-369 -262 -105 0
128 -817 290 0
-703 -619 570 0
-244 -252 -286 0
867 911 667 0
688 405 552 0
597 129 -778 0
923 351 -211 0
298 881 -882 0
-303 927 304 0
-454 838 262 0
433 -460 88 0
343 -41 18 0
671 287 -640 0
-511 -475 947 0
479 276 -845 0
584 288 892 0
11 365 -859 0
81 -230 -659 0
311 -987 -418 0
783 -145 739 0
-713 -132 -245 0
413 168 392 0
-16 176 -964 0
-166 370 -858 0
181 -629 -970 0
-500 -578 993 0
702 321 -556 0
88 -844 -693 0
489 301 -38 0
-371 -383 -60 0
284 96 704 0
-686 76 543 0
-308 -294 -267 0
382 -2 -39 0
-325 -581 -858 0
539 598 328 0
-228 310 -420 0
227 749 772 0
-174 -461 853 0
127 668 -782 0
-199 755 -77 0
-718 -284 539 0
674 672 775 0
-995 262 -407 0
529 -380 -955 0
-709 544 997 0
7 -196 223 0
-558 314 869 0
94 786 -764 0
219 889 -800 0
-787 369 -873 0
901 604 -302 0
621 -50 614 0
-903 336 -409 0
-833 -66 -301 0
-623 -470 -65 0
632 556 509 0
-869 -369 -125 0
852 485 -853 0
-485 -353 -783 0
229 -271 -178 0
8 461 -266 0
904 417 402 0
-638 -472 862 0
-685 -242 -691 0
-378 -45 889 0
-105 920 -566 0
-410 344 -435 0
237 153 -293 0
-123 -601 -982 0
713 -76 54 0
-792 -938 812 0
-284 34 658 0
994 -365 735 0
411 -798 59 0
-734 -571 557 0
-208 -622 958 0
-433 -304 -283 0
454 439 841 0
593 74 -599 0
588 222 862 0
-852 -504 -919 0
976 234 553 0
-225 1000 -493 0
-876 651 24 0
129 -386 775 0
-958 -906 -331 0
-832 537 805 0
954 -986 289 0
34 -934 -241 0
727 289 773 0
-777 925 494 0
-226 841 -547 0
-118 865 -754 0
178 428 650 0
-484 687 -380 0
89 161 658 0
-617 -789 567 0
998 -608 467 0
-188 -753 909 0
470 -937 581 0
-124 62 -952 0
837 -288 213 0
622 456 -991 0
-284 545 816 0
-489 202 -5 0
-486 819 -503 0
78 739 -756 0
-181 -473 40 0
109 -548 -198 0
91 -268 -537 0
-526 -213 -449 0
867 711 891 0
-394 -83 -384 0
-411 -812 437 0
983 207 559 0
458 321 -578 0
-454 -178 -576 0
576 -287 880 0
420 409 198 0
-189 -449 -956 0
-447 647 -947 0
-358 -301 573 0
-842 -743 -113 0
238 343 -373 0
-923 -980 173 0
-181 568 -877 0
691 -590 259 0
712 891 3 0
-142 388 684 0
786 -793 375 0
341 -753 19 0
-386 -984 927 0
-884 449 -966 0
-517 428 811 0
-294 -141 -619 0
599 747 649 0
742 -563 907 0
-716 -585 528 0
885 -821 -535 0
-460 -389 492 0
-164 -81 495 0
233 385 584 0
-172 627 -895 0
400 -666 872 0
879 -338 -662 0
-961 509 -685 0
-609 -851 588 0
625 24 138 0
-254 -469 556 0
800 -797 417 0
-152 425 -597 0
-189 837 -985 0
-210 493 388 0
-688 286 211 0
-563 -869 -499 0
-373 644 -434 0
-33 -424 594 0
-379 -124 -941 0
-871 -580 -628 0
-469 -308 -425 0
-987 -541 361 0
78 -13 461 0
-399 -396 369 0
418 932 -541 0
291 -946 668 0
-764 669 -922 0
-558 -241 555 0
170 876 -190 0
-388 113 -61 0
385 -171 889 0
495 764 -949 0
561 284 -952 0
-378 481 -753 0
-753 378 278 0
424 -573 -766 0
255 -370 -468 0
380 -57 -286 0
444 679 524 0
785 429 86 0
-618 515 -540 0
-363 -55 217 0
-856 -846 323 0
-849 293 -571 0
965 22 -786 0
-20 101 972 0
203 542 104 0
-93 -564 245 0
489 316 64 0
967 416 -3 0
-97 8 886 0
763 -348 611 0
-41 -752 908 0
-307 -154 353 0
-866 -72 -647 0
-615 745 -205 0
-120 -155 129 0
-620 -511 -314 0
-201 330 676 0
-166 787 498 0
103 -267 972 0
-371 243 -269 0
-134 90 935 0
436 -899 709 0
-327 461 174 0
-232 -44 328 0
-260 540 144 0
-883 519 -767 0
-553 -628 28 0
-987 324 -65 0
460 -507 -730 0
568 -198 858 0
-559 -290 939 0
-455 -989 -970 0
795 -83 387 0
374 182 725 0
-357 283 -913 0
394 -92 -285 0
-434 -278 501 0
-118 159 264 0
661 -302 -535 0
671 -186 957 0
927 -673 -678 0
410 -567 770 0
29 390 520 0
-700 -198 573 0
958 -99 433 0
-157 888 593 0
517 -745 124 0
-825 -333 -46 0
-819 -494 706 0
785 -786 -900 0
614 -984 -381 0
952 -657 -182 0
761 -799 817 0
868 872 839 0
-312 393 -934 0
895 791 658 0
225 619 -755 0
853 -540 -8 0
-745 562 607 0
503 735 -471 0
-488 50 701 0
-160 -957 -806 0
-666 -178 107 0
-406 562 900 0
-994 460 865 0
935 900 -337 0
-817 984 -494 0
103 192 -115 0
-269 140 630 0
-2 616 -46 0
40 -641 1 0
517 303 -378 0
-53 244 512 0
381 834 -232 0
-645 -823 -386 0
144 -365 361 0
-709 -349 346 0
-605 492 809 0
378 -984 -729 0
-581 -371 752 0
-879 215 -57 0
-331 -237 -509 0
914 -391 -146 0
645 -671 -932 0
-854 -219 -675 0
820 -973 25 0
-798 -195 7 0
182 269 -889 0
-578 -438 -174 0
709 -872 -610 0
-533 75 538 0
295 126 467 0
170 250 78 0
-186 953 832 0
-108 -896 -90 0
-475 -946 9 0
69 -686 -888 0
664 -721 -179 0
308 858 689 0
646 299 775 0
-875 4 -883 0
343 -848 -425 0
883 114 603 0
536 -652 -273 0
-313 -753 550 0
-417 668 -313 0
250 -309 -410 0
-67 -165 215 0
996 -61 -674 0
-186 130 600 0
-729 824 288 0
-616 -376 932 0
-857 -198 -916 0
131 126 897 0
-457 -66 -512 0
257 -325 -898 0
430 -222 -947 0
864 -620 -538 0
-940 -755 882 0
692 36 460 0
-323 58 -938 0
992 -409 -227 0
-180 -758 -634 0
-154 -56 46 0
-322 654 -813 0
392 587 521 0
822 628 -767 0
-137 -359 346 0
228 107 611 0
164 807 476 0
31 -457 347 0
-29 -256 -681 0
910 -183 -326 0
433 -374 -354 0
102 -841 -23 0
601 578 5 0
-172 316 131 0
207 -229 -716 0
-859 -810 475 0
-333 -427 -570 0
100 731 179 0
-970 -128 662 0
516 427 -743 0
780 144 732 0
-51 -575 -431 0
-261 -160 -443 0
-965 -169 31 0
533 -609 515 0
309 206 39 0
-605 884 -943 0
82 532 -879 0
-545 973 562 0
-732 -64 396 0
-284 -776 -357 0
841 991 487 0
-168 -342 -307 0
72 962 349 0
-506 -469 -673 0
593 502 -230 0
568 -552 269 0
106 -991 430 0
-725 801 587 0
32 -530 634 0
-991 683 695 0
66 -643 -818 0
-58 348 171 0
609 909 -315 0
-321 -982 -730 0
-232 409 -319 0
-627 -480 -847 0
-44 -647 925 0
932 -734 -545 0
-517 150 665 0
-893 963 -469 0
-55 -144 887 0
152 53 -158 0
877 -292 116 0
468 -961 576 0
404 376 -318 0
-474 -265 -896 0
-541 -162 -376 0
704 -60 -622 0
514 -832 709 0
617 -696 320 0
398 147 71 0
662 -918 717 0
-304 -122 -124 0
77 -142 650 0
154 -470 -303 0
118 -228 399 0
557 -471 344 0
354 432 142 0
-639 -608 495 0
-767 780 -58 0
-933 -170 834 0
-365 -272 307 0
-180 951 -860 0
568 -413 -545 0
-432 -657 794 0
-749 -770 708 0
394 -278 -470 0
-962 570 -911 0
14 -69 -820 0
-4 603 -192 0
191 -877 -110 0
-182 -911 -944 0
-767 -908 975 0
-952 -644 268 0
826 -311 760 0
-354 404 935 0
-925 -57 -880 0
-296 -200 948 0
830 445 509 0
-258 498 -978 0
-596 -471 294 0
410 489 -402 0
770 826 -218 0
-117 941 202 0
30 -859 -262 0
-368 -220 564 0
98 807 255 0
527 146 965 0
-918 449 -350 0
200 -884 653 0
-95 -159 -641 0
-951 218 -446 0
-81 -427 -939 0
-13 -955 -493 0
331 255 -468 0
282 -168 -611 0
380 -276 -652 0
539 -420 488 0
-756 -349 325 0
-530 727 885 0
-94 655 26 0
-970 255 -238 0
489 -787 707 0
825 -204 -146 0
-360 894 -816 0
-47 414 -842 0
-48 292 -353 0
-8 554 -694 0
-461 -254 -73 0
-504 -417 320 0
-352 -20 706 0
952 -631 979 0
-692 -320 173 0
189 250 665 0
112 428 686 0
-698 -228 556 0
205 162 355 0
374 756 -914 0
872 323 760 0
209 148 399 0
-354 -875 -148 0
-704 983 763 0
-431 -530 -727 0
-409 374 246 0
-960 -836 -393 0
-709 620 -549 0
-391 488 747 0
585 472 -124 0
-954 -53 756 0
-554 199 155 0
779 -718 -443 0
-583 49 -160 0
-120 -670 -375 0
-923 -560 575 0
75 -813 -870 0
488 -3 388 0
926 335 451 0
-255 412 813 0
-25 187 601 0
-127 558 900 0
-419 -857 -526 0
-271 -225 604 0
991 -621 351 0
-554 136 918 0
-77 450 -970 0
-807 558 -853 0
206 -871 412 0
-766 404 799 0
846 529 -749 0
-467 -427 -533 0
801 829 -707 0
589 345 483 0
-311 5 -284 0
344 -52 335 0
-558 44 430 0
-723 -4 22 0
535 -830 612 0
-300 -784 -312 0
-740 325 -782 0
337 575 -132 0
694 -334 230 0
848 -513 354 0
-859 -493 -346 0
-547 -303 -609 0
-807 -622 -762 0
287 -113 -628 0
50 -71 -957 0
-259 -629 -666 0
-897 643 -922 0
958 488 -826 0
-11 -498 -156 0
-186 768 410 0
-169 -375 111 0
661 -928 627 0
-534 768 849 0
812 -932 885 0
103 701 -758 0
786 -582 535 0
669 836 -285 0
399 -119 424 0
-64 791 878 0
740 -168 732 0
-843 245 -862 0
286 -372 -520 0
-676 -960 -230 0
-519 -481 33 0
-359 -68 621 0
590 -882 729 0
10 528 -785 0
218 60 774 0
140 -932 1000 0
596 319 -594 0
985 -118 -781 0
-377 -840 355 0
-385 439 644 0
764 731 -868 0
773 -515 153 0
-720 266 524 0
821 -217 507 0
982 785 -845 0
42 444 -367 0
-460 135 63 0
710 558 721 0
-937 859 710 0
-410 700 86 0
940 317 669 0
521 141 285 0
79 -44 -414 0
727 -251 254 0
410 -145 -95 0
977 -202 -393 0
854 340 54 0
324 -425 -443 0
602 -704 -725 0
90 969 593 0
-508 -73 -112 0
798 -875 -66 0
981 -825 -267 0
112 771 -477 0
-136 225 -390 0
-581 472 417 0
-224 -203 -871 0
-95 742 597 0
187 -307 -639 0
755 -719 104 0
-123 251 -968 0
145 206 952 0
-501 -3 -1000 0
928 -917 178 0
916 767 -337 0
-219 -589 -793 0
323 -30 120 0
110 847 -568 0
804 -342 935 0
-419 -476 -441 0
-676 -834 -898 0
-895 131 -738 0
-13 -944 -627 0
-166 317 383 0
113 -148 711 0
-410 813 -804 0
87 812 873 0
218 -691 215 0
-415 -59 947 0
397 109 -758 0
262 797 -642 0
-141 589 -113 0
-279 13 149 0
-84 51 -80 0
-770 -225 -867 0
536 885 861 0
-567 -103 -750 0
-9 131 233 0
305 -881 523 0
94 -733 -956 0
-629 -196 347 0
-90 -648 240 0
880 384 152 0
-708 936 915 0
783 -106 -930 0
62 -962 -489 0
177 247 -533 0
-449 543 909 0
-597 -898 -269 0
-52 72 -953 0
645 448 116 0
-738 -793 345 0
-297 164 -594 0
780 -631 437 0
-967 635 -156 0
-944 -540 -843 0
642 -566 257 0
288 649 -922 0
169 759 -904 0
541 -58 169 0
-716 539 393 0
-731 311 -67 0
285 62 -451 0
-222 -273 523 0
-535 365 -558 0
751 609 499 0
-617 -446 -377 0
312 -596 146 0
-948 347 644 0
-996 938 -314 0
363 753 342 0
-205 -251 -89 0
200 -347 -746 0
-38 843 135 0
-582 -63 -758 0
480 697 -458 0
145 724 979 0
-457 -318 976 0
618 -56 542 0
-680 -914 403 0
-227 966 -873 0
726 -980 -385 0
-757 -952 -544 0
115 -632 -577 0
398 765 -379 0
-464 899 677 0
229 -399 -74 0
-39 -212 59 0
-245 -639 -328 0
91 -376 656 0
-900 285 281 0
821 42 -676 0
901 605 -755 0
530 449 27 0
-919 783 995 0
945 982 -102 0
204 289 747 0
-74 830 590 0
577 -605 -968 0
212 641 646 0
626 403 -751 0
-886 356 -47 0
337 -91 642 0
-536 677 -930 0
-866 -796 -301 0
379 122 -609 0
418 807 603 0
253 914 -548 0
168 -90 491 0
236 133 -241 0
-612 449 935 0
450 797 591 0
-565 -619 -881 0
285 -163 -468 0
-242 -897 -89 0
534 724 257 0
-579 -548 391 0
-579 -541 607 0
-111 581 434 0
-112 -275 979 0
339 -779 454 0
-532 14 -391 0
-995 280 -31 0
566 513 -572 0
911 382 775 0
870 -28 -676 0
-50 734 347 0
-866 314 -808 0
-375 -50 -680 0
371 181 589 0
-326 842 -347 0
409 212 -538 0
-618 874 -589 0
-572 -521 -678 0
-550 297 -529 0
913 171 545 0
60 348 257 0
-842 -78 -336 0
553 63 143 0
-880 -897 -926 0
-973 107 -490 0
718 -424 -866 0
971 -685 604 0
512 421 173 0
-734 -151 459 0
839 -35 -3 0
687 384 919 0
-687 -841 -919 0
-919 -832 277 0
-724 232 717 0
662 204 724 0
392 62 504 0
980 421 -361 0
-925 972 760 0
-176 277 72 0
-232 -783 755 0
495 -395 687 0
336 108 -729 0
-118 -993 742 0
429 894 342 0
-469 -124 -121 0
170 279 42 0
824 -366 916 0
-802 -402 155 0
448 432 903 0
-565 884 -41 0
106 197 855 0
792 659 -579 0
861 -661 -112 0
134 898 644 0
901 -874 -845 0
-721 705 227 0
-50 12 343 0
-797 740 408 0
28 -35 962 0
633 326 129 0
958 950 -478 0
-700 659 -107 0
-231 159 527 0
-461 -161 -558 0
704 891 615 0
800 -837 712 0
-54 -104 -489 0
-134 -877 200 0
-568 -655 156 0
607 -627 -259 0
961 -796 -394 0
-977 859 -208 0
18 -152 560 0
952 -896 -479 0
-499 -788 -585 0
631 262 -864 0
682 45 519 0
379 126 -921 0
-580 -708 563 0
-976 -948 -643 0
851 120 430 0
-575 -5 65 0
-737 -593 -934 0
39 99 179 0
-399 145 -895 0
-69 -13 805 0
788 -649 -612 0
-647 303 213 0
791 746 435 0
515 838 -535 0
223 -3 866 0
366 -215 -316 0
591 669 -199 0
-894 -451 277 0
19 -569 136 0
184 425 -422 0
30 -105 14 0
871 266 -563 0
888 -721 689 0
537 -821 -351 0
-364 969 -366 0
-698 -385 -283 0
-539 735 422 0
-877 -674 306 0
-558 196 845 0
-951 33 823 0
-901 874 -186 0
-422 975 611 0
147 991 -259 0
-27 -812 180 0
165 -579 311 0
654 839 -650 0
658 -956 -102 0
-38 -749 -550 0
-128 -246 627 0
928 42 459 0
982 688 440 0
-111 -50 636 0
951 679 837 0
495 -839 584 0
-627 40 965 0
459 -599 534 0
-377 508 637 0
65 409 -793 0
-242 -118 426 0
995 26 347 0
-102 30 135 0
-908 531 902 0
971 -127 -753 0
-741 17 -753 0
695 330 368 0
554 -623 -439 0
494 -331 863 0
-453 359 -738 0
408 578 214 0
-270 708 958 0
455 -853 -247 0
-799 -168 518 0
-252 -886 1000 0
-654 -106 -966 0
682 998 -903 0
-46 -986 -98 0
-573 -179 -627 0
-325 -289 177 0
-604 988 245 0
537 -316 -518 0
-203 -964 -618 0
-961 -409 91 0
196 -358 761 0
759 -232 -425 0
962 -464 713 0
624 390 -828 0
-981 143 -159 0
-116 525 -843 0
-646 -971 -65 0
497 87 352 0
648 -804 25 0
-689 832 -46 0
285 -34 745 0
-428 -31 -800 0
287 -854 951 0
969 575 -915 0
76 997 -621 0
-176 -956 634 0
-209 601 -534 0
-952 -67 544 0
-662 -977 -198 0
-109 -211 -186 0
744 474 -285 0
-397 -912 386 0
884 514 -857 0
396 772 518 0
654 -437 -382 0
647 -582 480 0
-199 451 511 0
587 669 221 0
251 444 -502 0
-788 -104 499 0
-417 544 -305 0
748 297 969 0
-265 -88 176 0
-456 -162 390 0
-392 838 -749 0
-70 449 939 0
198 594 -931 0
343 -334 347 0
-377 -354 783 0
870 -880 -602 0
-261 207 635 0
326 -930 38 0
-412 -496 -779 0
-956 -634 -926 0
-388 560 -193 0
466 -575 916 0
652 278 111 0
-164 -405 -725 0
244 777 -11 0
230 -547 -832 0
-935 278 724 0
-186 -624 -334 0
-854 -600 -868 0
-879 -161 860 0
191 603 891 0
910 -915 957 0
350 -144 -848 0
818 -855 311 0
348 227 231 0
-601 -462 -114 0
58 -980 572 0
265 -48 145 0
312 615 981 0
379 20 -464 0
36 824 392 0
-98 -416 -535 0
-938 -405 635 0
-792 -355 -99 0
-313 -652 377 0
-375 -415 86 0
-248 -776 -320 0
-111 -40 -286 0
110 -243 903 0
472 395 470 0
-129 611 160 0
491 -662 -736 0
547 630 225 0
911 603 709 0
-3 -320 61 0
-735 -196 228 0
-131 -890 509 0
472 28 -839 0
-35 -246 -154 0
214 462 -11 0
-894 -659 -700 0
354 432 -773 0
772 -426 48 0
-567 491 258 0
982 553 464 0
-432 -300 -642 0
-771 -794 -783 0
323 296 852 0
524 -189 943 0
149 -462 -646 0
216 -497 865 0
-349 347 -9 0
-679 -189 828 0
-452 -772 773 0
-417 -575 631 0
-4 -269 -653 0
976 570 -519 0
473 -985 -107 0
817 -162 468 0
390 198 242 0
762 664 5 0
-413 969 327 0
729 496 -367 0
-939 -729 -108 0
472 382 -198 0
578 839 166 0
-289 -310 -29 0
182 -246 416 0
-126 -417 -578 0
-207 -241 369 0
-704 499 261 0
930 832 748 0
-828 -985 -683 0
-81 741 227 0
-587 840 -600 0
-530 420 -908 0
305 -458 -69 0
123 -854 395 0
-365 -883 -939 0
-127 -392 701 0
580 937 -535 0
877 -847 -464 0
16 720 320 0
-885 388 -577 0
-990 -152 -734 0
-807 70 -727 0
279 -948 -144 0
218 494 551 0
669 912 -208 0
803 -875 -90 0
341 -516 50 0
-188 -337 -26 0
-604 -645 -242 0
430 188 -550 0
257 8 405 0
263 259 739 0
-290 -963 -397 0
76 58 763 0
-502 -696 408 0
613 290 657 0
-406 464 -531 0
-157 -931 103 0
-880 -368 983 0
966 -379 686 0
853 103 -401 0
-366 -430 -713 0
557 -495 -418 0
-840 122 -872 0
768 701 133 0
-697 983 633 0
300 994 -282 0
-564 355 544 0
862 -272 971 0
-284 968 -497 0
-288 792 -400 0
-734 360 -744 0
834 186 732 0
-148 -890 380 0
743 -898 -611 0
-715 935 736 0
-884 445 -88 0
-81 408 816 0
-359 263 -746 0
-180 802 601 0
-33 -672 70 0
908 -449 -755 0
-741 191 23 0
488 552 43 0
-726 -436 -534 0
-620 785 752 0
314 921 -518 0
-523 978 -341 0
701 -452 819 0
249 185 -369 0
-979 -982 -164 0
31 -351 -845 0
-840 -587 394 0
-654 222 901 0
-206 844 -401 0
-86 352 -980 0
402 -395 262 0
939 -153 862 0
709 -438 -356 0
-963 266 775 0
-797 -354 335 0
-496 -502 923 0
307 726 814 0
-324 598 513 0
-992 939 -436 0
-514 117 -909 0
250 934 623 0
854 297 726 0
593 -210 83 0
669 990 -851 0
477 -235 63 0
72 498 -751 0
-62 -578 998 0
-751 211 -966 0
148 -114 -421 0
300 -760 -568 0
488 166 733 0
149 87 -297 0
-201 -907 494 0
604 221 -181 0
-328 973 625 0
-641 -487 -355 0
-565 591 545 0
-732 -84 503 0
503 800 440 0
879 -332 -977 0
-609 -27 604 0
-170 777 9 0
122 -392 965 0
43 37 -557 0
106 95 -170 0
-889 -988 -792 0
428 -69 -156 0
1 779 -806 0
-136 -209 114 0
468 709 719 0
612 596 -773 0
289 93 343 0
774 703 943 0
-19 382 731 0
707 -995 -117 0
-161 102 -970 0
129 -658 704 0
-749 -129 -426 0
-33 831 -912 0
-811 -367 604 0
-222 -730 -296 0
15 119 402 0
339 866 -954 0
-669 151 606 0
-288 356 -533 0
-988 877 36 0
-640 -773 632 0
675 183 -925 0
585 541 -540 0
-564 -240 748 0
