p cnf 500 2100
-452 187 -282 0
-344 -398 145 0
227 165 -336 0
-497 -317 27 0
-105 -308 413 0
393 -129 401 0
-104 440 -408 0
250 -38 9 0
67 370 5 0
431 373 -61 0
-66 -284 159 0
-354 160 -5 0
457 415 -104 0
428 16 -145 0
135 -388 -211 0
49 -136 -417 0
-4 -66 278 0
-237 -497 202 0
444 374 34 0
364 4 -91 0
-402 -452 -411 0
-28 -275 -428 0
46 -157 377 0
-387 57 -471 0
295 438 -299 0
252 409 82 0
-154 329 55 0
-238 -462 -52 0
-184 -180 330 0
-100 56 304 0
-404 -222 -388 0
303 269 -393 0
134 32 107 0
-425 362 -438 0
354 -445 365 0
424 -340 -492 0
-46 -146 172 0
-431 416 26 0
251 -111 138 0
-369 372 167 0
286 293 60 0
260 435 -386 0
-327 169 280 0
-265 431 -4 0
75 -81 31 0
248 -51 -30 0
149 -246 -28 0
132 -33 451 0
-54 -22 282 0
190 -457 -197 0
73 -301 183 0
423 -495 -326 0
206 480 -483 0
237 265 31 0
110 58 -455 0
-34 263 -331 0
194 -486 309 0
337 137 445 0
111 -330 -75 0
206 -188 -434 0
-246 -66 -91 0
495 469 429 0
-129 159 -73 0
-320 -205 43 0
235 -147 -338 0
425 285 -453 0
-430 -59 317 0
317 -137 384 0
-388 228 477 0
-449 -188 -486 0
-142 123 236 0
-323 -450 -374 0
-31 -216 455 0
268 -9 -66 0
-303 175 -67 0
-214 -188 168 0
12 396 -323 0
-306 491 59 0
-106 -186 79 0
167 396 -135 0
191 377 337 0
-374 -348 454 0
481 -236 -5 0
-70 -150 3 0
390 171 -364 0
-432 62 -325 0
-183 -69 -68 0
-154 42 62 0
-18 -378 118 0
-324 178 -236 0
361 -136 -71 0
-111 -473 499 0
268 338 270 0
-27 -392 56 0
92 55 -499 0
-429 -117 -2 0
-166 -465 453 0
443 -406 243 0
198 -426 -225 0
130 158 307 0
-40 296 300 0
-344 2 -142 0
-216 -194 -360 0
440 444 -113 0
-157 -431 -374 0
223 91 304 0
442 -111 283 0
463 -333 -430 0
-65 138 499 0
-160 295 -89 0
406 -259 -466 0
-82 -494 187 0
-180 40 203 0
387 247 79 0
298 -124 370 0
450 -209 158 0
6 -479 -60 0
454 56 417 0
-249 318 -197 0
462 -375 -147 0
-351 -376 73 0
304 378 110 0
276 325 -472 0
420 463 78 0
479 -382 136 0
-198 -149 294 0
497 43 -61 0
-303 386 -48 0
-106 -490 47 0
271 436 -220 0
34 193 -191 0
490 58 158 0
-308 49 -432 0
-73 -370 -414 0
489 -72 27 0
466 -194 -464 0
187 248 -361 0
365 284 -419 0
-350 -8 271 0
14 249 197 0
290 -125 46 0
-196 -212 -477 0
-401 176 -336 0
-182 184 160 0
455 297 -361 0
-236 -378 -128 0
-26 304 -143 0
-351 -364 -268 0
-171 382 -241 0
421 394 488 0
11 -185 -35 0
-286 -456 45 0
449 -60 366 0
-18 366 -124 0
-65 137 -407 0
91 -426 -169 0
457 326 -166 0
195 -218 -309 0
399 55 -444 0
387 16 -436 0
-135 166 121 0
407 121 343 0
55 357 -352 0
347 -397 346 0
-364 2 26 0
215 -489 79 0
374 69 20 0
-13 -378 456 0
324 8 149 0
112 334 275 0
-307 90 -93 0
105 -198 -88 0
103 -9 272 0
-161 -87 206 0
312 152 314 0
-44 -217 172 0
-371 48 -432 0
-247 436 -175 0
97 -244 223 0
332 -259 456 0
368 -343 97 0
479 366 345 0
433 -417 -476 0
-474 -424 488 0
285 -381 -274 0
-83 -34 411 0
78 486 53 0
458 322 -490 0
166 -457 145 0
368 422 -307 0
-477 -334 103 0
261 -440 -384 0
-425 -391 187 0
137 -497 -130 0
100 105 435 0
464 405 410 0
295 -315 -32 0
-36 -454 424 0
-303 145 -279 0
-9 -122 -149 0
-423 -496 -407 0
-186 -50 22 0
-208 -117 98 0
353 171 488 0
291 -84 -206 0
392 -408 310 0
-233 -134 345 0
-371 175 80 0
23 452 -384 0
-390 -35 186 0
81 -90 -226 0
87 408 379 0
-445 3 -465 0
232 -410 110 0
-327 -330 473 0
-140 -464 109 0
-321 37 6 0
-272 -178 -285 0
453 -158 -321 0
157 -203 171 0
-30 -433 -498 0
174 206 228 0
-152 71 495 0
-434 -48 209 0
426 240 226 0
-357 -415 -319 0
-231 -171 66 0
-144 -352 -332 0
-349 -396 -62 0
493 166 -381 0
260 60 -311 0
311 -446 -105 0
189 410 62 0
-446 -252 -212 0
97 -400 -322 0
-59 -12 90 0
96 -372 189 0
81 -62 -372 0
18 -78 -367 0
-325 -375 401 0
-58 -467 53 0
74 -334 -394 0
248 158 210 0
-319 95 450 0
407 425 -342 0
-360 -496 155 0
-235 -41 253 0
-329 -11 -160 0
-49 -45 -192 0
-225 -312 -231 0
-315 269 344 0
467 308 361 0
-456 18 201 0
500 174 -335 0
2 34 -469 0
-169 427 463 0
-137 -246 4 0
-100 171 435 0
-36 15 -90 0
-172 251 -401 0
381 255 296 0
-121 -95 292 0
-247 20 -409 0
404 214 -366 0
-296 -288 167 0
469 -158 174 0
418 195 191 0
372 -482 38 0
424 484 -337 0
310 85 150 0
-228 242 -250 0
-44 -224 284 0
-249 325 469 0
316 154 -473 0
259 362 -391 0
361 320 -447 0
410 -164 108 0
-469 -157 128 0
491 -248 453 0
-473 462 290 0
-30 -390 -270 0
-420 37 -323 0
181 471 -468 0
245 189 -334 0
220 418 429 0
-332 123 -320 0
163 -462 432 0
319 406 -311 0
-64 -451 -327 0
-147 287 49 0
-44 495 -136 0
-292 136 487 0
-343 -487 -384 0
124 -496 85 0
285 108 -98 0
-419 -318 -2 0
-362 483 -104 0
-383 -291 229 0
458 -404 -205 0
272 -274 -346 0
-49 -365 -195 0
24 209 -91 0
-177 -418 -392 0
-46 244 65 0
203 -220 -173 0
396 -412 61 0
19 247 78 0
-183 -109 358 0
126 -56 63 0
-310 -360 -198 0
-291 -226 -331 0
478 -200 3 0
321 285 -197 0
301 29 215 0
-259 -433 436 0
-64 -303 133 0
196 -481 423 0
-73 303 163 0
-473 -353 305 0
-372 -16 -42 0
-13 -364 27 0
-254 161 187 0
-455 -187 -50 0
96 135 -464 0
76 -469 136 0
-245 5 387 0
-186 -466 -305 0
396 -256 -477 0
-115 -173 446 0
340 -191 240 0
65 -303 357 0
408 -98 -349 0
-131 -210 -317 0
377 -184 -460 0
-19 -299 337 0
351 -270 -328 0
-214 -131 -229 0
-55 442 180 0
213 -425 415 0
-80 -272 -484 0
49 -136 -65 0
-457 127 -194 0
-11 151 -264 0
235 479 -435 0
-290 -297 410 0
50 -241 -425 0
-417 259 341 0
344 -203 334 0
47 -431 -493 0
449 154 -7 0
-196 119 183 0
-424 -6 208 0
267 -481 318 0
323 459 137 0
369 -352 47 0
-211 197 203 0
140 218 22 0
253 -67 -363 0
-316 -13 -305 0
167 424 266 0
-294 -419 374 0
-397 -236 -5 0
274 308 262 0
-202 -484 -144 0
215 370 460 0
322 265 66 0
-261 -177 176 0
-16 156 -28 0
203 -201 -136 0
101 -195 -450 0
-141 -396 371 0
203 20 324 0
313 172 -207 0
-77 47 108 0
-324 485 12 0
145 -448 -281 0
-320 -224 -251 0
75 232 -81 0
88 -270 -455 0
310 -49 417 0
-452 321 227 0
144 159 141 0
-396 455 392 0
-72 -243 -94 0
-33 102 -279 0
-355 -386 340 0
-181 240 168 0
62 -278 22 0
-151 458 -228 0
412 -253 -114 0
5 -68 -407 0
-76 -89 -198 0
-189 128 -211 0
-157 359 -159 0
68 473 5 0
248 187 -375 0
215 405 217 0
182 -439 -381 0
489 -175 339 0
439 -436 -386 0
348 -233 -161 0
266 -185 -325 0
-415 -11 327 0
-369 -36 -121 0
186 496 218 0
177 -209 -309 0
-261 -283 290 0
-180 -79 -475 0
12 -167 114 0
-217 -364 -212 0
-457 158 -234 0
386 183 298 0
129 384 -170 0
480 493 62 0
-390 91 -209 0
158 -180 77 0
-226 -219 235 0
243 -356 -496 0
398 -394 335 0
291 -292 113 0
368 -317 -63 0
-449 -134 -383 0
-352 46 -369 0
198 -266 331 0
209 347 -447 0
-460 94 -274 0
-49 203 296 0
-257 -39 -285 0
-99 445 -256 0
-456 -368 292 0
-104 192 -432 0
81 -256 476 0
-212 462 -226 0
94 -78 473 0
23 242 -439 0
-101 235 396 0
186 -275 285 0
-340 -408 -393 0
-347 352 -83 0
-144 470 -321 0
168 289 -173 0
5 -252 -58 0
314 209 64 0
-322 269 134 0
-306 92 171 0
73 -341 -413 0
13 -286 -95 0
-364 -94 428 0
105 -152 56 0
-156 6 102 0
-111 110 386 0
-23 213 356 0
-287 44 -247 0
-414 -281 195 0
-253 -470 114 0
412 475 -41 0
-377 -277 -10 0
-65 430 96 0
-39 -111 -52 0
-494 1 -363 0
-216 -257 -293 0
344 228 -128 0
264 463 347 0
325 -290 199 0
-228 393 44 0
183 -280 -490 0
18 -449 -435 0
-421 462 -13 0
451 179 -470 0
-356 407 225 0
-40 436 230 0
340 205 -456 0
-82 5 199 0
282 -267 432 0
-309 76 -331 0
-190 -319 364 0
307 349 -62 0
-489 291 -7 0
-288 285 150 0
-455 124 -257 0
-457 -390 179 0
483 347 -218 0
454 -499 257 0
110 -476 284 0
-447 -257 -463 0
433 -324 301 0
-436 282 -48 0
483 -101 -160 0
-26 52 -190 0
415 233 -485 0
267 181 73 0
146 -75 232 0
245 -12 493 0
-266 -238 292 0
7 -5 469 0
-50 275 -110 0
-399 -120 467 0
17 -121 46 0
-53 -71 -8 0
-327 32 -333 0
397 441 -497 0
-319 61 -181 0
-323 328 -166 0
480 266 304 0
299 -108 351 0
444 117 239 0
-313 204 -394 0
-173 238 -388 0
-438 -112 -296 0
-108 60 317 0
421 331 241 0
-189 192 392 0
471 -428 384 0
-18 -336 -383 0
50 -409 -441 0
-189 -238 -334 0
162 -136 280 0
-311 -198 -175 0
-356 -90 409 0
367 343 -470 0
70 -429 288 0
-246 392 165 0
-82 71 173 0
31 236 433 0
-421 -320 -250 0
465 271 482 0
-128 -308 -22 0
-205 -21 3 0
202 484 79 0
144 370 299 0
346 -263 -459 0
-499 -101 454 0
-191 -67 107 0
-465 -228 -99 0
121 367 458 0
154 103 -474 0
277 99 -149 0
390 -427 -332 0
221 280 -107 0
226 -455 -402 0
307 -490 149 0
-165 304 378 0
217 122 10 0
166 -236 -272 0
72 -172 -195 0
451 -334 -306 0
-68 -113 185 0
67 497 111 0
196 -296 -361 0
-427 374 -344 0
322 -95 -103 0
-415 -273 318 0
-321 -296 -38 0
438 227 230 0
-357 199 480 0
-303 -177 399 0
259 -288 174 0
419 -65 -393 0
106 71 175 0
406 261 -158 0
-210 470 212 0
-249 392 -127 0
317 -216 325 0
-65 -361 461 0
167 360 160 0
487 480 -472 0
399 383 358 0
489 -431 -415 0
261 319 -112 0
216 -38 -422 0
-128 364 74 0
91 236 -80 0
254 -6 -484 0
-404 -50 320 0
380 20 -349 0
-174 325 -76 0
15 79 420 0
446 497 -454 0
-449 175 36 0
-5 -256 -95 0
-274 -264 -154 0
46 227 220 0
295 343 155 0
479 279 -71 0
115 -20 449 0
-275 -253 98 0
40 -436 353 0
-204 46 195 0
186 -376 -42 0
427 -201 8 0
-380 201 416 0
-168 451 -153 0
-198 -444 -120 0
-473 259 -493 0
135 -59 150 0
448 -3 131 0
191 -257 -78 0
-74 -76 405 0
-128 -30 476 0
-275 216 -497 0
-3 490 -286 0
-277 11 143 0
266 143 446 0
499 458 210 0
-198 -206 488 0
-138 87 143 0
-458 385 -316 0
-391 8 -263 0
3 68 438 0
-200 491 -172 0
235 38 245 0
-286 -97 -84 0
-70 -252 -149 0
253 314 194 0
148 56 -181 0
-28 146 -334 0
254 464 361 0
356 -432 121 0
-360 48 18 0
-106 -377 -228 0
-165 -300 -301 0
-136 208 273 0
-428 139 403 0
-88 193 -152 0
27 32 175 0
-450 -410 -379 0
326 -81 430 0
265 89 -282 0
114 90 197 0
-179 396 -164 0
-155 -476 -75 0
233 -14 -481 0
245 377 205 0
-33 -209 307 0
289 316 476 0
445 357 178 0
113 -400 -335 0
-14 -373 315 0
315 -153 206 0
-98 405 -254 0
-173 91 87 0
364 281 -191 0
-261 -52 150 0
-339 -3 -39 0
-459 -205 -180 0
-272 -464 -266 0
-338 454 -222 0
-115 55 -54 0
-184 -396 -79 0
-17 485 261 0
153 -494 -318 0
307 -470 99 0
-486 -319 104 0
144 188 437 0
52 -453 -386 0
-455 189 -279 0
-234 90 423 0
151 61 -181 0
438 -401 -407 0
-230 -202 338 0
-448 -280 408 0
185 -311 -233 0
-360 -392 -300 0
-323 -47 96 0
293 259 -310 0
-120 -176 136 0
-420 465 -59 0
-4 -32 -403 0
120 378 -399 0
7 -233 92 0
-253 460 185 0
433 53 -60 0
-22 -464 15 0
117 103 118 0
249 377 78 0
-52 413 -129 0
-416 -360 -257 0
-271 -183 20 0
-398 -61 260 0
120 453 -461 0
-153 431 22 0
-333 36 168 0
360 44 155 0
400 -19 -405 0
-476 -389 -299 0
95 -449 -338 0
497 -327 -225 0
-295 -283 -485 0
94 -369 296 0
273 8 -491 0
155 423 -274 0
-188 212 -341 0
472 192 -304 0
164 81 379 0
192 -288 41 0
326 -384 495 0
92 -116 -135 0
-218 -225 -478 0
357 114 113 0
151 -131 -24 0
-39 -406 331 0
375 185 129 0
170 -196 326 0
155 -363 -149 0
-340 333 374 0
273 494 -163 0
414 200 310 0
-362 -12 34 0
-386 363 455 0
134 5 143 0
-302 185 30 0
-270 -140 12 0
84 12 397 0
-372 299 -17 0
-278 463 -138 0
-401 -240 -114 0
-76 28 -45 0
-16 491 155 0
249 -181 24 0
-211 133 -155 0
-300 -169 471 0
414 -266 -490 0
-369 423 -349 0
-436 -142 42 0
-435 -175 -334 0
-409 388 -418 0
-322 280 -48 0
-322 339 -136 0
-413 85 463 0
-367 -60 -11 0
66 -307 177 0
-495 197 -190 0
269 -139 317 0
475 -238 395 0
-113 -252 102 0
-142 416 34 0
-127 -234 83 0
-251 256 48 0
297 375 68 0
-135 41 468 0
-431 -395 -354 0
-473 -163 250 0
-13 199 375 0
241 207 -85 0
-434 141 7 0
447 -238 -203 0
-456 -147 70 0
148 235 418 0
148 -326 -441 0
388 -229 437 0
318 233 -320 0
-118 -404 270 0
-452 338 -120 0
-381 220 361 0
481 -101 21 0
233 173 -306 0
318 328 338 0
184 -306 260 0
310 402 -37 0
161 -487 -435 0
287 -228 244 0
70 -187 -471 0
-39 -166 441 0
-117 419 150 0
-153 116 -315 0
88 425 329 0
-214 -459 375 0
186 370 -379 0
197 13 147 0
-217 417 -91 0
-459 253 -363 0
127 -261 321 0
-141 433 -84 0
356 281 30 0
-192 303 325 0
491 -213 22 0
167 -288 335 0
358 -406 154 0
75 -52 363 0
184 214 -330 0
131 303 77 0
22 -137 -240 0
64 -113 489 0
419 -441 332 0
-188 -477 -55 0
95 143 312 0
-481 346 -295 0
-70 15 96 0
203 266 166 0
162 490 248 0
-404 23 -133 0
-290 -276 -65 0
457 -383 -430 0
-165 -457 101 0
-331 313 -249 0
-397 269 268 0
-137 430 -77 0
-184 -443 -11 0
244 -329 451 0
-126 -9 318 0
-494 405 74 0
-483 18 202 0
392 -148 -243 0
-323 -210 -295 0
-324 309 73 0
487 -210 442 0
-65 -182 453 0
476 -348 -170 0
154 242 133 0
198 287 -199 0
-185 -377 84 0
205 -92 -218 0
-80 21 -423 0
45 290 425 0
-127 37 -244 0
79 365 -61 0
-212 490 229 0
-368 -226 169 0
-288 -178 105 0
195 438 211 0
120 -464 232 0
-289 -137 -470 0
273 -223 -324 0
156 376 302 0
83 215 -311 0
-312 387 204 0
-16 -259 -422 0
-427 -245 97 0
-414 -157 -169 0
-13 -147 -198 0
-226 2 -194 0
198 55 33 0
163 -370 264 0
62 -236 391 0
317 385 -211 0
-159 362 -314 0
222 -162 -432 0
-23 -173 395 0
-29 393 17 0
-379 87 -481 0
370 5 111 0
-387 449 482 0
-44 421 -126 0
-305 427 61 0
-494 419 150 0
480 -126 -43 0
-228 57 -95 0
317 -381 14 0
-422 -89 429 0
162 -450 290 0
-128 -184 -429 0
269 -28 -416 0
408 419 229 0
452 238 -240 0
214 91 -474 0
287 277 -330 0
-132 147 -123 0
-359 470 -420 0
-25 -314 -350 0
-399 -10 -472 0
428 -342 -276 0
222 -44 488 0
-466 289 -35 0
207 205 -326 0
145 300 269 0
-368 -392 208 0
64 309 317 0
263 493 -297 0
360 445 -90 0
-78 157 -493 0
-369 310 -9 0
-304 -324 121 0
4 -358 -441 0
-65 -446 225 0
383 336 376 0
292 394 20 0
-127 268 -493 0
250 -431 498 0
-24 250 465 0
-197 363 258 0
105 -468 151 0
18 -19 -219 0
178 -253 168 0
-462 -431 70 0
479 25 265 0
484 121 -203 0
304 -398 293 0
332 -474 498 0
-446 409 -301 0
-19 -231 437 0
181 -28 -418 0
-195 -58 80 0
443 218 -157 0
236 -340 394 0
250 -399 -482 0
-435 -307 -497 0
-364 -28 455 0
-369 -2 -110 0
-173 -94 397 0
82 329 -180 0
-388 147 500 0
103 -61 500 0
190 -94 -74 0
328 57 42 0
107 446 -215 0
-274 -26 435 0
-136 -54 -173 0
-333 -167 3 0
253 92 482 0
-140 -132 -193 0
32 139 -329 0
-77 -463 -231 0
-413 -79 115 0
-153 346 -165 0
-320 -196 -343 0
-218 269 384 0
355 -24 248 0
183 -185 -429 0
19 20 -86 0
355 331 190 0
-427 148 157 0
148 -487 -256 0
-416 -160 -246 0
-430 185 276 0
-354 482 186 0
295 292 431 0
-438 -495 293 0
61 -18 460 0
-454 -453 -240 0
-242 372 289 0
446 484 403 0
-429 -63 -423 0
420 -350 -431 0
288 -59 65 0
-39 467 -269 0
394 293 -240 0
-494 447 -250 0
210 304 -81 0
27 82 -188 0
225 -234 465 0
265 -463 -491 0
-34 -31 -260 0
464 146 -382 0
3 -88 462 0
218 455 57 0
-120 254 -445 0
372 -286 460 0
481 -197 -334 0
-443 -408 273 0
4 429 114 0
-69 364 -163 0
468 94 -384 0
277 -161 251 0
-392 -473 171 0
305 71 -432 0
152 -316 378 0
294 -424 -332 0
225 134 223 0
-177 -57 -12 0
-152 -273 201 0
63 -325 -2 0
-5 260 -47 0
-434 318 -108 0
-33 198 -500 0
-396 408 449 0
416 402 319 0
306 328 29 0
217 114 76 0
-236 17 240 0
-20 -387 -345 0
-356 65 459 0
161 202 -228 0
-94 -342 -369 0
-159 242 279 0
310 -1 -213 0
434 -159 413 0
-281 -75 -149 0
-194 499 -422 0
-156 -180 -347 0
-200 -28 476 0
-9 35 -416 0
336 -176 444 0
-241 340 430 0
-23 432 -37 0
49 338 196 0
216 229 276 0
-1 217 -185 0
-78 -285 219 0
-2 -89 -315 0
469 212 -375 0
-91 462 -285 0
-282 -400 496 0
-382 295 -160 0
-149 244 -314 0
161 302 411 0
125 139 365 0
-110 -410 453 0
-359 190 -41 0
-11 440 -55 0
-75 104 302 0
305 55 274 0
401 450 27 0
88 -64 193 0
-411 489 272 0
185 -27 25 0
480 104 391 0
-388 -332 -10 0
-149 252 -447 0
312 59 208 0
265 219 -229 0
-438 81 277 0
388 179 -16 0
7 -26 -243 0
450 -433 -3 0
-19 -280 179 0
165 51 -179 0
210 -325 -305 0
181 -28 -200 0
212 -379 -200 0
-454 444 -42 0
-426 428 8 0
44 -134 423 0
-397 167 -198 0
330 367 -220 0
495 -367 116 0
-304 -442 -256 0
-53 333 155 0
145 -398 -20 0
353 -178 -408 0
-62 -471 137 0
-284 460 130 0
34 217 12 0
222 -486 -280 0
59 -125 -14 0
199 -297 -92 0
-237 262 -86 0
-469 381 -453 0
278 314 -27 0
488 361 136 0
-19 474 397 0
222 -232 -246 0
247 -327 413 0
396 416 366 0
-190 372 66 0
-192 167 -210 0
103 -444 -154 0
-340 114 476 0
-99 -205 353 0
-372 -340 47 0
-35 27 -313 0
-133 110 -93 0
-194 -431 -400 0
-139 410 351 0
-403 194 2 0
70 -423 173 0
-261 -298 -338 0
-323 425 -75 0
135 -299 -463 0
-304 -230 500 0
80 217 142 0
-304 -376 239 0
-401 -394 475 0
152 -294 157 0
-194 422 -8 0
246 39 -330 0
-90 -431 -148 0
-203 -279 102 0
-145 468 -184 0
404 -460 369 0
39 -372 156 0
-272 -422 346 0
-202 -50 322 0
482 -253 260 0
-328 177 -384 0
427 367 -423 0
375 139 -239 0
-423 386 70 0
362 73 -469 0
-285 -30 499 0
-446 -447 -326 0
-456 453 425 0
85 137 297 0
67 338 -415 0
452 403 -428 0
-306 -182 -108 0
-125 -166 -282 0
377 -106 253 0
-182 -95 -82 0
86 348 204 0
50 161 49 0
237 500 494 0
43 390 180 0
-187 -396 -259 0
400 -169 -8 0
323 -302 493 0
159 30 188 0
260 -290 94 0
-88 -3 -413 0
143 -133 -467 0
-150 101 358 0
-238 -153 -136 0
42 -259 375 0
-63 -96 -194 0
51 217 310 0
336 -41 -50 0
-178 117 -49 0
473 -443 -183 0
-439 420 -208 0
33 137 -135 0
-352 -119 -182 0
356 -472 152 0
18 -459 -417 0
-492 412 -11 0
-271 -333 257 0
20 68 -455 0
-325 -153 365 0
-129 -349 -404 0
475 -141 -109 0
155 351 -92 0
26 -449 -97 0
247 235 -315 0
-178 -101 -219 0
-415 275 462 0
189 297 202 0
-32 -264 -16 0
284 159 -372 0
379 -441 -369 0
99 -64 310 0
438 -191 -14 0
212 -228 -358 0
-353 -404 -286 0
-460 351 -35 0
211 -87 -255 0
-386 -225 281 0
-188 -418 -234 0
477 56 -210 0
52 -408 -234 0
43 267 426 0
-344 -290 -302 0
-480 -403 -213 0
-268 461 -82 0
-443 217 101 0
424 35 118 0
418 322 -69 0
259 85 -423 0
421 -166 476 0
-395 -117 3 0
-59 -404 -301 0
-326 127 482 0
350 -32 464 0
-483 179 -172 0
217 249 -17 0
-178 -55 205 0
-179 46 256 0
-137 -460 140 0
414 388 390 0
462 -194 47 0
39 -25 475 0
-294 351 -423 0
-369 -351 488 0
-477 46 365 0
-263 -463 -297 0
-225 380 211 0
-489 364 -397 0
374 -435 199 0
161 199 325 0
-42 -132 257 0
123 6 -167 0
-289 486 -277 0
383 -164 371 0
-5 -274 439 0
-242 149 21 0
-468 496 107 0
-82 235 264 0
-243 -393 113 0
-376 46 152 0
328 -156 -409 0
-174 249 81 0
147 -236 -431 0
-372 -228 270 0
-23 290 -337 0
-210 -362 466 0
177 -163 187 0
-10 327 472 0
-56 -24 81 0
367 -417 169 0
-44 -31 -66 0
410 199 476 0
344 58 386 0
491 -175 218 0
-118 134 -221 0
238 -284 473 0
-66 444 211 0
215 -92 457 0
-405 -245 396 0
-63 477 194 0
-53 -113 332 0
-21 124 278 0
17 192 -446 0
-488 74 338 0
141 404 -363 0
-102 -226 202 0
290 -139 246 0
-413 82 -480 0
89 211 -361 0
260 35 -335 0
284 396 -479 0
83 -403 -112 0
248 -213 245 0
-73 -337 -126 0
-55 464 -98 0
-267 207 -216 0
-317 390 -96 0
-89 27 260 0
122 -3 409 0
361 -498 295 0
340 -236 -299 0
482 78 10 0
-136 19 -348 0
-186 -380 272 0
391 -218 362 0
-294 -443 89 0
95 464 -366 0
284 281 370 0
-211 298 -452 0
459 -29 -393 0
-375 205 102 0
-370 -326 -26 0
467 -54 97 0
288 -451 -118 0
-496 420 247 0
190 94 -343 0
-285 373 212 0
232 437 -332 0
-186 447 -74 0
40 -217 366 0
-482 -13 -107 0
30 466 383 0
-418 68 171 0
-61 282 468 0
-261 294 84 0
-202 312 -57 0
-496 48 344 0
-219 -500 210 0
-168 -392 -400 0
-403 315 -193 0
351 -488 -215 0
-278 347 -299 0
-406 -69 454 0
91 -239 -254 0
-366 -414 258 0
-268 386 48 0
-195 -1 -247 0
204 -125 -61 0
-167 -215 -438 0
-289 -99 -294 0
409 -442 241 0
-353 -123 292 0
-46 -367 52 0
413 267 162 0
-127 2 342 0
-449 -464 379 0
-331 -38 -481 0
-104 -336 -461 0
-255 287 353 0
450 368 -417 0
493 293 -410 0
-260 191 321 0
150 391 -75 0
137 334 -213 0
-242 -39 408 0
-160 183 131 0
-89 435 348 0
-189 172 428 0
-370 -69 -487 0
-270 -160 150 0
335 -490 387 0
-127 35 296 0
-169 322 -324 0
-221 117 339 0
371 446 -62 0
486 -490 465 0
-117 63 57 0
-33 399 -405 0
171 362 -4 0
-496 177 332 0
-221 -217 -201 0
346 119 258 0
-85 333 361 0
-302 164 -286 0
476 164 304 0
156 359 356 0
237 92 -139 0
352 -217 -206 0
177 291 -322 0
332 -424 -60 0
231 419 -430 0
401 -240 -467 0
-318 224 -370 0
268 -419 -477 0
-235 -424 -357 0
-93 427 -321 0
-190 241 -481 0
216 -261 120 0
479 29 -50 0
451 -157 137 0
179 -381 87 0
-91 2 -458 0
-137 449 459 0
240 402 -5 0
159 -116 -479 0
197 187 -310 0
-10 -490 377 0
314 18 389 0
-428 -420 -92 0
208 -294 314 0
-415 -55 258 0
436 -202 272 0
39 75 459 0
-229 111 102 0
482 -452 -41 0
-51 -469 -122 0
-43 186 -195 0
263 -19 99 0
33 -252 -130 0
394 371 -353 0
164 291 58 0
319 -205 -59 0
-384 -463 -494 0
480 -143 277 0
-163 -273 320 0
216 -388 203 0
223 -139 -227 0
-63 226 349 0
-396 350 -234 0
398 -372 167 0
471 296 -188 0
123 -81 345 0
423 277 30 0
-87 -461 79 0
-166 -463 387 0
212 -54 -66 0
-407 72 92 0
-107 447 -32 0
-82 213 -195 0
-93 -332 307 0
-95 -377 -222 0
-279 -176 -170 0
-138 -347 -374 0
-50 -1 -114 0
-312 -308 380 0
266 236 -241 0
-107 -496 -79 0
75 -189 -320 0
126 195 -344 0
-48 -235 195 0
-292 -440 -65 0
455 -410 21 0
-164 358 493 0
-177 266 219 0
-412 -247 -453 0
-89 -265 207 0
-59 -371 -472 0
-466 315 128 0
-192 -89 317 0
276 -441 268 0
378 -348 428 0
-206 54 365 0
102 -457 36 0
395 -311 376 0
207 29 -96 0
-133 199 -294 0
-433 167 420 0
331 -214 53 0
-377 -41 -277 0
-498 14 382 0
-397 -351 -181 0
-34 -235 -7 0
171 401 -207 0
89 -402 -273 0
-390 -165 -279 0
-458 -473 101 0
-454 68 458 0
32 359 -70 0
134 110 -169 0
445 442 -133 0
-463 -305 280 0
401 255 296 0
430 -152 358 0
236 -2 -193 0
66 -127 277 0
267 359 171 0
186 -313 -65 0
390 469 165 0
32 -363 373 0
-360 350 299 0
-82 350 -287 0
-296 364 453 0
-219 294 -409 0
136 -347 54 0
282 -311 -342 0
-355 40 242 0
-288 292 -324 0
-461 -448 -352 0
198 438 122 0
-149 338 390 0
245 275 -358 0
-331 314 201 0
104 455 -451 0
103 -124 289 0
78 -153 83 0
-169 275 -252 0
283 248 -427 0
31 368 27 0
10 -54 338 0
-60 -341 306 0
-56 323 36 0
276 -5 186 0
235 331 -412 0
-475 195 418 0
384 17 -308 0
-71 -237 -296 0
-103 234 -295 0
-433 334 41 0
232 -275 380 0
-277 288 457 0
158 78 269 0
468 133 251 0
242 -108 383 0
-333 64 -20 0
-202 -251 -485 0
-54 424 -404 0
403 -280 -116 0
-26 192 -35 0
-306 297 183 0
5 8 -221 0
-324 200 336 0
357 335 -126 0
21 410 49 0
106 256 136 0
-426 30 47 0
-178 -403 -412 0
-216 -203 341 0
237 345 -413 0
-110 371 41 0
96 41 23 0
-448 -495 48 0
-423 -360 113 0
219 -29 210 0
-245 -67 65 0
-20 146 38 0
-323 305 159 0
24 -158 -308 0
64 224 153 0
-438 394 264 0
-432 170 -71 0
222 128 278 0
-125 31 453 0
-220 -180 317 0
-381 -105 -277 0
129 -121 288 0
159 384 124 0
-285 -237 -133 0
86 -483 -229 0
164 -90 129 0
296 391 452 0
-265 495 410 0
-238 210 470 0
-401 162 97 0
135 -235 -476 0
498 -2 -448 0
463 178 173 0
-351 -15 3 0
-238 -38 -305 0
-453 -132 -310 0
455 433 -140 0
1 -86 55 0
354 420 389 0
125 -455 -485 0
-395 -256 368 0
-320 440 -351 0
-90 282 -156 0
-402 -63 245 0
152 338 -96 0
-29 336 495 0
408 472 200 0
-53 -94 90 0
-154 52 -216 0
-195 358 -344 0
311 -241 95 0
-105 -65 93 0
-61 308 247 0
307 123 436 0
-108 476 -480 0
-270 -383 39 0
265 -133 239 0
-118 249 444 0
-93 -68 -43 0
196 -452 -410 0
-43 485 89 0
-332 370 -20 0
-460 -32 52 0
-207 318 268 0
45 -151 459 0
118 -409 194 0
-342 164 445 0
-240 377 16 0
180 -446 403 0
105 -91 488 0
438 347 456 0
361 -82 -444 0
134 -382 187 0
362 -169 -294 0
294 10 489 0
-479 237 396 0
321 184 474 0
429 218 483 0
295 -144 377 0
236 234 -35 0
-340 248 -247 0
411 -77 476 0
350 -80 -33 0
-143 94 -356 0
-208 -378 -414 0
439 16 -124 0
213 464 14 0
-142 207 185 0
-276 -500 304 0
-147 294 358 0
-369 -146 -344 0
111 -11 252 0
460 -286 49 0
-355 -142 -364 0
-51 -114 -476 0
-499 -188 459 0
-149 53 -89 0
322 -333 206 0
448 266 205 0
-128 -290 -7 0
276 -378 -294 0
38 244 -297 0
-218 -404 384 0
-40 76 -195 0
-194 37 1 0
3 191 192 0
63 -264 -72 0
-472 10 204 0
185 173 363 0
386 -281 -414 0
-49 181 -417 0
298 -398 117 0
-468 -114 -28 0
-379 -336 63 0
-73 -308 232 0
321 398 -251 0
198 367 372 0
422 309 -54 0
-29 -461 -214 0
-71 255 452 0
478 -25 -468 0
-467 106 136 0
385 349 352 0
453 -101 53 0
74 72 491 0
-429 161 273 0
-184 -240 341 0
222 -377 -430 0
-105 78 -239 0
-68 -16 204 0
64 -158 386 0
-37 103 32 0
-7 -206 -74 0
-227 386 500 0
423 362 373 0
243 359 288 0
111 131 138 0
58 235 126 0
348 285 311 0
125 120 188 0
56 391 -200 0
-93 241 -294 0
-470 499 150 0
52 247 -166 0
290 11 323 0
-229 448 -111 0
-476 116 -499 0
-130 -103 337 0
-5 -135 -416 0
-336 125 -41 0
305 9 65 0
-80 -109 70 0
336 217 376 0
266 127 -348 0
366 135 -325 0
204 -435 -394 0
31 390 376 0
-137 -47 314 0
-431 163 474 0
57 -254 -164 0
460 126 496 0
307 -489 -396 0
92 -312 -137 0
-347 113 -301 0
462 183 -225 0
-499 415 98 0
-79 -110 35 0
-183 65 -60 0
388 459 -28 0
347 -131 -3 0
314 -388 132 0
-494 -404 57 0
-153 26 -41 0
198 -92 359 0
215 -443 -356 0
-275 14 -333 0
-53 -108 306 0
-322 -328 -187 0
480 459 435 0
241 -272 265 0
-237 -490 362 0
-246 -21 -12 0
-412 490 401 0
-385 118 217 0
167 124 -316 0
429 389 -109 0
-447 -295 351 0
100 303 302 0
-273 148 -486 0
-141 -188 463 0
-269 174 -395 0
433 38 -422 0
-290 -285 -432 0
-119 -311 -146 0
202 494 378 0
-455 -318 -443 0
-446 351 119 0
-403 -391 470 0
-89 -258 202 0
-435 497 -289 0
-443 -102 -264 0
-342 18 -491 0
481 139 129 0
-384 362 126 0
-161 224 29 0
434 458 397 0
-170 310 85 0
152 -110 -254 0
-234 -155 361 0
-165 144 429 0
164 450 76 0
-181 441 217 0
321 298 492 0
-422 28 -95 0
52 -412 -216 0
420 411 -275 0
-371 -26 -266 0
201 492 294 0
-80 362 -312 0
9 -150 -366 0
110 163 16 0
421 468 -451 0
-73 -206 -403 0
-491 499 -333 0
112 -477 -247 0
-92 190 410 0
416 -125 47 0
264 -304 -303 0
234 473 -422 0
-256 367 -442 0
-48 16 39 0
-7 -178 -488 0
-491 -301 -47 0
-220 203 -351 0
-87 397 133 0
483 486 359 0
-179 174 -147 0
123 -461 -225 0
-443 -345 26 0
492 285 231 0
418 -55 217 0
-448 191 131 0
-341 -420 385 0
462 461 138 0
-334 -384 -209 0
125 220 286 0
399 407 316 0
285 46 -244 0
344 -364 -176 0
312 -3 -177 0
-83 -190 198 0
-398 15 21 0
-480 -448 300 0
-425 -454 -471 0
-111 -73 194 0
-404 -87 -32 0
162 90 431 0
-406 9 444 0
199 367 408 0
485 136 -130 0
-168 422 126 0
98 -217 419 0
442 479 -166 0
-203 -233 -194 0
-8 -189 -383 0
324 239 -118 0
-44 -287 148 0
-231 -301 330 0
-67 -256 376 0
16 421 -478 0
481 435 43 0
-1 20 237 0
-21 -111 -231 0
444 -242 384 0
406 340 -268 0
-459 -86 377 0
-499 63 317 0
-291 115 230 0
39 -140 171 0
93 -203 168 0
-30 185 230 0
348 -205 -311 0
-177 463 -201 0
416 -491 180 0
-435 430 292 0
420 -363 -83 0
351 -40 431 0
-80 -336 -497 0
-383 377 149 0
-76 -186 461 0
-270 -275 393 0
-314 442 -74 0
-199 -63 -460 0
-15 -343 242 0
-394 -204 99 0
213 -114 -475 0
-335 274 -343 0
41 194 195 0
459 -14 5 0
-40 -116 -319 0
-324 -331 11 0
-316 -122 -200 0
23 278 -279 0
-492 67 488 0
-50 332 -387 0
119 -494 63 0
395 56 -383 0
103 267 324 0
-65 -356 334 0
-30 -132 -160 0
215 347 173 0
241 72 311 0
102 -230 -134 0
-377 118 155 0
-434 229 365 0
356 267 -11 0
-29 393 -384 0
-282 -289 -417 0
-446 1 64 0
24 -157 386 0
83 -85 437 0
195 -472 -133 0
-216 401 -419 0
-395 266 424 0
-35 -444 88 0
411 -35 409 0
108 -253 -349 0
169 -24 -124 0
249 422 -127 0
-247 238 182 0
-408 -103 370 0
289 -118 325 0
-163 196 24 0
-282 479 -279 0
-430 392 -84 0
487 -306 -471 0
285 -158 31 0
-455 -303 218 0
227 111 377 0
370 196 -453 0
-431 377 27 0
-288 175 -339 0
267 -365 9 0
364 381 -346 0
-123 127 467 0
287 -279 -340 0
124 351 58 0
-297 304 -256 0
-47 299 393 0
-66 -311 -344 0
-102 383 -371 0
36 147 -307 0
-182 343 -333 0
-82 -113 294 0
-168 164 -31 0
450 281 430 0
-136 360 -69 0
-233 -385 -207 0
256 331 -390 0
348 389 -251 0
-33 286 211 0
-97 420 -191 0
-271 -355 -312 0
213 256 -107 0
-111 -57 -4 0
359 -330 -348 0
106 -8 -42 0
482 -351 75 0
37 59 187 0
-385 166 129 0
-406 -145 -137 0
446 -311 -187 0
-200 114 -466 0
18 410 241 0
160 343 -360 0
-43 99 -12 0
-129 -208 440 0
152 -173 292 0
-115 488 -334 0
-433 377 -44 0
465 -340 287 0
440 165 -349 0
-277 409 -101 0
-39 -267 -1 0
-428 11 276 0
52 -222 -463 0
197 -174 360 0
-493 48 -333 0
-326 447 16 0
-4 404 -435 0
-451 411 -91 0
42 -176 -169 0
383 306 -440 0
-47 -13 40 0
13 -5 -332 0
-145 28 189 0
-69 -82 98 0
487 404 18 0
-106 335 -102 0
-216 277 212 0
37 -105 -69 0
-490 53 416 0
445 -111 -311 0
-230 378 160 0
498 -426 411 0
167 399 489 0
-370 -240 -224 0
-251 -79 396 0
-258 68 -457 0
-214 -85 -470 0
243 412 442 0
317 -192 -18 0
-449 310 27 0
-348 -137 -31 0
337 103 -57 0
-223 -38 464 0
481 479 454 0
129 -317 378 0
184 -332 321 0
279 -107 -75 0
-316 251 80 0
483 -162 348 0
276 -145 90 0
-399 -164 148 0
78 324 265 0
-299 479 51 0
169 131 412 0
300 304 140 0
-12 379 398 0
-315 471 -386 0
411 -83 -193 0
-196 234 -220 0
352 -246 331 0
-476 404 265 0
191 -210 -335 0
-413 284 -45 0
316 -218 12 0
-340 447 -352 0
-196 64 145 0
-111 -52 59 0
-341 336 352 0
72 81 88 0
-45 -294 273 0
-22 433 -240 0
213 365 255 0
-53 256 368 0
169 250 93 0
265 225 409 0
9 -99 497 0
-109 -245 256 0
224 329 -315 0
267 -310 -24 0
470 152 -195 0
36 -4 -337 0
-101 353 435 0
-125 199 174 0
-307 188 -310 0
113 -43 457 0
-467 175 421 0
11 24 -75 0
446 149 -473 0
449 140 208 0
373 -412 150 0
-355 -1 -269 0
103 117 63 0
-149 136 -313 0
28 -326 305 0
-162 244 188 0
109 354 72 0
140 51 85 0
115 356 477 0
-26 -5 29 0
-231 -261 464 0
200 416 -391 0
-232 273 341 0
83 -461 276 0
-377 21 -291 0
-148 244 -169 0
-204 284 -11 0
-276 -450 -410 0
-253 28 89 0
-118 466 1 0
152 414 270 0
230 -498 243 0
-138 -17 119 0
92 325 409 0
-252 -226 237 0
-140 491 379 0
-97 304 -307 0
476 36 276 0
159 172 426 0
187 291 77 0
300 -93 389 0
246 -339 410 0
-40 -165 14 0
363 235 146 0
-117 -144 -155 0
325 -218 -457 0
136 320 25 0
486 207 165 0
218 380 425 0
75 -40 -329 0
309 351 -175 0
-46 201 3 0
-348 383 427 0
-267 -420 472 0
-144 171 275 0
-233 -312 217 0
192 113 57 0
113 72 203 0
-226 -150 57 0
-416 378 -388 0
175 -384 -204 0
262 -463 -484 0
248 16 14 0
-48 -192 -159 0
-192 293 17 0
30 -463 -366 0
-99 343 -472 0
190 -341 -487 0
36 79 262 0
453 -333 -87 0
-290 478 197 0
-314 57 319 0
-119 -140 223 0
-199 -238 -234 0
294 185 -192 0
433 -198 348 0
-14 -100 474 0
223 -346 280 0
401 -405 -161 0
266 -88 -430 0
-470 -499 212 0
-160 111 -165 0
-185 -188 -117 0
489 -174 279 0
119 -316 163 0
410 70 62 0
-32 446 474 0
124 -305 444 0
265 495 134 0
-158 431 9 0
378 48 50 0
313 196 -162 0
-95 219 304 0
-393 104 345 0
-348 -43 86 0
309 -204 5 0
-443 292 -384 0
149 -380 -401 0
393 -307 271 0
-34 -183 -27 0
45 -448 -349 0
-429 -280 -305 0
-137 -107 -447 0
302 426 -411 0
346 -409 466 0
-325 296 476 0
-401 -172 -178 0
-326 -75 -338 0
-218 379 16 0
-231 337 353 0
431 422 191 0
-117 387 363 0
-212 97 41 0
390 -253 -476 0
362 -41 -178 0
86 262 38 0
-255 -70 -488 0
-110 -295 -122 0
442 462 -81 0
-76 -42 216 0
435 467 101 0
-465 -411 361 0
-281 -411 102 0
-112 97 150 0
-40 -331 -309 0
-395 -458 -343 0
254 319 -153 0
-373 -12 251 0
53 206 -62 0
-131 294 -375 0
63 249 372 0
168 77 185 0
469 -401 383 0
240 333 128 0
372 -280 322 0
-191 -29 110 0
-55 412 -214 0
90 261 340 0
453 -416 79 0
-3 116 442 0
254 449 174 0
-153 215 209 0
-130 372 -382 0
-386 -49 -167 0
-486 281 -197 0
-213 -448 -219 0
-206 223 -68 0
-140 133 -227 0
-120 -439 2 0
-25 -68 -347 0
-278 -415 329 0
210 -73 40 0
-42 -322 49 0
-117 -104 -282 0
-271 -299 -41 0
-65 362 94 0
377 -200 103 0
-423 -457 222 0
133 -256 151 0
-234 -390 369 0
312 211 -495 0
-335 309 220 0
242 -149 250 0
-307 419 101 0
-448 213 -495 0
-125 296 -104 0
468 -118 387 0
-107 -353 495 0
-56 -4 322 0
-311 116 159 0
203 -310 101 0
36 167 122 0
433 282 -61 0
-223 31 -100 0
348 -489 336 0
490 -212 108 0
-432 -477 328 0
366 494 -447 0
-84 247 262 0
408 7 -139 0
390 141 287 0
262 407 499 0
165 368 -121 0
132 17 418 0
-273 260 473 0
482 -325 -309 0
-400 -99 -409 0
-178 -196 -166 0
-421 181 318 0
-228 -84 -162 0
118 292 281 0
226 108 351 0
-190 -438 -252 0
-92 276 351 0
196 -454 388 0
-284 327 301 0
59 -139 -98 0
92 212 -226 0
222 282 199 0
-42 263 470 0
-134 -308 -482 0
338 -101 -253 0
-369 -180 381 0
81 321 -47 0
-287 431 -176 0
230 -421 10 0
407 -365 233 0
497 -280 -144 0
-463 -485 68 0
