p cnf 1000 3450
429 684 -777 0
43 816 20 0
746 -23 666 0
-294 293 -328 0
-83 234 -927 0
-151 448 632 0
129 -766 921 0
-720 777 -69 0
-771 -344 -772 0
-992 817 123 0
-928 -982 -384 0
-343 -297 -134 0
-910 -137 639 0
-880 -810 855 0
-868 -73 -765 0
-823 756 618 0
914 55 89 0
-939 -317 -290 0
-296 -698 217 0
998 243 -893 0
566 722 400 0
591 -20 -31 0
-319 -220 945 0
-309 -889 148 0
3 211 726 0
290 499 555 0
660 -692 192 0
325 -866 500 0
-678 474 -944 0
-201 -763 920 0
-925 303 -268 0
-261 -919 226 0
-716 -830 12 0
-217 -646 806 0
-166 -275 -114 0
294 795 404 0
-311 -62 -4 0
742 -475 992 0
-196 506 -411 0
719 645 -43 0
-839 962 532 0
-241 258 309 0
-229 -517 426 0
252 865 869 0
293 374 32 0
-953 -518 -461 0
221 -508 -315 0
59 554 113 0
480 -425 -979 0
-775 252 915 0
545 787 -755 0
-302 388 616 0
-257 -255 879 0
936 456 -661 0
685 385 499 0
-973 -342 338 0
-709 98 659 0
110 521 -28 0
-24 -117 590 0
-53 -878 761 0
858 -26 -860 0
-560 921 -500 0
313 746 -229 0
325 -461 551 0
-253 954 171 0
-584 -15 -817 0
217 -905 25 0
-453 -550 -896 0
555 -661 734 0
-108 510 -260 0
817 -598 173 0
195 172 -492 0
162 223 810 0
-775 802 369 0
-606 115 878 0
-8 -322 246 0
-75 -960 -771 0
-417 -317 -540 0
68 -130 367 0
-497 -732 918 0
938 725 213 0
711 775 323 0
-942 55 789 0
456 -755 378 0
-129 762 845 0
133 327 406 0
-290 -558 -411 0
658 -9 183 0
241 -823 -44 0
300 806 496 0
-174 598 518 0
793 194 360 0
711 71 -58 0
383 366 787 0
-185 -6 -411 0
828 149 -556 0
39 -10 -849 0
655 -475 829 0
843 -144 -927 0
419 87 80 0
-771 953 -987 0
376 -624 8 0
-120 -516 211 0
-334 -110 344 0
373 883 987 0
-778 -53 -46 0
-160 -188 868 0
-791 -368 -842 0
-299 -28 -441 0
688 -574 787 0
-472 -308 897 0
-484 838 -771 0
812 -260 -648 0
-428 776 -31 0
-187 -147 143 0
209 948 -132 0
-889 -442 930 0
471 271 -578 0
56 392 721 0
-424 768 526 0
-530 -533 -788 0
-145 -956 809 0
943 607 38 0
792 719 -982 0
-570 903 -65 0
-622 -350 532 0
665 -154 229 0
454 -993 -852 0
-20 -797 99 0
-320 -634 -429 0
-463 -1000 762 0
-703 -643 -99 0
509 -601 -655 0
-308 36 -495 0
353 -3 -393 0
-193 -365 -618 0
-506 -459 990 0
417 -539 155 0
116 -901 -999 0
-987 -439 601 0
-614 737 855 0
567 727 -634 0
82 -335 842 0
-157 396 486 0
-707 -409 -37 0
889 615 222 0
-844 791 -908 0
-935 56 176 0
569 980 333 0
-338 -440 -864 0
613 -835 -630 0
-171 927 912 0
466 645 359 0
533 -74 116 0
-719 739 -160 0
-649 272 -536 0
469 -847 111 0
-384 -205 -406 0
-318 -548 -970 0
131 -708 47 0
398 470 139 0
623 503 278 0
-641 861 472 0
306 949 -905 0
983 477 -274 0
-424 323 352 0
-942 801 504 0
200 103 -740 0
-864 -422 -391 0
-807 -730 -434 0
-559 249 -971 0
438 -488 29 0
-569 714 -604 0
-608 -110 124 0
-685 -260 -377 0
-134 -66 -806 0
411 496 517 0
816 444 -69 0
-43 846 258 0
-454 987 187 0
183 -387 -477 0
904 -802 -127 0
293 -744 -301 0
-396 -432 69 0
-17 523 -769 0
-52 511 333 0
-468 772 70 0
-794 714 831 0
-664 64 -653 0
-590 190 163 0
-168 -50 564 0
-11 -722 669 0
593 143 -374 0
264 644 -472 0
-987 -131 -811 0
-495 322 -872 0
1 -890 79 0
741 139 -10 0
962 -509 -247 0
-17 -784 807 0
-427 -311 933 0
812 154 -722 0
-296 447 -594 0
297 520 -226 0
976 -103 531 0
-60 -850 218 0
489 -494 -242 0
306 43 159 0
-837 -143 755 0
-497 -302 477 0
11 85 -122 0
-400 -517 -328 0
-7 125 544 0
778 -444 754 0
-329 694 957 0
910 359 -454 0
284 -743 -335 0
519 407 624 0
184 492 472 0
-770 915 -969 0
15 -773 -113 0
-714 241 467 0
428 -729 -33 0
-439 -831 -277 0
-388 374 -3 0
32 10 56 0
-987 -875 331 0
-769 -337 35 0
707 118 -505 0
-54 -378 -231 0
374 -50 193 0
311 216 32 0
-218 912 -877 0
-1 74 413 0
-855 -127 587 0
-633 -353 -993 0
188 -274 369 0
970 65 903 0
-119 480 -243 0
-414 629 731 0
-666 68 -65 0
-723 92 -781 0
922 417 649 0
-364 -274 -303 0
-50 763 -730 0
520 722 -658 0
118 823 -459 0
-443 974 -418 0
-187 -21 574 0
-920 -822 985 0
97 399 -208 0
139 19 -224 0
301 2 103 0
-819 -423 -149 0
-506 113 538 0
191 -447 788 0
-223 -364 4 0
252 72 -600 0
887 43 744 0
702 207 629 0
326 751 860 0
-570 400 -116 0
-332 311 -871 0
821 -223 188 0
-422 743 -66 0
832 -750 945 0
-54 577 -940 0
-626 691 251 0
-687 76 -209 0
-492 -747 -357 0
-354 519 107 0
-646 254 -833 0
-306 566 509 0
-503 574 153 0
-692 83 572 0
770 156 801 0
-960 875 818 0
-843 62 631 0
349 477 253 0
208 -493 -134 0
-953 -346 693 0
228 251 -694 0
742 101 71 0
-14 975 -507 0
323 625 655 0
694 -245 -422 0
517 768 -541 0
-97 -251 461 0
790 -599 22 0
946 386 109 0
-445 -203 -875 0
-923 -50 -485 0
781 -170 -128 0
-51 233 255 0
86 853 696 0
-393 385 421 0
25 -376 -70 0
-605 392 -573 0
732 765 936 0
875 728 -792 0
477 963 179 0
-689 859 659 0
-26 -985 376 0
692 993 75 0
254 253 -309 0
36 469 248 0
668 -683 541 0
-667 -644 -687 0
177 -287 638 0
-101 -876 111 0
704 -913 -142 0
-701 -88 10 0
-412 670 -15 0
-756 963 -903 0
-557 289 433 0
-671 425 -275 0
305 71 632 0
201 886 590 0
353 -616 -209 0
-380 26 595 0
-331 642 -330 0
-7 984 -540 0
335 -181 -789 0
310 -288 -861 0
518 -208 -187 0
977 950 390 0
514 905 -268 0
528 -203 -244 0
694 730 558 0
959 594 580 0
502 546 -716 0
-202 564 -611 0
61 -955 191 0
-133 653 50 0
683 853 -522 0
-39 -499 -685 0
-57 149 605 0
508 -488 -717 0
263 87 -80 0
-790 684 950 0
644 844 -518 0
781 991 -419 0
-732 -373 -557 0
-704 -392 -316 0
-523 854 890 0
-87 484 -421 0
458 -981 750 0
702 -552 991 0
-108 -368 -429 0
355 477 478 0
705 -200 -29 0
248 464 -754 0
674 -319 -784 0
514 -934 -995 0
-901 772 8 0
557 -419 -913 0
129 -982 -16 0
474 -344 943 0
-39 461 866 0
334 -184 -23 0
-569 986 -761 0
783 -522 -461 0
-44 85 -137 0
163 236 -745 0
-62 -711 790 0
-186 -423 289 0
-869 -503 316 0
-537 -886 -431 0
-329 -572 260 0
-144 -593 -794 0
-374 -868 -770 0
956 -897 -89 0
342 891 -620 0
939 504 525 0
226 -338 663 0
-632 463 892 0
-469 635 233 0
849 -963 581 0
-48 732 633 0
786 -678 -609 0
166 307 484 0
649 -153 -963 0
955 -3 899 0
-784 -662 842 0
-471 -152 32 0
812 -19 -232 0
-834 719 493 0
-317 -892 410 0
-670 929 -968 0
-964 173 41 0
456 286 -949 0
727 655 -458 0
565 -609 323 0
700 -218 -936 0
637 -945 324 0
917 957 775 0
-971 -239 -20 0
-599 180 483 0
107 -694 436 0
-745 574 603 0
-546 204 543 0
59 506 -320 0
-873 660 532 0
61 333 -997 0
258 991 951 0
-258 865 825 0
744 970 432 0
-782 -269 217 0
-669 -936 -900 0
-570 -447 946 0
339 270 242 0
-127 -346 219 0
-895 670 315 0
-92 -165 -411 0
-59 636 218 0
-436 -978 242 0
-198 -422 173 0
81 294 -758 0
-832 -56 830 0
556 972 452 0
-512 51 762 0
-921 -800 -237 0
-470 -728 -732 0
340 820 -87 0
97 -448 -631 0
-644 -955 -630 0
49 668 780 0
-807 646 659 0
-497 -396 629 0
331 -355 -716 0
475 861 -363 0
-989 -586 -823 0
-269 35 -911 0
619 192 -729 0
-599 -759 -195 0
-787 -516 872 0
651 360 226 0
44 -759 213 0
-433 -410 217 0
-213 309 802 0
266 545 623 0
466 -635 -780 0
-375 -435 -483 0
979 -288 21 0
-808 -417 393 0
-318 -389 965 0
-910 -303 442 0
-485 -837 803 0
-985 -268 77 0
-245 557 -784 0
-415 523 -901 0
339 -994 219 0
-232 873 -964 0
-355 -537 -241 0
-555 509 -942 0
-247 277 -900 0
-28 529 -367 0
102 819 373 0
-763 196 793 0
-164 -741 -66 0
-431 -80 499 0
918 420 375 0
-172 -497 861 0
196 -181 -851 0
-96 -348 199 0
780 -810 572 0
-808 714 -339 0
556 881 -852 0
636 840 762 0
892 509 -850 0
622 -683 -704 0
-733 42 -697 0
895 848 750 0
-100 582 183 0
-916 741 146 0
-105 -132 -683 0
310 864 -974 0
752 -589 -666 0
146 77 -929 0
-795 224 -730 0
953 -681 -965 0
513 432 650 0
-833 -297 941 0
-414 -373 294 0
363 -965 -149 0
-683 827 619 0
151 34 577 0
-113 -219 -747 0
-382 677 92 0
256 939 986 0
-12 -69 -636 0
-814 86 593 0
-615 432 270 0
-611 -231 818 0
754 -631 -574 0
-689 550 67 0
-889 -739 162 0
502 -472 -98 0
981 643 323 0
-902 -212 -55 0
-861 460 -785 0
602 -120 868 0
-840 -103 -810 0
17 795 965 0
271 460 360 0
-691 -984 -863 0
-375 -987 420 0
481 -890 484 0
-147 -352 158 0
933 -842 458 0
-559 -96 -38 0
-319 373 147 0
-610 239 -413 0
375 559 882 0
-236 776 76 0
917 -326 -374 0
-707 44 310 0
799 480 -220 0
-244 -686 -711 0
-829 -150 -103 0
-237 -515 80 0
955 -25 -720 0
-43 559 -471 0
502 -793 263 0
362 797 980 0
-146 885 -993 0
417 -949 -418 0
385 905 413 0
433 -359 439 0
-618 923 -510 0
817 -748 -392 0
-657 167 907 0
-959 -794 -109 0
4 315 100 0
-181 -149 -401 0
631 -316 -752 0
-504 -267 39 0
-291 -624 -158 0
-612 382 -991 0
-373 -281 993 0
734 -182 305 0
177 -374 775 0
816 450 949 0
647 413 -748 0
36 277 -617 0
360 664 327 0
-814 -524 -942 0
925 299 416 0
778 -356 -473 0
841 343 -711 0
-237 -530 586 0
39 -199 -1 0
-317 795 -89 0
562 -801 779 0
472 -47 965 0
-350 14 598 0
-491 585 376 0
-111 895 -187 0
-721 97 626 0
689 -788 211 0
-159 -738 -512 0
546 259 498 0
-57 -783 721 0
-88 988 -329 0
335 -925 46 0
-461 956 446 0
37 617 -391 0
-472 -505 192 0
-676 964 -883 0
853 -321 155 0
-685 -742 490 0
-998 -582 871 0
573 773 726 0
236 -798 711 0
-717 794 555 0
302 170 -419 0
-886 -278 -65 0
199 -523 328 0
664 -306 61 0
-840 190 -850 0
907 631 621 0
330 719 899 0
586 -241 -679 0
-796 368 412 0
-552 236 730 0
-613 989 -336 0
796 782 840 0
763 -517 -3 0
601 570 492 0
385 -963 -480 0
393 -983 231 0
-671 193 -463 0
-562 -457 770 0
-943 -105 495 0
779 -86 198 0
-489 122 997 0
396 -337 597 0
-258 -490 776 0
326 -242 -975 0
-838 446 -984 0
683 791 343 0
800 803 -615 0
892 374 250 0
172 911 -92 0
-978 -435 -285 0
-766 887 -357 0
-505 -805 -484 0
535 -908 -553 0
-475 -132 978 0
807 463 714 0
229 333 126 0
-821 -321 -106 0
-46 -834 485 0
-467 738 956 0
736 -662 608 0
-492 -894 -406 0
-353 -342 -16 0
874 129 184 0
-332 -937 258 0
928 -756 -560 0
562 -951 -992 0
-360 328 18 0
-751 -287 -361 0
-982 789 -20 0
-176 -3 -909 0
-990 -681 822 0
639 -570 -633 0
-355 59 -342 0
632 381 -667 0
-136 -486 -863 0
-945 -332 -770 0
-121 567 -12 0
-904 -766 -447 0
34 -64 775 0
197 -893 54 0
329 30 961 0
-476 -474 607 0
924 -386 584 0
715 -294 208 0
532 447 -84 0
-537 -351 644 0
984 -668 -144 0
287 683 -800 0
-22 -762 -728 0
-71 -897 278 0
-815 986 -630 0
-759 -930 -922 0
-357 -986 -429 0
-593 -2 251 0
-50 830 587 0
110 -671 -85 0
184 538 417 0
547 -444 -626 0
699 265 -932 0
693 628 -100 0
550 649 -372 0
841 335 602 0
-55 -137 -30 0
-794 700 -472 0
-525 235 132 0
712 -836 830 0
570 -44 -977 0
363 -490 -801 0
-224 851 244 0
-390 547 -401 0
-418 -119 -17 0
666 -162 89 0
209 -924 -340 0
-442 347 574 0
-629 -89 981 0
987 -787 857 0
-712 292 -871 0
-719 115 -19 0
889 607 316 0
391 -580 -345 0
-53 331 764 0
84 -613 425 0
389 -872 881 0
-193 221 -875 0
-314 -129 368 0
348 -708 -202 0
-838 614 -109 0
834 -258 -757 0
917 187 -86 0
302 -627 511 0
526 -510 19 0
351 -503 -893 0
143 -754 806 0
-535 611 -969 0
944 696 190 0
-930 423 489 0
-181 591 398 0
-505 839 67 0
-881 -421 -369 0
-353 -850 182 0
-583 876 704 0
705 115 -980 0
-368 455 204 0
459 626 265 0
-796 -252 -192 0
215 636 513 0
970 -69 384 0
354 52 68 0
-224 -523 -129 0
-182 41 -8 0
-515 26 -307 0
-19 767 -480 0
-10 -461 931 0
-742 -437 -288 0
666 419 176 0
112 31 -406 0
-899 991 892 0
905 -405 406 0
-494 -781 -83 0
277 -450 -416 0
-686 -4 -389 0
683 650 -265 0
-840 1000 670 0
801 892 844 0
-643 -204 689 0
683 -142 -510 0
-154 -708 667 0
-698 -932 725 0
-244 -104 -932 0
287 57 979 0
-977 570 114 0
960 -106 385 0
-772 979 -408 0
692 -264 -792 0
-421 904 782 0
-461 -316 -991 0
-347 574 287 0
-834 467 -48 0
-873 -477 -516 0
851 628 -810 0
499 412 -294 0
-224 65 -864 0
597 63 -454 0
-644 -498 443 0
-770 -104 868 0
45 698 735 0
124 -524 -901 0
-116 -19 237 0
-427 95 -938 0
-7 557 -260 0
-103 -803 209 0
394 -595 875 0
-185 461 105 0
406 -350 -614 0
-334 789 169 0
815 908 -407 0
-323 -449 930 0
8 795 668 0
748 434 -819 0
75 191 -479 0
303 988 686 0
-629 766 -528 0
810 -290 -957 0
-722 -563 82 0
-967 -113 -932 0
-144 426 -627 0
-414 -169 -108 0
22 -660 202 0
-557 953 -525 0
-765 -443 735 0
920 -173 340 0
203 -245 -36 0
133 694 788 0
256 94 230 0
180 225 637 0
-82 559 304 0
-303 139 122 0
-434 584 158 0
268 -39 907 0
512 955 -106 0
925 390 -208 0
152 34 -904 0
599 -125 774 0
417 377 789 0
29 -919 -228 0
847 266 69 0
-896 666 285 0
-906 148 -156 0
463 -644 912 0
-324 29 396 0
-184 -774 -560 0
-850 203 -806 0
-320 752 859 0
562 -604 -257 0
-717 42 -586 0
-974 -569 8 0
-303 197 868 0
147 -129 -160 0
-887 -569 918 0
-533 -977 -780 0
-555 -532 -521 0
941 -266 50 0
-569 788 465 0
-898 -786 480 0
341 48 249 0
-792 -715 -974 0
-630 892 -874 0
67 673 878 0
341 -87 -64 0
-546 -670 160 0
-50 63 -750 0
792 486 640 0
436 743 -905 0
157 -405 738 0
660 567 -155 0
-759 -291 531 0
-701 -622 -364 0
-909 -844 -871 0
744 711 401 0
-153 366 -699 0
-672 -942 -218 0
581 894 833 0
768 -159 963 0
-183 666 948 0
169 -187 639 0
-467 -701 933 0
-84 638 572 0
-470 -57 -372 0
966 -929 264 0
-469 -656 216 0
-233 -666 231 0
-395 245 946 0
295 653 215 0
-312 -363 679 0
-65 -147 364 0
938 -441 52 0
-735 -305 340 0
-370 649 422 0
985 783 -377 0
808 -425 -901 0
-366 -384 133 0
-142 721 378 0
-964 -913 -430 0
201 528 12 0
-153 -119 895 0
-358 111 797 0
-852 497 -414 0
39 -146 634 0
990 855 502 0
-189 822 452 0
-138 -281 953 0
103 331 105 0
401 482 -388 0
-77 415 -861 0
-172 102 136 0
-486 -280 857 0
211 -492 715 0
637 562 -264 0
702 -446 404 0
-211 -45 -114 0
-373 -674 -532 0
19 324 -573 0
427 -175 -603 0
-480 -27 -678 0
-442 769 119 0
438 926 52 0
20 -290 396 0
-227 33 -812 0
77 918 915 0
-565 690 -388 0
817 682 943 0
-811 592 840 0
943 501 -662 0
-588 -984 257 0
234 -909 986 0
-323 139 733 0
-240 -161 856 0
-710 -592 -32 0
473 334 636 0
155 -743 -362 0
433 -713 -443 0
-12 119 -542 0
79 -155 239 0
-641 330 -549 0
675 733 -778 0
-307 -956 -296 0
322 520 -985 0
295 -853 147 0
140 -599 -259 0
53 476 337 0
-84 317 347 0
-114 487 623 0
-228 128 986 0
-447 -796 -94 0
544 -892 826 0
474 -579 -149 0
-980 620 701 0
81 -122 261 0
268 190 -22 0
804 -694 -14 0
-507 -470 991 0
872 -703 224 0
-49 362 -664 0
837 632 -684 0
-212 873 -444 0
786 -771 75 0
-274 45 46 0
-560 -676 453 0
861 -908 -42 0
-713 10 -618 0
131 56 334 0
-421 486 878 0
470 735 -801 0
-433 122 -746 0
943 796 -458 0
886 542 -92 0
110 337 82 0
705 141 214 0
10 305 817 0
-278 624 80 0
50 -631 316 0
468 -183 941 0
951 -682 -931 0
-603 -929 -828 0
663 -423 -825 0
-235 754 289 0
-73 -545 627 0
106 954 661 0
202 -924 -330 0
52 700 326 0
316 -140 -279 0
813 180 -986 0
-756 895 -987 0
-495 443 503 0
-570 223 82 0
-860 -724 -81 0
-542 -221 -969 0
-212 830 -650 0
311 -235 119 0
331 -117 -367 0
-229 -512 173 0
-76 111 767 0
965 767 690 0
917 138 -605 0
-368 -775 -924 0
525 128 545 0
845 -239 294 0
-866 789 -23 0
-351 342 164 0
-603 741 526 0
-75 279 -145 0
-990 -5 -289 0
-61 328 309 0
44 854 -548 0
176 -378 379 0
349 99 -27 0
969 -412 -787 0
-802 689 -645 0
-231 -213 645 0
-41 435 154 0
257 475 837 0
536 282 695 0
106 191 643 0
511 -901 780 0
-58 -646 589 0
-890 -41 -800 0
356 258 -127 0
-791 -100 21 0
-933 -19 100 0
765 -103 -841 0
449 -269 -845 0
-304 974 898 0
68 -883 -118 0
335 -672 629 0
582 716 999 0
-275 -333 848 0
294 -51 -314 0
-289 -297 223 0
-990 -101 256 0
277 823 -792 0
500 903 813 0
799 134 804 0
-844 -955 102 0
-235 136 430 0
-358 -184 333 0
-478 -123 3 0
-133 -836 732 0
-329 -91 604 0
-735 -22 -581 0
-659 -121 -859 0
-158 465 -278 0
214 800 862 0
-371 -390 546 0
715 930 670 0
268 392 -287 0
-13 -451 129 0
456 -375 622 0
-622 81 -610 0
-814 541 -246 0
343 -917 -886 0
-692 -195 305 0
740 -427 401 0
-520 -235 635 0
570 935 258 0
358 112 321 0
-98 82 351 0
459 154 500 0
723 -722 680 0
-677 -160 66 0
-512 649 75 0
631 -99 751 0
-62 615 -505 0
336 928 422 0
587 -673 294 0
-12 -87 124 0
-676 -973 42 0
-742 561 734 0
-530 -804 331 0
34 -805 658 0
-637 70 590 0
-42 946 -139 0
-82 963 -525 0
-513 -625 297 0
848 138 -189 0
-653 822 492 0
345 -798 564 0
350 -198 -709 0
-267 -153 570 0
-267 -682 744 0
669 859 -905 0
532 944 -557 0
-26 -690 872 0
-55 63 -604 0
231 984 387 0
611 -12 795 0
-866 693 52 0
-962 -404 253 0
-733 -981 -695 0
963 -259 317 0
596 587 -150 0
887 -759 465 0
684 281 -1 0
-345 -907 -474 0
-914 586 -48 0
169 -288 506 0
622 48 -160 0
-444 883 -628 0
41 825 584 0
-515 -154 628 0
8 48 50 0
-724 -827 -621 0
607 -534 -793 0
96 -137 -970 0
756 952 417 0
-697 420 644 0
851 -483 -935 0
761 -313 -670 0
-10 -903 -396 0
-202 590 12 0
-618 -333 385 0
-145 -101 -541 0
891 -633 170 0
236 -927 741 0
-372 -21 -132 0
-115 801 -332 0
-786 13 -170 0
17 941 47 0
121 134 -655 0
-650 301 327 0
738 -172 -106 0
-310 155 558 0
588 -690 -192 0
262 -78 450 0
-67 -837 -368 0
-825 374 761 0
874 269 182 0
-999 324 -600 0
815 -346 423 0
808 792 825 0
604 -923 -70 0
554 56 -489 0
-249 -458 284 0
-183 -436 4 0
-924 368 647 0
256 -19 653 0
437 903 -239 0
320 -218 223 0
-468 519 -627 0
-20 -243 -903 0
-723 -623 -75 0
-974 -657 981 0
-369 325 -341 0
-129 -327 28 0
252 317 211 0
-180 -682 -703 0
-353 -381 -479 0
571 233 877 0
-395 -466 -406 0
-48 -593 225 0
-556 -825 -533 0
3 -103 -935 0
-349 -424 -701 0
105 -617 -85 0
-237 862 334 0
-611 442 -439 0
925 -103 517 0
-640 -648 680 0
259 823 923 0
827 -267 538 0
125 -481 879 0
-761 -10 -107 0
-192 281 -445 0
94 -603 308 0
-219 350 -145 0
-704 -877 129 0
-859 -144 -480 0
504 183 108 0
-88 -402 -155 0
-470 -581 -576 0
160 -727 -911 0
-631 -754 847 0
815 -550 385 0
990 -794 852 0
-429 318 -984 0
-471 -332 -592 0
-390 240 -567 0
-373 295 836 0
-63 335 608 0
-107 -47 684 0
-94 -279 -525 0
-663 -381 -529 0
885 -387 509 0
-25 543 511 0
-204 -371 -141 0
-665 565 -341 0
242 -151 -88 0
-58 -380 109 0
1 797 686 0
809 -921 -447 0
382 361 -258 0
-873 5 584 0
-45 -91 -769 0
963 -261 -222 0
-717 338 891 0
600 71 -40 0
-408 977 42 0
918 231 806 0
236 818 24 0
-623 -726 -45 0
-675 -415 -999 0
-291 -371 -281 0
-285 544 846 0
-43 815 781 0
909 -272 790 0
810 190 -463 0
920 -208 -62 0
114 -841 233 0
635 -465 -293 0
483 43 148 0
671 -482 -824 0
48 -71 -441 0
434 985 311 0
-173 451 -320 0
616 148 -640 0
245 486 -56 0
863 -997 -240 0
-965 -922 -501 0
-209 924 460 0
-924 442 96 0
-387 -364 -466 0
-132 670 -656 0
584 -140 -87 0
187 -535 -653 0
866 -505 -484 0
24 951 173 0
-905 619 -97 0
-611 50 -521 0
801 751 438 0
-446 -505 888 0
-393 -814 -337 0
330 -922 -449 0
523 -170 89 0
76 450 599 0
-138 -737 -339 0
420 41 -938 0
-81 -830 511 0
-816 -887 210 0
-191 -89 989 0
-225 -506 894 0
104 115 825 0
-365 -219 -975 0
945 332 -576 0
162 588 -772 0
271 851 -758 0
875 93 527 0
921 -133 -958 0
-65 -875 -112 0
426 -88 -865 0
-634 37 973 0
740 -730 -994 0
890 -260 918 0
-15 -415 -92 0
148 -690 -233 0
-149 669 584 0
-451 -390 -203 0
-589 965 -64 0
-541 -209 -154 0
-884 -798 983 0
-220 -113 300 0
-666 175 609 0
125 566 -819 0
856 162 -545 0
386 501 -728 0
447 882 -456 0
-658 -609 -194 0
-197 766 284 0
824 395 -147 0
-270 799 -616 0
-314 -139 -538 0
919 -924 116 0
-920 -710 -840 0
486 439 6 0
250 952 652 0
129 -640 -724 0
-371 42 -257 0
-602 -586 -32 0
818 321 100 0
-548 658 -631 0
-739 -394 616 0
-638 -806 -97 0
-990 -728 -26 0
-472 -860 -567 0
6 669 -469 0
476 676 -682 0
-993 345 902 0
-50 -363 -929 0
509 76 -900 0
-745 -838 -591 0
809 -759 653 0
-736 -560 -990 0
787 48 -320 0
-481 558 156 0
364 462 10 0
-898 -785 -733 0
-352 -342 -392 0
245 -787 177 0
-384 490 -428 0
-625 -361 -841 0
235 -311 909 0
463 -871 -498 0
19 457 413 0
-833 -706 -97 0
833 -303 154 0
-888 448 304 0
232 -865 460 0
-326 798 744 0
660 -528 688 0
-679 -912 897 0
846 338 426 0
893 440 764 0
95 654 -896 0
485 659 634 0
264 651 729 0
401 364 761 0
-551 81 433 0
-377 522 -215 0
-430 -232 282 0
-556 -893 959 0
-173 530 -100 0
-325 -33 -25 0
-164 -269 -495 0
-640 631 -899 0
890 -639 105 0
-511 100 -909 0
747 -499 69 0
-408 663 242 0
-606 -837 -934 0
745 652 -371 0
915 348 -645 0
659 192 -541 0
-573 -650 -9 0
-707 -802 -742 0
329 606 -903 0
-188 134 -429 0
109 912 -407 0
316 -512 -759 0
412 277 438 0
-321 279 -338 0
-820 -840 838 0
-265 -918 -273 0
-45 916 -733 0
-21 673 479 0
489 983 -129 0
474 811 -366 0
-18 -527 -935 0
254 146 909 0
661 195 777 0
-63 -808 -290 0
696 777 -749 0
-27 -737 -114 0
104 -491 -874 0
260 562 -537 0
538 42 872 0
995 -282 -736 0
551 -863 991 0
175 46 -93 0
82 -288 -731 0
-26 -358 -987 0
782 -832 -975 0
-797 754 696 0
893 -571 43 0
163 392 -164 0
679 -329 -891 0
25 774 763 0
-740 616 -128 0
321 -624 -6 0
-218 684 -789 0
21 -19 -650 0
645 853 -443 0
-158 759 -469 0
470 834 317 0
305 858 330 0
-178 324 -933 0
836 311 221 0
-443 233 -990 0
-226 215 627 0
856 577 309 0
20 -922 -245 0
-505 -959 -631 0
215 -725 -581 0
-654 -581 -477 0
-447 854 -208 0
-391 -951 336 0
146 -875 716 0
-248 349 470 0
-189 441 999 0
-593 -799 -558 0
-755 217 429 0
106 -824 -208 0
-955 281 -828 0
-954 817 -687 0
236 -63 -663 0
515 720 840 0
822 720 -233 0
-921 65 -291 0
-960 -329 97 0
910 165 131 0
534 815 -193 0
-964 331 500 0
264 778 -995 0
-219 500 -829 0
-832 406 -951 0
-517 -201 -220 0
-54 962 812 0
735 -634 -517 0
631 706 310 0
-234 540 338 0
-142 167 100 0
988 -312 227 0
979 -799 -790 0
-890 -169 757 0
-604 -666 851 0
-193 437 46 0
988 30 -888 0
373 873 -845 0
806 -628 873 0
-928 -408 -465 0
530 -768 -506 0
-330 27 37 0
669 13 -55 0
724 738 779 0
743 -383 711 0
905 793 244 0
807 -991 316 0
-741 -620 989 0
755 538 -427 0
-897 -420 220 0
-786 142 -805 0
952 809 789 0
-172 -897 -910 0
-422 391 -30 0
-615 698 549 0
144 397 462 0
567 -707 597 0
355 575 -464 0
499 34 -47 0
522 384 995 0
-666 576 -749 0
523 519 426 0
-943 -584 -846 0
340 -278 -828 0
-149 -781 438 0
765 545 441 0
-307 54 784 0
845 -315 369 0
361 317 910 0
-824 52 -768 0
-151 -369 427 0
16 -747 -680 0
570 706 -311 0
-464 -673 -310 0
-623 571 709 0
-61 -63 -31 0
669 -134 -587 0
-967 577 -506 0
646 -682 -263 0
168 -507 235 0
-297 424 435 0
671 936 -802 0
337 -841 157 0
-911 -3 -836 0
-641 720 437 0
225 -32 -179 0
498 -694 -625 0
786 -266 870 0
-199 -691 243 0
897 736 -354 0
613 -483 726 0
230 -386 -146 0
116 597 721 0
616 104 -366 0
-450 -741 969 0
136 -83 -398 0
69 -559 -803 0
485 167 -207 0
120 350 551 0
-411 -921 -909 0
418 405 789 0
483 643 134 0
-553 -939 864 0
471 -157 -878 0
285 -42 956 0
129 452 -36 0
-306 504 119 0
-541 -400 -475 0
18 -387 -476 0
360 -279 39 0
-814 101 -809 0
-275 217 452 0
-32 33 -959 0
-929 -470 -456 0
-264 -259 395 0
-295 -385 -356 0
457 -47 621 0
-726 218 478 0
310 95 -500 0
-469 358 83 0
84 -888 -604 0
-206 -8 849 0
-809 -627 393 0
787 -556 813 0
-113 -930 -397 0
811 -92 -416 0
-579 -202 -945 0
-542 -908 639 0
-76 -586 606 0
-299 454 -321 0
-697 746 123 0
635 -464 -211 0
-602 -624 -557 0
871 -904 963 0
-634 -604 -421 0
-343 -734 -984 0
-20 -277 -769 0
-963 -115 929 0
526 -631 493 0
853 314 113 0
906 737 -839 0
765 928 -892 0
296 564 808 0
-522 196 -695 0
180 -394 864 0
769 171 -646 0
-165 839 -420 0
-761 639 78 0
-68 792 -799 0
428 -473 783 0
-228 -786 314 0
-669 -769 -45 0
-580 805 68 0
-424 879 -829 0
-311 -472 690 0
375 -181 -87 0
-283 -8 -876 0
-650 827 -584 0
705 166 205 0
-260 814 -669 0
164 138 695 0
-750 155 730 0
-912 258 992 0
230 -58 -587 0
-346 -647 -442 0
-664 535 -82 0
521 788 -317 0
-592 308 -776 0
529 573 739 0
-52 -637 -23 0
-213 -9 859 0
317 300 412 0
-848 625 835 0
-9 786 -661 0
862 335 727 0
-300 -528 634 0
-941 -19 861 0
101 760 428 0
-428 -812 733 0
-896 -536 -598 0
-550 770 -244 0
-152 656 -91 0
53 658 71 0
800 -572 -856 0
-217 -219 -50 0
733 -962 463 0
426 150 33 0
617 950 -784 0
808 -447 464 0
-559 636 48 0
38 -26 454 0
-768 347 376 0
568 143 -127 0
-852 -667 -822 0
786 -878 -181 0
58 442 194 0
765 975 688 0
845 666 744 0
-530 633 708 0
371 567 161 0
-280 -970 -827 0
-897 -150 45 0
-537 644 -490 0
338 22 -112 0
-875 320 -683 0
-798 -41 -770 0
-237 -572 192 0
672 -729 -679 0
486 -257 401 0
391 -864 -99 0
-175 -34 -102 0
-44 -604 457 0
175 538 -432 0
-697 -116 -611 0
319 819 200 0
-784 442 -162 0
590 230 822 0
-9 -669 276 0
817 -903 -460 0
-547 -933 -92 0
344 -389 -981 0
189 -359 -749 0
-291 55 176 0
497 121 468 0
-352 799 -54 0
27 495 785 0
142 -300 796 0
896 546 -791 0
-163 278 -592 0
552 205 37 0
-761 319 -96 0
-21 -78 874 0
745 -340 -379 0
-527 646 212 0
138 678 289 0
-908 663 -549 0
-640 -9 -471 0
859 -694 -310 0
-59 205 -75 0
-820 -698 -343 0
-390 -190 168 0
-339 -427 572 0
90 -878 353 0
965 -341 247 0
898 686 955 0
-738 719 -396 0
-733 307 618 0
952 319 -709 0
-145 97 -767 0
-815 -924 893 0
-623 -814 -847 0
262 -328 -671 0
560 -133 -977 0
679 833 -61 0
422 -757 101 0
949 -200 273 0
961 -804 626 0
-305 -350 619 0
990 231 -557 0
847 46 -889 0
435 -867 -314 0
124 -36 998 0
-494 640 671 0
224 980 -90 0
-427 812 -298 0
763 851 -482 0
666 -974 -163 0
398 46 -859 0
-290 -115 -497 0
987 47 816 0
733 925 -382 0
-307 -956 364 0
-767 -651 -35 0
56 -71 558 0
-183 879 23 0
-559 292 -582 0
511 -763 -602 0
-857 -311 -63 0
595 -716 -32 0
-797 -953 -311 0
-177 -213 782 0
998 -197 -614 0
-271 -624 566 0
-653 -771 -843 0
920 -145 77 0
-295 703 -42 0
163 -412 580 0
-342 890 -669 0
-522 293 -475 0
-576 436 -317 0
-993 -107 -164 0
992 -501 955 0
949 -566 -66 0
-870 432 -734 0
-949 -767 621 0
-716 -24 732 0
679 271 -4 0
387 -557 -843 0
831 -903 -472 0
632 -609 -934 0
369 381 362 0
165 757 -44 0
-503 -441 823 0
632 -665 -265 0
-23 993 759 0
-654 737 464 0
-925 414 378 0
547 -938 -279 0
-870 -531 -426 0
763 -478 -610 0
17 621 -215 0
285 -322 294 0
651 -570 -15 0
802 82 615 0
633 35 -166 0
-426 542 -581 0
-604 -635 277 0
346 131 -993 0
-32 310 959 0
534 254 549 0
-193 297 -394 0
-541 -844 776 0
-786 -695 -990 0
-10 -939 815 0
390 -405 78 0
-920 -397 -878 0
584 -547 743 0
-977 354 -429 0
-509 -342 803 0
-278 248 174 0
-650 -162 -359 0
-668 -67 401 0
364 -419 972 0
882 527 151 0
-215 -250 874 0
877 -275 734 0
156 53 -355 0
874 -20 -715 0
319 814 -873 0
446 -979 800 0
97 723 739 0
-226 840 535 0
-678 -708 461 0
-56 613 30 0
301 218 -312 0
-324 -331 839 0
-356 449 822 0
461 439 151 0
661 -772 406 0
-563 828 117 0
763 227 2 0
-163 6 -791 0
407 134 825 0
615 738 -608 0
93 750 -787 0
-272 91 997 0
-168 463 -251 0
637 902 104 0
-905 658 807 0
548 -546 -8 0
804 66 379 0
-859 307 -770 0
38 51 943 0
320 -183 -531 0
-897 837 -236 0
596 -769 -579 0
-396 -794 -431 0
558 414 -29 0
729 -750 -226 0
-979 239 969 0
78 -508 -997 0
782 805 920 0
-447 -97 20 0
-278 700 184 0
-237 -395 -534 0
-255 499 -812 0
-479 -175 -202 0
-185 -439 897 0
-427 -188 28 0
38 -621 -122 0
554 744 185 0
958 216 745 0
202 -752 -412 0
-607 449 713 0
-368 -645 -991 0
969 722 89 0
727 -949 -518 0
997 -916 -870 0
-418 -965 112 0
-515 -436 -97 0
-695 -309 65 0
652 -348 857 0
889 -403 515 0
988 -604 685 0
527 -954 900 0
579 523 -719 0
-873 -813 189 0
-504 -7 -138 0
-727 91 669 0
-747 -419 -41 0
-958 163 -165 0
-110 -209 345 0
876 -819 -791 0
957 -918 -309 0
188 891 -723 0
730 151 -752 0
-292 578 -954 0
525 -475 -281 0
-528 565 -946 0
645 521 716 0
692 1 -945 0
-27 55 334 0
645 -664 -94 0
-299 -730 90 0
-531 -971 627 0
834 470 -270 0
-330 -755 260 0
-870 -378 -581 0
108 591 -688 0
850 196 241 0
463 -266 482 0
619 750 -664 0
-119 -98 -294 0
158 827 538 0
-756 463 -999 0
-934 55 770 0
775 -309 -516 0
-900 -751 626 0
-898 -742 -986 0
40 -898 -483 0
-582 -241 145 0
-432 16 -76 0
736 266 930 0
-147 937 403 0
585 503 -382 0
453 -382 -466 0
-283 -691 814 0
638 -663 629 0
693 144 -117 0
-881 367 -879 0
-344 -370 -429 0
338 -972 887 0
751 531 -75 0
800 927 928 0
365 -330 918 0
-257 -2 -337 0
114 567 -703 0
-626 230 -792 0
-353 -775 -986 0
-533 -998 943 0
698 -842 378 0
-235 686 -779 0
451 -828 921 0
-948 4 904 0
-341 559 -925 0
-206 -980 -536 0
-260 568 971 0
-550 -27 -340 0
288 -59 237 0
700 189 -70 0
-659 -164 748 0
-397 848 -79 0
872 -433 980 0
87 -288 580 0
526 -426 955 0
-678 -213 232 0
907 -45 263 0
478 -593 -952 0
847 546 933 0
-532 305 -974 0
-620 728 -279 0
-934 -537 -593 0
203 -912 -885 0
-197 -298 424 0
817 -535 -307 0
605 -996 972 0
74 -932 -334 0
525 520 866 0
-281 493 387 0
-532 116 903 0
-942 -638 -653 0
454 -828 383 0
-641 -935 594 0
833 715 -259 0
211 782 838 0
999 -558 581 0
264 -376 821 0
211 -191 -284 0
-10 -729 231 0
784 -644 -846 0
30 -818 226 0
280 -166 -633 0
932 177 -324 0
-609 841 734 0
-310 308 -36 0
478 204 -23 0
-169 -297 333 0
847 -36 483 0
-624 -306 819 0
-620 316 579 0
496 639 871 0
-216 952 -807 0
-552 -82 766 0
597 -684 -385 0
-270 424 -500 0
286 -15 885 0
295 -477 -646 0
896 893 662 0
-589 367 -890 0
-919 513 -383 0
-785 177 267 0
-225 298 -164 0
102 401 326 0
-482 112 -324 0
-882 698 851 0
155 -451 727 0
-666 -741 629 0
413 252 664 0
-992 -492 870 0
716 862 911 0
-763 619 -880 0
-154 -866 -615 0
5 120 214 0
-828 330 47 0
992 -622 -99 0
-713 227 -835 0
-734 -135 210 0
-370 -964 -830 0
615 -942 572 0
821 865 262 0
-536 -832 931 0
-882 281 -22 0
348 -10 5 0
518 119 768 0
-816 -969 175 0
358 179 -980 0
527 506 -354 0
228 366 -137 0
-279 228 512 0
33 -768 -685 0
343 -47 -684 0
514 -381 -32 0
746 -974 -676 0
244 -806 243 0
757 -642 -447 0
-349 26 -72 0
-765 -566 -222 0
383 -992 -214 0
-221 -880 888 0
940 -337 330 0
956 174 334 0
-151 -482 -858 0
44 -939 280 0
-549 827 -333 0
-301 -247 479 0
12 443 -712 0
-788 809 734 0
153 585 269 0
819 -610 515 0
-918 953 833 0
810 843 -871 0
-661 -295 -272 0
673 -807 -332 0
458 -796 -82 0
-480 686 -796 0
801 804 -933 0
-912 -254 43 0
-981 517 -782 0
582 638 -943 0
661 -183 -636 0
726 -742 816 0
-104 -653 844 0
148 -630 -136 0
523 370 303 0
-788 -924 -541 0
416 -576 -290 0
-990 -358 450 0
365 637 740 0
-20 739 787 0
54 -873 -728 0
-744 212 -568 0
526 -157 -640 0
434 -558 -730 0
-697 -455 808 0
-432 717 -731 0
-667 350 576 0
-840 -155 -487 0
-857 -656 890 0
-923 798 483 0
-645 780 -636 0
613 -461 -96 0
-700 977 307 0
-372 -12 -557 0
-95 934 -107 0
-56 428 -565 0
-560 -696 -916 0
-26 607 -303 0
93 -288 778 0
-466 276 -716 0
585 975 268 0
-805 2 714 0
950 -125 -115 0
968 -47 894 0
17 343 -8 0
-944 44 306 0
-943 -195 -785 0
-752 -862 -619 0
622 482 -28 0
-265 -765 15 0
-806 -743 312 0
528 -100 -439 0
-117 -248 -416 0
-438 307 -897 0
652 173 -320 0
218 61 -269 0
450 -788 -195 0
-268 558 -895 0
390 -960 465 0
597 -260 801 0
-24 906 -969 0
348 -210 365 0
908 -160 41 0
-909 -865 -369 0
-319 571 -609 0
-152 629 889 0
-718 151 -783 0
793 -858 753 0
-31 149 105 0
-449 -874 -210 0
116 -880 1 0
310 -560 865 0
-376 4 -441 0
-240 -461 623 0
-659 -933 -387 0
286 -73 953 0
-190 -831 660 0
-120 949 -239 0
-338 519 960 0
-106 -972 489 0
272 833 -801 0
-315 -370 -671 0
266 257 -200 0
-581 98 -479 0
-772 -391 292 0
455 207 -740 0
-967 582 918 0
73 -1 165 0
543 22 607 0
665 876 -741 0
-230 289 -28 0
-889 704 420 0
-460 98 114 0
618 481 19 0
-457 423 -436 0
49 100 560 0
-854 -997 359 0
189 405 932 0
484 -617 779 0
760 -588 -971 0
-140 -972 953 0
-327 439 -514 0
638 423 -516 0
-25 907 -42 0
809 400 508 0
736 -625 -738 0
-486 -47 -908 0
902 -528 -920 0
-131 -633 994 0
-864 352 -198 0
965 928 927 0
39 444 -50 0
-75 408 240 0
764 176 -305 0
-60 -354 -341 0
570 487 631 0
596 537 313 0
-14 370 -182 0
-746 990 685 0
580 -881 -212 0
-544 -259 -845 0
-554 835 -791 0
-630 -472 936 0
919 -849 288 0
-225 863 -679 0
-595 997 393 0
35 66 204 0
898 736 -134 0
-808 -288 311 0
-473 956 -725 0
845 -799 623 0
611 -844 226 0
512 612 330 0
987 385 224 0
-239 -879 318 0
828 26 -273 0
522 826 -76 0
222 792 73 0
660 861 846 0
-56 840 638 0
197 -99 49 0
-86 900 -217 0
-827 835 -176 0
-488 -656 -407 0
950 -815 -403 0
198 208 -854 0
-28 550 923 0
243 -991 995 0
778 896 -445 0
-127 158 106 0
276 -375 492 0
162 -391 -738 0
-183 527 -49 0
-314 112 785 0
-653 511 512 0
882 7 255 0
219 -81 -165 0
-722 503 -99 0
-269 702 -641 0
-237 477 932 0
-703 749 225 0
-22 -596 -568 0
-930 998 929 0
147 527 905 0
-885 -142 144 0
-940 -95 -295 0
-485 800 -552 0
866 -170 42 0
889 -336 72 0
412 -676 -138 0
953 -800 -723 0
-537 -471 -235 0
642 848 118 0
-908 231 -400 0
-397 -696 942 0
-584 741 -281 0
-812 -12 -396 0
-295 949 655 0
586 -990 953 0
-704 -742 -370 0
901 -557 661 0
-816 -70 422 0
594 326 804 0
802 -301 -468 0
-686 -708 111 0
-921 -705 584 0
-399 581 246 0
-996 540 807 0
-27 633 527 0
-946 201 -367 0
200 666 -763 0
-246 255 199 0
-863 76 420 0
-135 -545 882 0
-908 -9 308 0
-323 -973 -2 0
755 585 -903 0
206 301 526 0
-402 772 916 0
-81 469 -423 0
713 27 315 0
962 105 -966 0
557 -286 -45 0
-344 488 426 0
-14 55 -305 0
719 326 908 0
397 -356 524 0
243 -545 -65 0
-866 -978 -865 0
-319 734 -946 0
-705 733 526 0
853 -478 548 0
-499 30 -52 0
-437 -78 -657 0
118 104 -498 0
-124 -821 864 0
-792 212 383 0
107 -349 259 0
609 701 547 0
895 492 -146 0
-899 -488 805 0
721 796 -697 0
962 700 -623 0
359 170 -964 0
62 747 349 0
829 417 -386 0
160 -299 -613 0
-638 -440 248 0
22 -933 398 0
-332 269 51 0
-283 -103 -833 0
476 448 -41 0
-457 -667 920 0
-935 -955 -34 0
-702 -421 909 0
533 -248 -82 0
-281 -587 -315 0
-489 672 -867 0
-104 -571 39 0
-908 -185 998 0
193 809 -506 0
24 828 706 0
629 81 -691 0
289 722 -8 0
856 -371 -297 0
412 -618 -508 0
583 -507 -647 0
454 915 365 0
-730 -606 437 0
-972 -72 -252 0
-527 558 -105 0
964 -502 -827 0
777 -626 807 0
923 -209 236 0
433 -863 -655 0
-155 724 -985 0
-209 -866 922 0
-2 589 994 0
245 -643 -503 0
756 -813 776 0
-559 -387 970 0
-900 946 381 0
-454 -564 -714 0
100 -231 832 0
-422 379 -909 0
-454 -111 314 0
598 174 -766 0
32 -291 -653 0
505 925 69 0
712 -356 246 0
270 607 978 0
512 -310 911 0
503 -532 367 0
-278 -144 -822 0
322 702 -932 0
992 -619 704 0
315 839 641 0
360 495 -17 0
-616 556 900 0
200 -129 -361 0
-591 716 -284 0
367 976 -476 0
831 690 682 0
387 -152 -330 0
470 795 841 0
-523 541 932 0
-333 549 373 0
491 -34 765 0
543 -336 603 0
-649 -909 -351 0
823 592 -635 0
-406 -221 399 0
105 -273 932 0
758 579 -739 0
484 681 -67 0
-53 264 366 0
-204 957 -521 0
-173 450 -840 0
-5 878 683 0
805 -298 -885 0
512 -271 -842 0
521 370 -813 0
-527 456 -449 0
232 -120 -462 0
-619 12 -717 0
257 119 -852 0
-95 -656 576 0
-880 885 -235 0
679 -628 -374 0
-408 -314 -347 0
922 -176 -844 0
-964 -768 449 0
-625 -605 -916 0
-173 -509 798 0
816 -845 -317 0
460 469 -219 0
-321 -544 552 0
309 52 40 0
-460 -833 -689 0
-321 -346 -392 0
-69 591 -897 0
174 -366 370 0
-65 507 -646 0
562 -665 -475 0
-433 949 -596 0
255 -296 -731 0
476 3 -647 0
-434 935 -182 0
525 -841 -757 0
564 198 -466 0
-623 -283 -802 0
797 979 370 0
-347 179 -408 0
-302 172 -916 0
-367 -402 -424 0
-107 -472 778 0
981 -138 414 0
-563 -419 -294 0
777 -114 -929 0
-963 -90 -854 0
579 172 487 0
32 -359 55 0
780 -99 -350 0
478 -590 -652 0
283 268 270 0
1000 783 -690 0
-833 503 311 0
882 -247 211 0
-817 -666 674 0
-834 -672 237 0
369 -106 -72 0
283 525 974 0
183 601 -958 0
64 -529 419 0
426 -633 -91 0
190 -207 467 0
793 417 299 0
-983 96 -821 0
-579 105 411 0
928 474 872 0
878 -308 -203 0
196 36 -190 0
993 -897 -634 0
532 -863 383 0
-728 846 -288 0
-841 519 -620 0
173 -794 341 0
-840 556 493 0
1 -682 922 0
-876 162 462 0
481 990 570 0
326 -830 -234 0
351 -393 -136 0
-477 300 -267 0
567 -816 533 0
-667 -575 327 0
-20 -813 -59 0
-425 -247 -627 0
-627 80 416 0
-353 -367 296 0
-93 -258 35 0
333 -260 658 0
-700 -738 678 0
-300 -995 -225 0
-520 716 826 0
116 15 -758 0
-359 250 826 0
-698 -479 323 0
-850 -369 -608 0
-530 508 -791 0
80 601 700 0
-623 -451 477 0
881 -252 -290 0
-396 604 -707 0
-179 277 -928 0
235 -710 -956 0
-554 -244 -300 0
515 -543 621 0
218 -18 -988 0
-568 -804 921 0
-397 -460 -695 0
763 312 -768 0
715 -391 -869 0
-606 392 -827 0
-787 -835 -763 0
-435 -492 641 0
376 -49 120 0
198 -383 291 0
-442 -223 -297 0
-811 -828 -906 0
581 560 411 0
801 230 589 0
247 -554 566 0
-399 810 542 0
-191 31 -157 0
-478 920 170 0
-520 -337 -243 0
-936 328 542 0
609 841 -684 0
-603 -583 320 0
-478 -856 -954 0
-62 -450 -620 0
157 170 230 0
-786 721 642 0
404 -24 -244 0
-927 -2 -697 0
788 -963 308 0
383 257 -350 0
-9 -137 -664 0
595 -174 200 0
-7 626 542 0
-620 -134 310 0
194 -96 49 0
220 -519 891 0
-875 -730 -667 0
835 -246 167 0
976 -358 94 0
-766 87 711 0
-551 -478 -659 0
-178 -888 519 0
-50 810 -532 0
75 -419 -710 0
-85 -836 724 0
690 -273 575 0
-805 751 468 0
192 -409 -413 0
-414 201 788 0
850 -568 -690 0
849 52 -670 0
325 -688 882 0
939 703 913 0
-51 518 -356 0
587 59 -612 0
210 277 197 0
752 318 -161 0
-410 -796 -858 0
-995 25 95 0
-228 -882 -361 0
-623 418 137 0
-85 -901 319 0
-523 -561 -452 0
322 847 851 0
427 -238 -14 0
85 952 -423 0
-273 300 700 0
320 -892 310 0
419 -237 -378 0
612 -116 -807 0
221 -211 -791 0
-946 718 -974 0
-308 169 674 0
747 -104 -652 0
-644 -591 -297 0
795 -85 -912 0
-380 23 -337 0
-678 -805 -42 0
520 -873 -305 0
194 -585 -480 0
-245 113 -919 0
-395 -154 156 0
-794 676 861 0
-925 -395 622 0
935 -187 -696 0
109 830 -487 0
-209 -922 -493 0
310 -399 -595 0
14 -219 171 0
132 -56 -312 0
567 73 314 0
330 16 799 0
-525 -744 -420 0
-631 100 -558 0
-82 -283 -270 0
586 259 -164 0
-407 -649 -389 0
385 524 -760 0
-548 323 436 0
111 10 -126 0
909 291 -310 0
359 -123 -770 0
530 -752 -723 0
323 -458 -274 0
-231 129 8 0
394 -738 -798 0
-349 687 -532 0
-726 -646 995 0
550 -667 168 0
-129 559 -360 0
195 -991 124 0
789 -227 -230 0
-681 -847 -394 0
-528 143 -59 0
739 139 818 0
-934 -940 -233 0
-726 -116 419 0
-658 -706 285 0
-172 -332 -717 0
151 837 286 0
-851 56 812 0
464 -733 -812 0
668 61 939 0
-543 -69 112 0
-401 -606 122 0
-58 -380 -683 0
791 -184 -680 0
744 -406 593 0
-666 35 52 0
949 -451 -803 0
-921 351 -828 0
-251 -747 430 0
449 743 -784 0
567 -432 830 0
-275 661 -509 0
443 -225 -882 0
-11 660 105 0
645 350 -479 0
868 -615 -434 0
805 -982 -963 0
-692 669 -537 0
535 -857 -354 0
-105 -59 803 0
-770 457 -909 0
-955 866 -570 0
-491 -465 -492 0
-820 409 926 0
-753 -933 -588 0
272 427 -982 0
-945 -514 17 0
963 -997 570 0
200 -916 -46 0
-283 889 -934 0
-161 390 674 0
-43 274 365 0
113 -54 459 0
-378 520 83 0
-699 -628 -595 0
227 -593 846 0
983 709 -303 0
945 -481 -263 0
898 -377 400 0
-673 29 473 0
-158 -499 -313 0
348 -590 -478 0
826 553 987 0
919 745 963 0
881 399 -98 0
-123 -411 256 0
-169 -262 753 0
-40 -581 -747 0
862 423 -784 0
889 -504 191 0
-935 -768 77 0
-994 -348 948 0
347 408 209 0
465 562 -551 0
-207 336 -203 0
-759 608 21 0
-294 453 -800 0
-383 -45 925 0
432 254 188 0
-276 920 -79 0
-185 863 370 0
78 9 -850 0
-937 36 -389 0
-873 712 -48 0
635 323 -947 0
425 753 241 0
230 -793 -77 0
466 539 300 0
-612 287 69 0
-87 -44 375 0
-472 390 -206 0
8 -110 -31 0
-687 788 -331 0
-862 609 -682 0
579 560 -213 0
-733 -456 -568 0
-85 -723 619 0
606 927 -755 0
-379 -115 446 0
-450 -56 723 0
-156 -336 789 0
-143 -860 -699 0
660 -760 -340 0
-391 -986 614 0
-55 -326 492 0
390 -604 556 0
-185 331 842 0
-840 -755 -883 0
-401 461 900 0
298 -240 371 0
847 585 -713 0
-783 615 28 0
-50 551 399 0
249 499 829 0
703 -993 870 0
-112 -46 265 0
5 759 -528 0
-683 -314 -547 0
-601 61 177 0
927 -312 536 0
-828 -16 974 0
929 699 957 0
908 172 -805 0
-156 130 586 0
167 80 -670 0
92 -593 164 0
-118 -716 -984 0
42 -483 -971 0
185 110 965 0
-221 -493 147 0
598 -341 -308 0
-283 -282 -361 0
564 879 -138 0
-319 986 860 0
-553 -16 735 0
-37 -570 369 0
-577 597 111 0
-596 -331 137 0
-482 590 -191 0
274 607 841 0
-862 767 619 0
-855 129 -320 0
-755 -910 -27 0
-630 -126 -544 0
783 -965 331 0
-820 -129 451 0
-182 697 761 0
-847 96 -30 0
729 292 837 0
-926 291 -303 0
-370 -784 173 0
-120 208 -69 0
164 -512 -320 0
-9 650 -253 0
-90 -621 631 0
663 -848 -149 0
68 -637 -152 0
937 -830 -413 0
850 379 -680 0
29 355 -153 0
162 609 166 0
-600 -910 703 0
340 511 725 0
103 174 -291 0
-334 690 -255 0
-107 -438 -696 0
-562 514 -624 0
728 -612 384 0
-975 14 601 0
191 186 721 0
-846 -901 420 0
73 -194 -566 0
-483 -235 590 0
-367 -311 -283 0
-342 754 528 0
-962 -524 -341 0
974 -637 -754 0
792 -657 812 0
-90 903 762 0
-750 142 335 0
-708 908 -237 0
752 -489 -776 0
210 -451 -113 0
-780 -597 -939 0
-29 -538 -927 0
-160 -923 841 0
854 300 -716 0
146 -807 -785 0
274 -176 60 0
-306 -173 966 0
919 -642 -422 0
210 -425 322 0
-7 -234 -270 0
207 -46 934 0
374 -119 -111 0
867 706 -648 0
483 -670 234 0
990 927 338 0
-355 530 -197 0
688 -231 -790 0
35 -714 -751 0
-403 311 -511 0
771 -202 366 0
-522 832 444 0
350 -585 -766 0
36 -324 688 0
457 673 59 0
438 -2 993 0
75 481 98 0
133 -547 257 0
-253 -227 -533 0
-921 243 904 0
-178 -617 256 0
769 730 -904 0
-472 -494 65 0
-138 130 590 0
-572 454 873 0
612 -406 236 0
-238 857 455 0
736 88 667 0
-824 -306 522 0
784 466 -843 0
-60 991 -718 0
-707 58 -511 0
-450 676 -856 0
-260 -580 484 0
301 -631 359 0
324 -142 -927 0
648 -4 90 0
-439 -65 345 0
-40 -846 993 0
-966 -680 794 0
-203 438 160 0
-980 873 203 0
251 183 32 0
-906 340 -743 0
-646 239 111 0
398 -500 -624 0
-149 215 -361 0
265 -241 23 0
-961 -36 294 0
-462 -450 616 0
431 456 928 0
-832 -367 -704 0
-369 291 540 0
400 873 739 0
-91 -306 -985 0
808 705 361 0
-861 -243 930 0
445 -405 -685 0
810 999 91 0
-676 -498 -625 0
152 -285 619 0
641 -172 -469 0
-930 -481 -835 0
147 -485 -854 0
-320 471 739 0
23 667 795 0
-621 -852 676 0
-566 672 865 0
648 -660 661 0
-511 -487 -946 0
-120 -763 524 0
57 -582 541 0
-789 -884 -507 0
586 618 761 0
146 231 -719 0
-657 -731 272 0
-944 481 -946 0
996 -326 26 0
463 -461 -234 0
768 342 -745 0
-87 -359 -302 0
803 762 -826 0
300 -869 -628 0
-944 520 891 0
-479 -133 -43 0
-23 331 583 0
-438 926 -987 0
-95 995 470 0
-459 806 428 0
590 520 -133 0
377 -974 253 0
-257 -143 25 0
146 122 -106 0
668 452 363 0
-154 -866 264 0
57 661 354 0
114 583 -254 0
-37 39 -912 0
-109 634 -886 0
-442 -793 -827 0
346 -277 -937 0
661 905 -445 0
901 -390 -81 0
-868 236 -849 0
552 -776 -131 0
-293 -850 678 0
-481 737 -892 0
429 -182 -455 0
986 341 174 0
651 -70 510 0
430 439 148 0
394 -604 -980 0
418 -341 63 0
965 -51 -297 0
-46 706 -785 0
-286 288 994 0
-812 -889 533 0
38 -912 -249 0
850 -236 -352 0
-41 706 494 0
166 604 -814 0
685 -805 -588 0
215 -602 511 0
956 827 386 0
815 691 873 0
-465 -610 -33 0
564 -667 226 0
549 -791 209 0
22 -18 485 0
290 -405 -478 0
108 -584 438 0
377 235 -732 0
318 851 180 0
947 -630 410 0
772 -26 -427 0
67 -308 -618 0
809 926 -788 0
-663 112 -938 0
653 -405 726 0
-237 -18 -631 0
-826 496 859 0
1000 -145 -372 0
-117 913 975 0
-989 41 -931 0
137 -125 -188 0
-3 -495 265 0
589 -849 150 0
-829 679 343 0
-429 434 504 0
-726 -937 76 0
-781 182 -442 0
241 30 140 0
-221 -466 240 0
658 -196 -454 0
274 -475 510 0
431 979 268 0
-370 -478 632 0
-694 -20 -542 0
292 -840 -335 0
958 -743 571 0
-365 -54 961 0
160 -147 447 0
-480 844 688 0
943 124 844 0
466 -419 -307 0
910 -918 922 0
875 135 -210 0
61 -918 509 0
-257 666 111 0
-400 -958 238 0
963 -86 -284 0
-833 971 287 0
172 -665 -582 0
-670 194 -539 0
-285 897 -385 0
-571 -319 -424 0
513 963 158 0
800 74 405 0
734 -897 -926 0
718 -776 705 0
-983 -682 -620 0
-14 -545 854 0
900 786 -131 0
-318 873 763 0
784 -12 -992 0
691 30 356 0
-307 643 838 0
-562 49 356 0
-740 -882 993 0
44 -678 -686 0
629 -754 -106 0
689 -974 -495 0
450 807 994 0
870 -553 -226 0
-145 379 -573 0
985 -676 916 0
453 800 -93 0
-777 607 -241 0
-314 -889 563 0
985 404 -384 0
-716 33 260 0
-766 349 964 0
632 498 -900 0
-539 -831 -52 0
686 236 595 0
-901 -14 -811 0
-822 670 -63 0
-202 -61 -625 0
-637 530 875 0
627 856 -750 0
66 -795 316 0
209 455 697 0
121 -701 409 0
148 741 -119 0
107 51 -683 0
373 -577 -214 0
618 -107 -18 0
-659 707 -187 0
-858 -540 -838 0
17 417 -702 0
-811 101 370 0
118 485 -613 0
168 -556 261 0
11 382 -569 0
419 -477 962 0
-5 546 -396 0
-346 -996 -609 0
800 -375 -647 0
589 -814 -431 0
-453 -471 -469 0
-429 -914 -920 0
667 793 -13 0
479 153 293 0
-646 690 -696 0
-917 972 -990 0
-124 -802 677 0
-382 480 24 0
878 880 -529 0
36 -415 -175 0
87 907 415 0
518 328 -343 0
665 822 -397 0
-869 887 451 0
448 82 -160 0
865 717 -607 0
-102 -975 -385 0
-111 80 -98 0
-512 -698 58 0
57 -752 32 0
667 -965 265 0
-252 636 972 0
241 -765 -14 0
-149 -662 729 0
743 618 873 0
-517 142 -325 0
223 -925 662 0
171 -864 -619 0
-199 350 -699 0
748 606 635 0
-66 -582 62 0
-171 685 -255 0
-806 933 492 0
-545 -522 -287 0
53 -923 428 0
46 -334 636 0
-464 -212 -151 0
-761 -840 -770 0
-506 139 -491 0
-165 -105 -963 0
227 891 858 0
-969 253 995 0
782 162 842 0
-838 324 -722 0
-286 -484 43 0
-77 659 -419 0
-926 580 25 0
-118 301 701 0
678 578 805 0
77 -870 735 0
908 12 702 0
-264 521 -873 0
-437 -111 -970 0
-571 -591 -359 0
-996 -880 -562 0
531 -549 445 0
771 809 360 0
-910 -668 -695 0
-787 415 -169 0
884 976 -532 0
-799 790 325 0
-478 -636 523 0
355 -814 -246 0
-854 331 -151 0
573 -211 -73 0
-431 432 -597 0
249 846 -706 0
330 435 -579 0
-577 189 -696 0
-556 -767 -212 0
645 -767 75 0
-923 174 736 0
977 126 790 0
642 -284 840 0
-213 -731 -655 0
834 1 256 0
-599 -581 992 0
-470 -546 -100 0
773 -703 802 0
176 405 157 0
728 419 340 0
-924 847 170 0
292 236 8 0
549 810 406 0
470 -627 723 0
-887 55 879 0
714 -298 -677 0
877 -735 791 0
480 -144 253 0
484 724 -846 0
-269 -876 733 0
225 83 988 0
584 -427 17 0
80 -33 -847 0
-205 -432 421 0
-223 167 -476 0
586 -547 880 0
-203 -29 -266 0
544 285 914 0
190 -886 949 0
941 -84 594 0
663 305 -677 0
-30 689 59 0
680 -117 109 0
-702 263 744 0
766 -760 -844 0
-542 -237 508 0
893 807 -542 0
-417 -905 264 0
42 445 591 0
866 973 -376 0
363 -598 626 0
-157 570 343 0
565 -632 567 0
855 -64 -387 0
25 949 9 0
-196 -910 -929 0
-160 -220 -26 0
-317 -447 -589 0
-500 -824 503 0
340 -553 668 0
736 114 714 0
-810 62 -509 0
-262 624 141 0
207 -957 -580 0
-420 -999 -690 0
-780 -365 -32 0
-621 -789 524 0
677 641 791 0
-766 746 864 0
521 390 746 0
-786 -557 -780 0
-91 706 104 0
119 462 -54 0
500 917 470 0
671 426 -116 0
790 -711 942 0
-259 79 427 0
385 525 -949 0
-498 -59 -752 0
20 372 -533 0
146 942 980 0
-248 -611 743 0
274 -863 -771 0
-891 354 960 0
810 -841 130 0
246 -904 -366 0
42 636 -347 0
895 572 468 0
695 -116 -864 0
-395 223 -16 0
791 555 864 0
-306 -651 -52 0
-505 -152 -927 0
852 -10 48 0
-415 510 613 0
22 214 -979 0
-281 508 -160 0
298 503 -949 0
-408 -333 -360 0
-269 354 -291 0
527 -943 -276 0
-45 915 717 0
-894 571 298 0
506 817 278 0
-132 850 -498 0
-283 -120 496 0
840 690 -655 0
-189 258 -630 0
-507 83 -290 0
-873 567 136 0
-742 -895 511 0
-200 -26 -711 0
654 680 994 0
-659 413 140 0
255 593 791 0
339 122 -206 0
451 -950 -698 0
228 -665 140 0
-160 164 148 0
-752 -274 -205 0
-717 649 -340 0
317 84 -991 0
864 739 185 0
270 303 922 0
868 52 -497 0
-774 809 536 0
24 191 -768 0
-89 262 398 0
-329 945 842 0
477 -57 -393 0
-440 469 -704 0
611 -133 -125 0
418 645 492 0
565 -205 -84 0
-762 -579 650 0
305 615 -395 0
-196 358 152 0
-663 -392 348 0
739 564 412 0
-881 -155 -347 0
-61 -659 227 0
-292 866 -401 0
-153 415 851 0
-163 618 -324 0
-851 705 -954 0
-577 -736 -480 0
165 813 897 0
70 155 686 0
464 168 -595 0
-492 944 861 0
700 -653 235 0
-832 -729 -281 0
-469 -859 -916 0
431 -382 -901 0
-802 266 -917 0
433 510 -511 0
-101 31 374 0
-992 913 36 0
1000 -308 558 0
428 794 -990 0
689 129 789 0
-240 -366 -192 0
-981 930 -62 0
-234 -186 -822 0
-989 -115 -416 0
-702 186 -394 0
-818 -255 834 0
-258 268 -439 0
336 -238 -9 0
-281 393 -599 0
-317 -136 -718 0
498 -797 484 0
421 750 -46 0
455 -974 360 0
-68 -313 147 0
-899 364 -650 0
-126 -805 -913 0
795 -310 689 0
-369 -53 402 0
244 170 414 0
670 825 -872 0
-644 -830 -498 0
797 652 938 0
400 -539 488 0
-268 -232 438 0
899 242 -323 0
701 -617 473 0
-529 515 -367 0
-229 474 -329 0
-238 -391 253 0
-350 -216 -803 0
95 18 757 0
-579 -166 -390 0
951 328 201 0
143 6 -897 0
-237 -632 772 0
-171 982 -125 0
357 -285 -378 0
-204 -547 75 0
326 383 274 0
-126 453 26 0
538 998 719 0
-909 74 -980 0
84 -11 -389 0
-490 748 192 0
88 262 64 0
627 303 -942 0
-989 342 -347 0
-965 508 917 0
-599 841 917 0
-372 786 -726 0
38 -906 -364 0
113 983 527 0
957 -24 379 0
-224 -3 -446 0
184 -848 -504 0
-381 845 -917 0
270 -320 640 0
156 164 -202 0
987 98 440 0
-344 -667 520 0
-119 -176 307 0
-371 37 -858 0
-951 59 957 0
886 874 93 0
43 -307 939 0
-985 131 -152 0
-935 -7 -125 0
411 -555 664 0
-188 -88 855 0
503 -802 -99 0
-43 770 -184 0
705 859 -897 0
297 920 567 0
-499 -128 -443 0
559 -423 -235 0
982 943 542 0
511 -749 808 0
963 231 611 0
975 -432 575 0
540 237 -19 0
-102 -514 -707 0
862 -367 -493 0
918 579 807 0
507 -579 -446 0
-621 785 -43 0
442 951 -173 0
967 593 521 0
420 310 -204 0
125 -857 -190 0
-696 577 430 0
679 -605 187 0
162 -208 116 0
11 590 843 0
417 -267 706 0
-205 -308 -493 0
175 -320 113 0
-892 -870 -714 0
-511 384 681 0
739 30 62 0
325 -160 631 0
-556 105 -393 0
-661 -572 -800 0
990 -294 -867 0
494 793 411 0
-750 -770 -259 0
-791 -387 509 0
808 -918 292 0
-517 759 708 0
-879 787 466 0
977 -485 384 0
15 -957 232 0
-633 -44 -69 0
-933 -207 100 0
108 520 503 0
-477 -33 -83 0
250 560 704 0
-274 456 923 0
-880 -433 -939 0
-886 237 713 0
-637 411 -223 0
-171 -416 965 0
-621 266 -654 0
-687 437 -706 0
-864 -585 -872 0
-752 643 -927 0
-112 -428 570 0
-22 -32 162 0
371 -554 584 0
608 -497 332 0
591 -736 -694 0
818 649 508 0
93 268 238 0
128 -500 367 0
-556 350 -439 0
-431 -347 220 0
-455 -396 -845 0
489 -809 -549 0
572 384 -420 0
782 -952 814 0
751 -992 -311 0
967 362 122 0
194 -271 -68 0
632 -379 -11 0
574 540 150 0
-127 654 -937 0
47 -775 545 0
663 546 83 0
453 838 732 0
107 886 593 0
-670 107 -58 0
-820 911 740 0
-322 859 404 0
-33 -697 -993 0
-825 -928 536 0
990 -6 246 0
21 395 -799 0
129 161 -375 0
-409 851 444 0
371 438 309 0
752 -201 175 0
-865 -981 -100 0
329 416 -523 0
494 -258 979 0
-199 945 944 0
-745 -477 -802 0
-840 625 -431 0
-907 246 -784 0
-490 -385 264 0
605 264 734 0
827 -488 -658 0
85 606 374 0
803 296 -678 0
909 -642 -325 0
324 423 -465 0
83 834 -290 0
-171 356 -553 0
-783 -327 -995 0
-579 -27 981 0
-610 -355 -278 0
273 -666 -142 0
471 638 -341 0
938 242 393 0
937 -419 -429 0
-253 177 641 0
430 833 -675 0
914 -808 -32 0
784 308 682 0
219 -420 -116 0
-772 -98 -74 0
377 646 605 0
-647 907 552 0
651 856 -573 0
-150 -663 673 0
-498 80 893 0
714 774 -415 0
156 374 418 0
477 222 563 0
-144 988 -167 0
-711 -373 -603 0
-434 351 716 0
-970 738 -867 0
932 -420 -922 0
461 -202 223 0
238 973 168 0
434 -209 490 0
985 -443 204 0
14 991 -341 0
-454 -588 -56 0
-167 -218 -731 0
-384 531 -919 0
-292 922 -680 0
885 490 802 0
-432 260 -656 0
-722 841 632 0
377 -587 -800 0
-122 992 588 0
563 198 706 0
-486 585 840 0
-733 515 -783 0
96 -281 386 0
771 -900 702 0
141 238 -704 0
-795 469 -764 0
784 967 867 0
761 -19 -534 0
914 -725 615 0
-474 255 -573 0
363 -326 483 0
117 503 -422 0
-527 -678 -588 0
-685 662 -988 0
498 456 511 0
-809 -669 -315 0
572 -184 994 0
72 47 -32 0
244 -179 41 0
3 -808 305 0
526 84 890 0
586 -323 565 0
-931 961 -648 0
-208 -524 47 0
-306 -391 -130 0
114 -248 571 0
756 843 28 0
496 771 413 0
941 250 770 0
428 826 -974 0
-305 677 -609 0
-279 488 582 0
-275 -475 578 0
-382 -429 137 0
-198 967 -123 0
252 232 -89 0
467 740 -138 0
-240 589 -753 0
-231 -273 793 0
-709 -501 791 0
-778 -595 -967 0
251 546 -2 0
-545 131 -749 0
985 -250 701 0
-84 417 132 0
-858 362 545 0
-499 -183 -920 0
939 855 517 0
-36 210 212 0
804 589 -442 0
274 -749 -816 0
126 635 933 0
86 888 -97 0
640 323 263 0
-431 317 -892 0
-934 504 -557 0
882 -396 61 0
-222 -732 -296 0
-143 58 316 0
-63 967 533 0
-531 418 -641 0
877 -643 -94 0
712 60 -419 0
827 793 204 0
-704 -289 606 0
49 935 781 0
120 -374 363 0
230 -453 187 0
628 -726 -881 0
-70 -768 561 0
-139 -61 -305 0
-103 787 348 0
-619 287 -891 0
870 707 161 0
-26 33 -15 0
-655 247 63 0
-369 -947 806 0
-612 609 -279 0
-484 -204 -463 0
-248 660 517 0
-841 -594 72 0
-406 631 239 0
-378 -678 552 0
359 -447 -433 0
200 579 -946 0
867 -595 818 0
696 -298 -767 0
396 729 -179 0
449 -565 -633 0
122 445 697 0
152 958 297 0
-793 22 -450 0
-647 -813 548 0
151 -342 -370 0
870 -323 -707 0
192 -101 514 0
-734 -701 670 0
859 -695 876 0
-977 -913 88 0
472 -11 -837 0
-768 -444 83 0
960 301 445 0
992 321 677 0
604 234 325 0
4 -108 570 0
-136 -720 -701 0
-924 -704 542 0
57 -26 475 0
460 676 -355 0
-404 -181 -385 0
697 313 -660 0
529 39 577 0
623 183 675 0
-115 -883 -825 0
405 -614 -379 0
202 -630 670 0
617 -356 289 0
194 -985 -687 0
-294 -856 -874 0
-649 -551 342 0
-758 10 -893 0
632 -661 -117 0
-51 -562 -175 0
-354 788 220 0
301 -942 -294 0
-527 -262 468 0
466 819 728 0
606 621 858 0
669 482 -174 0
815 -311 -703 0
393 -769 706 0
-546 988 -176 0
-762 -782 547 0
-148 769 -725 0
460 911 -448 0
740 727 -303 0
212 38 788 0
-857 -438 -263 0
94 917 471 0
-115 577 724 0
69 624 -51 0
55 -932 -764 0
953 -505 -772 0
-91 -708 -663 0
-713 231 -292 0
-186 776 727 0
-96 556 792 0
-388 -822 237 0
706 -662 565 0
-196 -217 779 0
681 102 635 0
-998 279 -853 0
-565 -894 628 0
163 241 394 0
-929 -182 50 0
-126 302 593 0
163 -445 -982 0
-878 -422 -541 0
146 -26 456 0
146 679 -562 0
951 -276 950 0
-48 472 487 0
793 -919 -675 0
549 -883 786 0
-136 -641 800 0
735 -825 -879 0
529 -152 722 0
-303 -224 70 0
-524 169 857 0
332 192 -164 0
-638 139 769 0
961 -243 683 0
-890 -307 34 0
-341 644 -681 0
-794 -835 752 0
-778 721 -777 0
49 -799 825 0
-966 803 738 0
873 711 -758 0
-951 627 568 0
-208 838 845 0
747 43 269 0
87 71 -769 0
-797 -337 997 0
-533 65 -834 0
-497 -403 30 0
943 -189 -834 0
532 320 545 0
-197 -183 525 0
-348 -909 -769 0
717 87 -327 0
-252 651 347 0
631 -563 -945 0
466 628 410 0
794 454 -682 0
184 267 -546 0
626 66 -627 0
-509 -361 54 0
-892 -257 -958 0
919 -943 -259 0
-589 -35 24 0
671 -513 323 0
121 486 -471 0
-140 275 -726 0
-188 -891 585 0
-453 -527 551 0
-669 -43 684 0
869 -994 613 0
