p cnf 1000 3450
-246 -613 -778 0
123 -583 -418 0
342 -568 -683 0
-370 -911 109 0
-916 556 440 0
-145 529 732 0
-270 -464 508 0
786 182 506 0
247 203 662 0
-867 -59 -458 0
621 665 875 0
634 -569 438 0
-887 -549 -935 0
81 670 -894 0
-521 -765 699 0
-115 -462 725 0
855 -616 78 0
-107 227 272 0
221 1 -631 0
931 -411 -113 0
-44 -185 186 0
-683 590 95 0
396 41 436 0
627 -687 -567 0
-747 703 -126 0
-994 -156 942 0
638 217 372 0
21 -175 -686 0
-652 791 869 0
-579 -219 975 0
636 14 -574 0
883 137 -897 0
5 -3 -435 0
-557 -283 -731 0
-836 901 -243 0
178 146 -168 0
985 941 -618 0
-235 -244 722 0
648 535 657 0
-169 -288 -482 0
-551 301 684 0
-585 105 600 0
-622 694 -676 0
99 -487 636 0
-985 -337 588 0
-235 -261 -833 0
24 -380 -52 0
-357 -587 -953 0
-483 841 -539 0
-564 900 -883 0
-421 -550 -21 0
918 205 186 0
-839 440 884 0
206 261 626 0
916 670 -173 0
-410 993 -849 0
-773 -520 852 0
-613 336 896 0
-36 -488 -61 0
-657 381 -502 0
415 -589 -342 0
-243 17 36 0
-937 219 287 0
948 549 20 0
-190 760 -213 0
948 770 65 0
737 -690 -890 0
-673 365 23 0
-15 621 -690 0
611 -574 -663 0
427 -200 -795 0
486 -111 620 0
-630 -716 576 0
-400 -325 -943 0
-126 669 802 0
306 -601 143 0
105 -31 -951 0
649 -453 998 0
72 -181 -108 0
-408 -240 940 0
864 -655 -234 0
-918 173 743 0
-441 -320 93 0
-36 303 970 0
-510 678 -874 0
533 954 792 0
-143 -11 -897 0
370 -264 -389 0
841 846 285 0
-865 -748 -293 0
-430 824 988 0
733 -566 350 0
-380 434 162 0
139 177 789 0
654 950 -544 0
222 623 153 0
203 -119 494 0
-785 60 845 0
-483 -498 127 0
637 -448 -498 0
-883 -954 393 0
-887 -76 -266 0
254 620 230 0
-646 -376 -123 0
482 -555 -310 0
162 984 80 0
392 465 739 0
-160 -531 -862 0
973 242 487 0
-909 -538 355 0
172 324 -364 0
965 -658 -275 0
874 -583 721 0
946 -379 193 0
-414 -229 -29 0
-464 -532 -12 0
-641 -293 968 0
-153 -393 704 0
-902 964 -682 0
774 911 -440 0
659 -859 -155 0
-667 609 221 0
-365 -77 710 0
641 22 -740 0
676 803 -856 0
383 286 -999 0
-344 -603 732 0
-53 -729 -495 0
-908 773 -211 0
-7 -346 787 0
96 -128 388 0
-726 -232 -834 0
-886 -351 -373 0
805 -966 407 0
-843 596 645 0
-410 -313 -744 0
-362 551 -540 0
126 507 -475 0
302 667 -265 0
621 843 -277 0
949 -823 -874 0
-644 638 482 0
282 509 -591 0
964 -313 -312 0
846 673 811 0
-727 953 -866 0
-464 588 235 0
445 -626 -520 0
867 112 -454 0
997 -636 713 0
919 -9 854 0
733 -772 812 0
-695 271 194 0
-334 741 -662 0
756 78 884 0
385 -632 207 0
-411 707 -755 0
-36 -667 -106 0
54 550 923 0
730 -74 656 0
-365 213 486 0
-447 -287 -860 0
-720 -346 -793 0
-363 -543 523 0
-937 -660 203 0
129 -973 -627 0
16 -821 503 0
309 -519 891 0
-825 48 -159 0
88 -763 391 0
-504 89 825 0
-35 -314 540 0
-470 246 -997 0
-162 -695 910 0
-716 -450 -370 0
-652 754 -888 0
-358 -180 730 0
817 110 -489 0
207 443 912 0
228 411 -838 0
718 -825 751 0
402 -57 -624 0
-886 -721 265 0
681 233 124 0
-632 887 398 0
139 -712 -770 0
282 -252 -48 0
311 -518 785 0
568 -611 252 0
879 327 -931 0
859 940 -541 0
648 521 524 0
-847 151 410 0
-320 637 -501 0
986 -81 907 0
888 -169 -859 0
142 201 -143 0
103 177 600 0
453 -688 84 0
-141 575 373 0
683 -319 671 0
134 345 -384 0
523 499 104 0
115 -847 333 0
-739 -512 882 0
974 -588 84 0
-209 -563 -981 0
-59 -4 -333 0
-870 667 -329 0
473 4 -660 0
539 -422 -753 0
770 -899 -820 0
-571 -504 -868 0
171 -375 350 0
887 694 -124 0
-934 184 320 0
-976 767 -488 0
-699 -135 -467 0
-602 -111 143 0
174 -507 233 0
184 -966 94 0
-461 978 -808 0
-881 -132 382 0
279 -853 -717 0
752 -387 685 0
750 -416 478 0
794 840 930 0
89 -902 -42 0
651 799 -588 0
-666 -588 -851 0
338 -391 588 0
-399 59 -196 0
-917 184 608 0
923 884 -460 0
135 288 730 0
933 -32 -854 0
-46 391 476 0
88 -988 618 0
745 83 460 0
253 -673 400 0
116 -750 395 0
-386 -879 731 0
96 -347 -885 0
-50 619 -274 0
-897 319 -912 0
-750 -530 613 0
-27 -133 345 0
-504 -591 -285 0
-418 533 -436 0
-740 561 -210 0
-58 702 -203 0
273 -401 626 0
275 92 -893 0
547 -916 -722 0
-438 -456 -574 0
-230 360 578 0
-679 225 -397 0
-973 -852 853 0
771 -724 -804 0
346 -903 -149 0
-671 -612 436 0
936 -174 -118 0
-667 -510 504 0
-232 -40 669 0
-166 -748 -51 0
891 783 -582 0
486 781 123 0
-743 -649 218 0
-558 -228 -742 0
837 414 -557 0
716 -694 -938 0
-171 -797 285 0
594 868 -671 0
-412 -906 773 0
-495 631 886 0
-675 -296 808 0
83 62 -908 0
479 -324 791 0
-339 -279 -974 0
-890 923 276 0
8 501 784 0
-452 177 88 0
878 933 -915 0
-583 932 -804 0
56 -431 -546 0
758 -321 -863 0
-699 -247 916 0
391 -612 -708 0
-875 994 -382 0
447 499 -41 0
293 -8 -206 0
-764 593 -694 0
-496 -987 -92 0
81 826 -721 0
-204 880 -244 0
866 310 733 0
899 205 -396 0
-851 328 761 0
-342 632 -688 0
513 218 639 0
-252 -247 752 0
34 815 832 0
-651 -757 771 0
951 -700 -144 0
434 -24 890 0
588 38 608 0
931 67 429 0
-124 851 -808 0
71 684 -612 0
-319 250 439 0
693 -18 -939 0
-731 -221 869 0
-555 -443 -689 0
-718 -728 -135 0
384 834 -958 0
-277 -586 -166 0
774 311 -365 0
-637 -387 406 0
-384 -22 -797 0
-773 -976 435 0
279 -856 -113 0
400 -455 203 0
-57 -580 147 0
-669 -944 22 0
-672 315 146 0
-511 -435 639 0
-743 679 -421 0
-798 -127 -392 0
743 -650 -323 0
-474 -213 643 0
-200 67 -1000 0
464 643 720 0
-805 -396 640 0
-121 -445 225 0
171 48 -668 0
-245 939 943 0
713 -352 338 0
414 -350 -996 0
-894 -257 167 0
81 241 235 0
258 -366 52 0
95 -418 -235 0
-277 292 -962 0
-836 -455 844 0
-10 326 931 0
-839 387 -431 0
939 -672 184 0
49 701 827 0
339 -477 -526 0
285 34 -167 0
715 -992 -419 0
-386 -710 273 0
867 459 160 0
-896 160 -558 0
-527 214 -461 0
535 468 -82 0
-535 687 -704 0
-942 981 -759 0
-495 -210 672 0
270 -114 379 0
745 538 -459 0
-923 -289 -230 0
332 -40 284 0
969 376 -432 0
15 672 -764 0
-174 483 549 0
458 174 -916 0
-852 969 292 0
-121 751 31 0
27 137 476 0
-613 569 172 0
375 249 -732 0
410 -8 -993 0
981 -283 -234 0
40 -370 -852 0
708 -279 -123 0
994 165 -44 0
521 868 652 0
-339 -110 282 0
304 -233 478 0
823 -159 -569 0
398 466 -833 0
693 -534 49 0
607 -499 -130 0
375 -3 -695 0
-363 155 186 0
-145 -416 158 0
-868 894 910 0
638 -488 -626 0
-240 572 230 0
449 246 902 0
-340 481 -524 0
-104 953 -570 0
340 684 -722 0
-887 -979 222 0
-855 -15 -55 0
-684 466 617 0
-371 -365 -85 0
541 -270 109 0
-172 467 805 0
244 322 64 0
-382 -913 822 0
155 -581 915 0
498 329 134 0
60 -407 -336 0
215 -540 198 0
-443 640 622 0
164 155 312 0
-611 763 954 0
-878 954 -479 0
-584 -659 -970 0
-372 -918 -487 0
845 58 865 0
684 411 107 0
298 -974 979 0
-555 627 -300 0
-126 -848 -239 0
-371 644 -359 0
-677 919 -415 0
494 -294 -811 0
736 151 -742 0
-525 202 -681 0
-518 -927 365 0
930 -692 -654 0
405 -95 -404 0
-654 -720 534 0
251 -23 596 0
855 321 -553 0
-852 400 -789 0
28 803 -568 0
685 147 771 0
-547 -492 205 0
-642 357 -614 0
-959 -181 -37 0
53 726 -390 0
422 -15 84 0
-236 -276 -459 0
-945 -768 529 0
-95 6 870 0
608 -728 685 0
857 -537 -287 0
416 -599 821 0
910 478 -301 0
320 -898 722 0
189 272 584 0
565 -864 -304 0
-502 -962 808 0
777 -520 -33 0
-128 23 769 0
-846 -12 -770 0
-185 -627 -724 0
-347 701 648 0
254 -394 -699 0
246 -806 -880 0
588 985 865 0
175 -674 887 0
-2 -417 134 0
-278 -39 -895 0
-705 -805 -141 0
-561 811 -994 0
-538 309 810 0
299 437 133 0
380 -966 640 0
-679 21 793 0
-285 -587 -55 0
-470 -963 576 0
-143 -306 -271 0
-79 -303 -726 0
867 -923 -577 0
-524 950 -375 0
14 -225 -827 0
-925 166 -929 0
856 -515 155 0
724 339 -395 0
313 -630 721 0
338 -206 586 0
-288 -696 583 0
599 528 -402 0
-789 -542 -127 0
933 -748 852 0
155 6 -229 0
323 891 -435 0
972 694 -367 0
-334 -649 212 0
-194 -387 398 0
483 -126 113 0
-75 -357 -19 0
145 -989 -292 0
-863 503 135 0
-384 174 -572 0
643 -51 182 0
103 -493 69 0
-872 435 -925 0
384 -642 895 0
698 850 267 0
-472 -956 115 0
852 -694 97 0
725 791 -310 0
828 -238 -554 0
-437 -77 931 0
-342 -548 -935 0
19 -255 536 0
-142 -243 459 0
-954 -481 -821 0
-544 175 991 0
152 884 -471 0
-804 325 -219 0
301 7 -694 0
-867 833 944 0
-364 688 -56 0
-135 452 -290 0
465 -84 956 0
-138 -302 -264 0
414 -34 327 0
-412 -533 -903 0
853 -874 -939 0
-428 225 -144 0
235 -195 -516 0
-312 -508 323 0
-244 -175 -949 0
-600 -874 315 0
-309 -28 454 0
-558 928 -655 0
580 545 764 0
74 292 -470 0
200 -920 -817 0
-653 680 195 0
-47 -827 337 0
426 -687 113 0
-98 444 -517 0
-948 695 -660 0
-509 -513 839 0
-982 -556 806 0
-924 582 643 0
-304 951 -519 0
994 -687 -838 0
-856 -124 556 0
584 966 71 0
-348 -643 316 0
317 -565 -797 0
-61 549 846 0
-736 355 -585 0
-296 -501 161 0
557 -767 -552 0
-419 986 -543 0
-998 552 972 0
-565 -320 -442 0
-956 -855 611 0
-949 -543 496 0
208 -84 -246 0
-3 -205 42 0
283 -603 -25 0
896 -434 312 0
700 206 -393 0
-297 -428 765 0
901 -998 929 0
810 570 -206 0
-597 744 -766 0
34 594 -103 0
71 518 417 0
30 -842 613 0
119 -367 677 0
701 -780 -911 0
-490 -871 785 0
425 -840 -530 0
-371 -352 -667 0
999 822 860 0
767 192 371 0
96 359 -583 0
-872 -607 496 0
-109 181 -855 0
-175 127 102 0
796 143 13 0
438 140 231 0
166 -347 569 0
511 -588 893 0
750 724 783 0
975 -643 752 0
-810 237 -51 0
-399 434 -968 0
-371 -42 360 0
119 -221 -964 0
845 384 265 0
-570 -588 -175 0
958 450 807 0
2 -35 -54 0
-511 -744 535 0
607 -440 474 0
-741 -611 283 0
-345 831 972 0
93 -873 -524 0
-594 659 471 0
-802 -325 851 0
934 -199 62 0
-718 599 410 0
-268 461 778 0
347 -579 505 0
71 890 -681 0
-29 -641 32 0
520 20 59 0
-631 321 -884 0
-346 557 521 0
-153 -60 182 0
-805 -994 -138 0
6 -168 -469 0
716 551 598 0
-977 -523 -303 0
459 142 486 0
-302 211 -519 0
372 -89 715 0
372 29 -255 0
720 847 -796 0
-62 -178 169 0
-872 -988 -582 0
-890 -243 -559 0
430 -990 -13 0
542 463 -633 0
-569 585 -375 0
206 224 242 0
-820 -25 -267 0
313 271 520 0
-786 135 77 0
-605 -629 291 0
-275 -841 942 0
-489 753 804 0
135 51 -132 0
-209 -459 134 0
807 -156 128 0
746 650 777 0
516 -226 152 0
-866 -352 37 0
491 1000 -120 0
-185 189 784 0
837 769 -432 0
897 640 101 0
-787 -378 427 0
-199 -390 -270 0
88 -755 913 0
-822 660 952 0
1000 -851 -405 0
-873 159 -286 0
745 18 -651 0
-43 -726 -327 0
-380 987 751 0
-98 9 -77 0
229 -889 846 0
-213 -119 43 0
-79 926 -811 0
-776 -200 143 0
14 769 -62 0
783 392 -417 0
-719 -762 -655 0
-959 -94 988 0
746 -951 601 0
-150 107 -848 0
465 223 -538 0
-928 -84 897 0
-513 -473 446 0
-790 149 999 0
-903 -419 590 0
-410 -47 -306 0
-681 697 299 0
-247 17 -408 0
-81 803 -847 0
73 -493 287 0
973 515 -249 0
836 489 477 0
-350 504 667 0
764 726 716 0
55 -454 -667 0
-919 187 65 0
-358 -467 -409 0
605 -693 93 0
-305 -303 332 0
307 387 26 0
-222 6 99 0
711 -924 909 0
-473 198 275 0
11 -684 -272 0
-140 -477 921 0
216 750 -695 0
-783 268 -815 0
780 854 -959 0
-343 453 -78 0
-599 1000 771 0
107 -15 -995 0
-423 393 -631 0
-760 606 641 0
330 -710 10 0
289 -413 452 0
-415 -547 -559 0
390 -745 -256 0
758 -229 281 0
-963 -322 -458 0
-937 521 -728 0
598 -326 417 0
851 825 -260 0
-791 -279 910 0
936 -486 -930 0
790 -394 707 0
149 446 -155 0
924 -697 984 0
-681 441 -619 0
106 855 -551 0
-947 -757 878 0
-606 917 539 0
123 -360 501 0
50 -792 137 0
926 -718 -315 0
570 930 378 0
-893 -640 375 0
-64 -906 185 0
-306 43 -738 0
-828 -561 -732 0
739 -213 -936 0
-436 442 -606 0
23 842 42 0
-135 -554 -943 0
781 263 -96 0
-918 -900 -563 0
-160 -779 155 0
942 779 -6 0
970 327 -303 0
-956 403 -887 0
-588 535 -102 0
-970 644 -747 0
147 -551 -657 0
634 -656 900 0
16 837 611 0
837 377 -640 0
978 709 550 0
-298 -254 -982 0
763 240 351 0
247 491 -82 0
-934 984 759 0
-593 79 -322 0
456 -891 -990 0
-167 -670 -872 0
634 796 83 0
-602 372 -949 0
-984 898 -715 0
114 131 990 0
425 -10 221 0
-833 251 -135 0
157 -672 783 0
460 -51 -747 0
198 704 -221 0
-782 501 -367 0
-639 327 526 0
449 -586 730 0
772 233 -952 0
237 -464 -234 0
740 8 -190 0
-831 -371 792 0
635 818 497 0
767 819 -537 0
-249 -893 385 0
-429 -640 591 0
-721 -883 -744 0
-329 141 663 0
270 848 437 0
952 -733 -211 0
-499 359 2 0
59 -232 -237 0
-42 -844 343 0
941 771 -518 0
143 368 504 0
-216 930 333 0
944 675 984 0
-111 -559 -670 0
858 870 -540 0
-761 439 -160 0
-446 813 -609 0
-826 202 914 0
-259 874 -645 0
633 -881 975 0
-264 -558 201 0
325 998 -352 0
-608 148 -823 0
341 391 302 0
-967 -635 566 0
-931 -943 -269 0
-937 -539 997 0
-446 -99 568 0
-124 -279 -297 0
876 -527 -946 0
853 988 59 0
752 410 630 0
-460 -413 323 0
-265 883 -114 0
227 -833 150 0
-50 -620 -929 0
502 -771 726 0
904 -312 -874 0
-7 -923 136 0
955 -551 -811 0
844 187 721 0
-19 -857 -880 0
-243 -77 -811 0
-407 605 -316 0
336 -685 897 0
-201 -993 -306 0
844 -451 692 0
-372 -910 961 0
321 88 207 0
-491 -992 560 0
-96 -610 -686 0
50 -112 131 0
-745 -124 -646 0
842 -73 35 0
16 -916 -887 0
-154 -380 -285 0
-806 -284 -930 0
59 -319 -649 0
181 -236 11 0
-951 -451 -261 0
693 -218 303 0
582 816 -735 0
724 603 -617 0
686 -566 815 0
737 -806 243 0
-612 3 -596 0
-494 649 61 0
625 -673 -926 0
592 -160 808 0
608 -412 757 0
-791 -590 -376 0
-909 266 564 0
-204 -543 315 0
-332 157 -529 0
262 -444 511 0
-666 868 347 0
-602 -284 -99 0
-213 -609 228 0
-446 -413 -117 0
-599 -689 -310 0
-679 -847 210 0
-785 281 354 0
-241 -735 -731 0
150 171 -569 0
-789 -625 453 0
877 -856 217 0
441 -205 -545 0
948 -310 -527 0
351 -74 -513 0
890 540 -94 0
-829 -498 105 0
968 622 -325 0
342 751 348 0
-612 578 862 0
209 -772 -544 0
389 564 -529 0
-732 -139 507 0
191 135 240 0
111 -855 -566 0
12 -688 844 0
-187 309 983 0
562 -270 694 0
-743 412 -564 0
331 -633 820 0
-164 -894 -777 0
632 -524 -516 0
-397 -780 302 0
-312 256 -435 0
-448 988 -956 0
-872 234 -312 0
-799 733 596 0
431 852 632 0
456 470 286 0
-865 2 756 0
364 -349 163 0
-646 -503 422 0
-472 -344 -258 0
-21 527 -184 0
-165 309 96 0
332 -138 724 0
909 -590 950 0
-460 -611 -768 0
59 460 227 0
-813 73 -544 0
118 857 -63 0
-511 -534 -186 0
615 -300 -873 0
-293 453 671 0
787 -405 -71 0
826 -158 987 0
607 855 -409 0
709 459 -489 0
656 -64 -315 0
-229 -92 799 0
454 -896 989 0
135 485 468 0
-635 -412 -105 0
920 -588 807 0
-55 89 -230 0
-214 -917 510 0
735 -289 112 0
-379 -61 -216 0
-371 646 -941 0
-866 -983 892 0
735 -87 -581 0
-399 -687 -90 0
73 1 -656 0
521 939 377 0
-591 -376 -476 0
911 191 485 0
-725 -621 -124 0
283 110 499 0
58 -232 -267 0
90 621 254 0
-925 773 313 0
-584 -207 532 0
269 685 145 0
411 913 35 0
-867 177 -97 0
345 -760 957 0
795 244 -740 0
-797 27 -704 0
368 -444 300 0
359 141 171 0
-276 -151 -576 0
-598 -387 6 0
-224 -855 -988 0
-482 -605 -107 0
-152 -688 -737 0
-41 -87 912 0
-853 695 -971 0
-518 755 -402 0
818 -542 -226 0
-547 -474 254 0
-746 -34 -665 0
-98 102 -353 0
-460 -111 -832 0
-986 238 -647 0
717 268 973 0
473 128 -746 0
-85 145 432 0
81 -70 777 0
571 -40 -172 0
-91 -69 -513 0
639 -507 -773 0
-289 233 399 0
549 -748 -520 0
-738 184 972 0
-164 -448 532 0
737 834 324 0
-118 -777 -896 0
108 -90 210 0
742 -368 206 0
973 -294 737 0
942 857 -986 0
72 752 -930 0
991 367 732 0
378 513 -700 0
756 -970 106 0
-625 966 -31 0
104 749 -991 0
-493 -255 272 0
986 -629 656 0
-105 28 -737 0
-233 15 -889 0
148 -712 617 0
-537 -457 685 0
-630 323 687 0
-744 -362 634 0
-902 -484 -822 0
-527 237 243 0
517 173 145 0
680 491 760 0
-444 669 993 0
-163 312 148 0
492 -308 -523 0
-758 -757 -577 0
965 203 -497 0
-690 -431 429 0
534 -791 974 0
703 262 -290 0
515 -878 472 0
501 262 100 0
725 690 324 0
-713 -308 988 0
-770 -424 -443 0
-491 786 53 0
628 -225 246 0
-690 -396 -909 0
262 431 601 0
46 810 -420 0
-454 771 157 0
299 619 883 0
-892 790 172 0
511 658 890 0
693 305 -920 0
-164 561 -136 0
286 709 -409 0
75 -470 -594 0
824 -289 438 0
851 234 270 0
-720 -372 -611 0
686 -860 627 0
862 -265 932 0
169 489 614 0
-306 -9 -105 0
-426 441 994 0
-549 162 591 0
-526 -946 70 0
-680 863 -881 0
864 -645 190 0
689 -795 -1000 0
-668 -122 709 0
85 -624 -569 0
-632 -813 -393 0
-421 787 423 0
189 -49 -201 0
839 596 961 0
348 -595 -967 0
-166 -904 607 0
-945 470 -578 0
-359 769 -541 0
-709 -464 -305 0
900 -739 -959 0
-359 766 828 0
-155 174 -185 0
-532 225 597 0
968 -629 -704 0
-467 336 -135 0
6 -641 342 0
-594 821 -578 0
-94 -579 -293 0
266 -535 -2 0
100 14 -34 0
801 -979 784 0
-134 -296 -833 0
508 104 251 0
-62 -124 29 0
709 -875 -345 0
-947 461 302 0
-109 -996 876 0
299 802 -477 0
813 192 826 0
-818 723 -677 0
-247 -413 -504 0
-549 -403 822 0
740 909 995 0
461 990 -443 0
552 -256 72 0
-541 -520 404 0
764 160 292 0
844 -578 -633 0
478 -574 -13 0
-941 454 -71 0
-69 -288 -957 0
94 -214 -708 0
316 418 -254 0
578 971 -481 0
-264 843 -470 0
-585 -683 49 0
-388 -36 -904 0
714 -170 366 0
-824 -162 -987 0
730 114 -208 0
-370 -436 105 0
647 173 924 0
405 104 -159 0
-76 862 337 0
685 -385 779 0
-60 -193 821 0
90 -595 912 0
-240 608 622 0
630 211 -201 0
-652 509 -237 0
-225 -883 183 0
917 103 -458 0
-554 50 -46 0
-286 146 -170 0
859 -379 -637 0
674 -27 -661 0
-239 -721 503 0
-265 -614 786 0
690 198 -585 0
-662 924 9 0
-637 -24 -318 0
-450 -859 62 0
358 760 -582 0
-930 -367 -396 0
-795 764 -694 0
471 -447 424 0
209 203 236 0
-113 514 -276 0
149 -974 642 0
875 742 -115 0
-219 228 262 0
-24 583 -482 0
107 406 601 0
532 915 -549 0
-953 330 -595 0
-21 382 992 0
-22 832 -108 0
100 -359 255 0
194 952 -487 0
-876 -573 701 0
832 607 685 0
-326 -496 170 0
-786 215 -570 0
-185 -222 -700 0
53 -581 381 0
544 -519 871 0
28 -753 551 0
-740 159 452 0
52 -849 -127 0
-111 841 -250 0
856 194 -900 0
-505 681 613 0
-901 -831 76 0
-494 -507 -213 0
769 -581 -295 0
-763 -881 892 0
928 615 -204 0
376 255 401 0
713 543 -320 0
-804 -771 -23 0
-939 -822 352 0
-397 123 -135 0
-918 -747 -125 0
-312 -665 551 0
467 154 781 0
741 762 449 0
-927 -185 -854 0
322 -399 54 0
394 -420 -531 0
-886 -565 878 0
-164 85 557 0
-913 -739 -602 0
937 -92 212 0
677 141 742 0
-47 11 -420 0
-566 3 -811 0
913 472 532 0
-150 830 -70 0
787 48 597 0
800 -491 -485 0
-299 793 -803 0
361 -793 391 0
-199 673 -908 0
-759 299 -50 0
-658 -114 -704 0
-351 -324 -304 0
-552 -792 410 0
-350 -166 -731 0
-706 -358 -163 0
-878 33 52 0
572 -978 452 0
702 262 -311 0
349 -408 837 0
999 928 988 0
878 -113 99 0
132 -799 -973 0
225 -278 -19 0
-835 -329 -997 0
-676 -411 -594 0
-224 411 -61 0
735 -23 942 0
-148 -294 907 0
-29 454 815 0
-204 -287 897 0
790 -399 -96 0
371 -647 -361 0
747 933 -564 0
581 -545 407 0
-488 -753 -789 0
-439 -592 885 0
-698 458 -214 0
-771 -938 -452 0
590 -323 745 0
-452 835 -729 0
835 602 -155 0
314 962 678 0
249 84 415 0
327 -230 -430 0
-292 -232 -44 0
799 -289 -465 0
-512 886 -930 0
401 -983 757 0
-634 -156 -932 0
-42 953 628 0
-186 471 -814 0
-489 -705 478 0
603 228 -887 0
485 -397 45 0
67 312 221 0
616 -145 -787 0
-87 696 -236 0
214 -519 -319 0
-165 307 531 0
474 -998 -590 0
-874 139 669 0
-632 666 61 0
-589 129 8 0
650 61 451 0
-334 996 491 0
145 -769 808 0
-260 94 450 0
-185 -320 -142 0
968 -624 -204 0
387 109 463 0
-541 785 407 0
783 142 955 0
780 343 -842 0
-99 -444 351 0
-193 60 257 0
-529 968 184 0
914 810 -618 0
357 -112 866 0
883 -986 -834 0
-497 114 983 0
-485 -266 -830 0
-402 -175 630 0
701 308 43 0
-287 -744 -880 0
698 335 -447 0
812 -200 53 0
-941 -236 809 0
-266 -112 852 0
137 775 -219 0
-142 115 -176 0
186 -580 -903 0
-73 -874 -662 0
-308 -719 -931 0
941 -341 -673 0
-400 -552 624 0
633 111 -726 0
-27 -808 365 0
-517 245 -800 0
-21 806 -195 0
-68 -846 -496 0
953 -217 60 0
274 -474 -839 0
-585 -715 -462 0
-435 1 144 0
-863 857 -760 0
-346 263 -742 0
-49 -606 433 0
646 967 -659 0
562 -836 -47 0
-247 314 -775 0
-361 446 -409 0
-117 301 -710 0
-843 985 -792 0
-960 -498 -277 0
-494 387 -89 0
618 345 658 0
370 -253 836 0
697 29 -786 0
616 650 -800 0
-458 -585 -301 0
935 385 -680 0
-981 239 172 0
894 231 814 0
58 -624 -386 0
644 473 776 0
-635 629 -857 0
311 -595 -712 0
370 250 151 0
652 967 139 0
386 -235 925 0
-278 -800 181 0
868 713 822 0
-336 448 -877 0
559 210 -818 0
217 -961 -967 0
-748 -4 825 0
-24 -523 -419 0
-488 -974 349 0
708 437 -252 0
157 -676 -312 0
741 -290 -484 0
-43 -341 820 0
235 -170 941 0
676 240 -647 0
-738 -935 -104 0
-702 935 338 0
75 972 296 0
590 -357 -580 0
-173 250 13 0
-154 -24 -317 0
-327 -391 -528 0
962 -449 -439 0
232 -404 803 0
10 -425 459 0
-319 268 241 0
-490 -160 904 0
39 566 -485 0
-928 707 55 0
-761 138 931 0
976 -733 278 0
611 13 -731 0
825 -874 -799 0
-410 176 -622 0
-96 703 -349 0
-537 -965 -52 0
-673 -157 -536 0
202 867 283 0
-37 -252 172 0
247 604 -589 0
-173 220 -372 0
791 -61 433 0
46 292 -335 0
535 -156 -2 0
-737 -316 -142 0
-412 42 -858 0
-16 600 -721 0
582 975 361 0
-848 -561 40 0
823 332 -509 0
-15 513 720 0
205 92 -268 0
886 -45 82 0
709 394 738 0
425 -361 -561 0
198 162 -569 0
-816 -967 -668 0
546 889 -141 0
155 -183 220 0
-657 487 -318 0
-313 -826 931 0
962 644 -925 0
-35 -845 342 0
43 241 -214 0
436 516 -223 0
-448 739 371 0
20 -247 504 0
-32 250 776 0
137 189 -706 0
641 110 -335 0
704 -76 -623 0
-940 243 -665 0
2 770 -72 0
970 892 403 0
220 -973 -786 0
920 -446 160 0
309 222 812 0
924 494 249 0
189 115 -642 0
11 -106 965 0
-929 91 -285 0
-984 -907 -982 0
675 69 336 0
196 -264 -271 0
994 367 638 0
-967 -765 -294 0
572 -578 -640 0
212 -461 -229 0
37 969 751 0
928 651 432 0
-933 -52 -714 0
-104 -900 715 0
166 848 631 0
-879 326 52 0
-449 -1 -47 0
-956 -973 987 0
183 373 77 0
970 -457 -603 0
997 631 788 0
-715 843 -441 0
903 527 -364 0
-619 600 455 0
801 299 807 0
569 234 656 0
-133 -945 84 0
263 206 -720 0
-601 -751 390 0
-912 313 387 0
932 542 630 0
138 -822 821 0
772 -527 -571 0
342 569 710 0
-139 -561 660 0
360 -530 226 0
716 734 150 0
-232 -821 -591 0
644 -566 -271 0
219 727 546 0
624 584 -899 0
-337 707 -211 0
-207 436 411 0
724 902 -494 0
-331 -410 720 0
904 -543 712 0
386 73 -747 0
-456 649 -388 0
-137 311 366 0
815 653 -360 0
-694 903 645 0
-381 -454 -333 0
-617 -751 423 0
-152 719 -599 0
132 605 591 0
-12 548 157 0
297 337 443 0
-414 -936 829 0
-785 -62 -301 0
-456 97 -87 0
748 30 325 0
-751 780 -532 0
-13 711 620 0
-602 -570 672 0
-371 504 523 0
-541 -370 -159 0
-237 -33 266 0
378 432 -671 0
-930 890 400 0
-266 733 -98 0
464 821 293 0
465 -366 959 0
-208 387 490 0
990 565 -418 0
-908 64 919 0
-594 -296 302 0
140 235 273 0
-690 208 926 0
611 -408 -893 0
-580 44 304 0
382 820 -519 0
536 -332 -415 0
-716 568 375 0
-219 46 -13 0
-722 127 111 0
-566 50 -186 0
544 40 -734 0
-699 332 -869 0
-433 -982 -142 0
29 825 827 0
-396 433 -209 0
-179 -258 14 0
384 702 -868 0
-614 827 433 0
475 861 947 0
261 -213 -548 0
181 -474 995 0
457 250 -299 0
522 -581 134 0
805 -889 -933 0
-88 396 149 0
828 -561 190 0
-503 944 644 0
378 -667 781 0
-673 -237 903 0
-654 -652 996 0
-352 -764 -56 0
810 385 219 0
-256 -913 -198 0
-861 681 522 0
-309 -866 -533 0
-273 678 673 0
-417 -237 640 0
146 -581 76 0
803 -181 -210 0
-274 961 759 0
-148 -764 668 0
-879 140 -751 0
-852 -511 -233 0
-855 107 162 0
946 88 845 0
-847 -185 275 0
975 73 -617 0
92 -852 552 0
258 397 -508 0
-158 63 -24 0
-286 121 -113 0
59 -36 -583 0
-591 468 -866 0
620 999 572 0
-3 152 -447 0
-194 603 521 0
-177 -406 -711 0
524 67 -580 0
-860 673 519 0
703 -344 -520 0
-11 -457 728 0
-346 217 -991 0
-919 -790 -157 0
-622 -316 781 0
459 -364 486 0
8 -212 790 0
589 131 -539 0
845 -100 809 0
17 775 -572 0
954 -755 130 0
-134 769 622 0
706 -691 134 0
-427 728 708 0
269 951 495 0
81 -167 -232 0
-45 -632 -41 0
-577 317 -751 0
-670 -540 43 0
-276 970 -34 0
202 199 890 0
-940 182 -305 0
35 -895 -630 0
-926 306 445 0
126 -953 699 0
-237 287 -962 0
302 216 -552 0
-195 -145 -364 0
680 -608 -803 0
736 226 -177 0
847 -242 433 0
-399 -16 672 0
162 333 231 0
772 -639 630 0
255 -535 732 0
756 91 -510 0
875 632 -282 0
533 851 -698 0
318 -118 -545 0
-134 -215 -897 0
125 426 -706 0
-630 593 473 0
-455 971 -591 0
932 -783 -375 0
162 -239 -169 0
573 137 831 0
934 435 528 0
-340 859 -620 0
367 -41 -602 0
603 727 -462 0
-150 959 399 0
20 782 388 0
-466 -76 480 0
-166 -104 -261 0
-19 -889 -703 0
-425 -701 654 0
-207 307 -292 0
-54 -385 -107 0
553 390 524 0
-972 889 781 0
985 -936 79 0
-455 400 -799 0
-67 779 -699 0
360 142 968 0
-364 -360 -650 0
69 880 149 0
-958 -610 271 0
-921 -997 -668 0
-781 495 808 0
-900 12 843 0
337 -376 -774 0
233 985 514 0
-618 -651 270 0
338 -216 -979 0
-536 -99 -291 0
-654 456 572 0
887 85 430 0
62 -341 -872 0
-551 -860 37 0
-365 -645 -831 0
989 -627 -327 0
-102 468 -874 0
2 999 -899 0
187 241 598 0
723 -214 891 0
17 1000 -873 0
-482 928 289 0
-434 631 777 0
-142 147 -359 0
514 667 289 0
810 -52 236 0
-699 -77 -287 0
-21 439 -355 0
-398 143 -267 0
-117 7 -331 0
197 887 -7 0
-3 206 538 0
-682 -801 -119 0
-90 -647 -4 0
-874 -191 70 0
-569 390 -467 0
202 -269 -279 0
-135 -106 543 0
750 635 -368 0
286 737 -602 0
-834 966 -370 0
-15 859 -440 0
-161 911 740 0
577 849 345 0
-399 -550 -373 0
-277 -831 342 0
-666 -391 837 0
-361 -327 -566 0
522 -201 -716 0
-56 -382 -533 0
-713 271 74 0
-719 -130 817 0
635 50 -234 0
128 -756 -502 0
-172 240 -335 0
100 -951 976 0
-297 -953 -952 0
69 -970 923 0
-280 475 -253 0
424 404 261 0
-77 124 -449 0
-60 -530 -313 0
27 -715 527 0
-723 971 199 0
-264 -347 442 0
-920 -279 489 0
850 791 941 0
-576 428 -164 0
-904 702 -251 0
-261 782 -342 0
-681 -178 596 0
154 -283 972 0
737 39 -270 0
593 -636 284 0
-970 -427 -767 0
-855 575 -194 0
-196 -951 -737 0
232 18 -656 0
720 -755 246 0
-825 -263 -230 0
377 -926 -659 0
107 -998 4 0
-424 669 -246 0
-915 -863 -183 0
111 -825 -573 0
874 372 -542 0
882 991 -537 0
-915 762 530 0
-689 403 800 0
-96 855 -564 0
-151 -838 227 0
-95 -360 -690 0
712 604 -455 0
508 -751 -885 0
286 -441 993 0
-424 -459 682 0
580 261 -639 0
2 439 -517 0
-191 -633 -992 0
-430 -184 798 0
578 854 634 0
820 125 -94 0
523 -345 191 0
676 968 -114 0
675 805 -649 0
-897 953 579 0
24 -476 255 0
-136 -318 836 0
-787 -587 185 0
-382 -455 -510 0
287 -46 -161 0
-314 626 -627 0
-665 -221 -64 0
-427 -780 -475 0
-211 448 -313 0
-824 -820 929 0
-39 202 561 0
366 -471 -149 0
902 -218 36 0
-21 905 -9 0
944 303 -635 0
-191 -35 -798 0
-396 -113 -636 0
-380 840 105 0
129 5 333 0
183 -858 -775 0
-126 886 -302 0
52 -842 762 0
-885 347 -937 0
356 894 384 0
-591 953 40 0
-1000 -804 778 0
-892 -652 285 0
-91 953 -531 0
613 -47 126 0
488 406 229 0
560 989 191 0
-769 -872 178 0
-451 145 -534 0
466 -300 -288 0
-478 484 -769 0
-950 182 393 0
-224 887 -575 0
-124 431 853 0
953 -573 938 0
151 800 777 0
738 -683 989 0
366 125 -309 0
-703 590 -719 0
-824 100 -212 0
-408 922 -876 0
167 -114 414 0
-684 603 636 0
-233 -987 415 0
-328 -749 -988 0
954 862 -914 0
-561 908 937 0
-257 -129 -499 0
488 -139 -402 0
-726 -209 656 0
-428 -755 -69 0
-923 554 527 0
338 840 -882 0
526 -654 916 0
-684 -970 -965 0
845 319 580 0
-766 70 249 0
392 656 665 0
482 -770 603 0
396 -729 976 0
-551 -40 157 0
-357 281 164 0
-635 -307 -375 0
-623 -244 -996 0
-762 -823 -137 0
-178 -595 685 0
342 -350 -731 0
324 -306 -440 0
-180 -774 865 0
992 721 -59 0
710 828 929 0
-407 -224 456 0
681 265 -983 0
988 798 951 0
-660 942 -123 0
-103 -534 -538 0
-876 796 678 0
-131 -501 848 0
-934 -868 228 0
801 -56 -21 0
-733 541 -454 0
-932 -135 550 0
-677 -805 -134 0
559 527 771 0
518 540 -835 0
-896 -567 -280 0
-992 -792 453 0
777 -409 -489 0
-1 548 -91 0
924 679 570 0
-75 -112 86 0
666 -450 -139 0
641 810 -839 0
626 521 -856 0
871 -554 894 0
38 282 512 0
558 102 904 0
900 -215 -409 0
656 476 848 0
154 -870 -270 0
835 263 -668 0
234 360 -653 0
-726 -496 93 0
453 250 889 0
-133 -371 -718 0
-146 640 329 0
-468 949 -889 0
783 -114 288 0
570 -881 91 0
-990 330 -997 0
587 -810 -729 0
-498 559 10 0
-109 607 368 0
-458 156 831 0
775 169 164 0
-216 -407 -663 0
-123 518 936 0
537 -921 46 0
-820 391 -465 0
-938 -104 81 0
-748 453 -463 0
-47 920 -852 0
365 -170 -380 0
643 -18 263 0
-783 -663 203 0
10 922 -412 0
-223 861 151 0
-757 978 -973 0
313 258 -272 0
-499 29 229 0
870 -335 -321 0
-714 -377 683 0
194 942 -958 0
-825 815 843 0
-648 -292 434 0
952 -983 213 0
-410 937 -310 0
854 785 464 0
264 726 335 0
23 741 100 0
634 -832 999 0
-568 234 165 0
-824 558 -746 0
-247 -701 339 0
297 -638 -440 0
-807 405 292 0
-815 -743 -286 0
316 -230 364 0
862 257 711 0
-392 -8 406 0
-153 -342 -66 0
-596 580 -536 0
-601 129 -828 0
285 196 31 0
-954 615 93 0
910 143 -602 0
774 -423 193 0
575 -222 -452 0
-535 -547 897 0
-272 -752 -786 0
176 -374 -309 0
38 654 -395 0
40 -119 -429 0
-295 389 479 0
488 806 99 0
221 278 -213 0
686 229 428 0
-158 702 -952 0
-98 -856 241 0
-15 946 -942 0
-590 881 64 0
-116 796 167 0
392 -403 818 0
-826 -49 56 0
34 -644 -819 0
-383 -901 173 0
631 -613 962 0
393 376 -202 0
-109 772 858 0
773 531 -381 0
-566 -807 226 0
-518 273 849 0
-597 -939 -584 0
197 562 -83 0
759 -652 -233 0
-561 669 -504 0
432 847 -693 0
263 814 -413 0
761 -512 115 0
428 -758 262 0
27 -999 364 0
-428 11 866 0
932 -287 40 0
27 797 -753 0
-42 -375 333 0
593 -857 693 0
-951 831 -342 0
463 866 604 0
769 -712 -13 0
-377 222 373 0
785 -820 -83 0
-888 -457 511 0
432 878 -206 0
244 107 -870 0
638 992 798 0
948 789 -102 0
232 -176 -760 0
567 902 -326 0
-340 583 -481 0
-791 -683 -970 0
175 631 -603 0
-871 804 864 0
455 -242 484 0
904 211 433 0
-469 -329 -916 0
517 918 844 0
-310 542 526 0
281 440 -602 0
252 696 -24 0
230 -506 -614 0
503 -239 283 0
-222 -80 -977 0
-746 -720 819 0
-669 803 292 0
-765 -139 234 0
-165 408 -14 0
-374 -556 -943 0
-690 125 -2 0
-212 -217 113 0
-259 408 -797 0
976 -301 -333 0
-209 612 -506 0
-803 -199 270 0
-53 283 846 0
526 844 -121 0
630 878 -537 0
-391 691 251 0
-63 -610 -697 0
521 -343 -457 0
826 843 202 0
176 -324 65 0
524 112 889 0
-741 717 -17 0
-653 -47 988 0
-818 -453 -804 0
-367 995 -280 0
371 80 -812 0
266 456 701 0
123 -854 331 0
-18 -419 937 0
694 626 386 0
505 585 29 0
244 -417 -8 0
624 -767 -219 0
-945 -734 540 0
-196 -274 428 0
530 -492 -584 0
-617 -758 19 0
3 -848 -344 0
670 -554 -397 0
-820 -870 407 0
-733 -303 952 0
-164 -65 376 0
-389 -830 419 0
-142 -199 77 0
-515 -804 204 0
184 -115 -86 0
-527 71 579 0
214 248 -739 0
866 514 -115 0
-642 434 -109 0
25 -536 809 0
-637 793 -832 0
-246 -523 606 0
-144 455 -638 0
-594 69 65 0
280 -145 -861 0
750 141 907 0
208 62 446 0
206 -842 439 0
-951 -712 -776 0
-314 838 -458 0
334 -438 576 0
231 280 130 0
-945 -805 560 0
43 -914 811 0
756 -114 -850 0
-674 459 -600 0
-935 -268 -451 0
-710 -781 828 0
-33 -589 452 0
-839 813 837 0
-582 644 511 0
990 -172 862 0
479 -665 -605 0
-533 21 362 0
336 -953 942 0
-173 525 942 0
110 377 -102 0
278 -519 352 0
32 893 -912 0
-43 761 -509 0
-798 -609 264 0
498 925 659 0
318 862 -255 0
830 -43 -781 0
735 -330 -995 0
-341 -879 290 0
445 458 325 0
-411 -15 77 0
24 131 392 0
225 -847 -219 0
-749 57 -234 0
-216 -828 959 0
-26 -715 -225 0
-858 -797 803 0
-683 -207 237 0
-296 -281 477 0
983 404 833 0
446 372 -82 0
70 86 416 0
111 112 -853 0
422 -404 268 0
-712 110 415 0
-471 -13 -246 0
786 -605 -348 0
-418 168 -595 0
-612 54 215 0
922 -292 -813 0
-458 -716 948 0
-678 -328 -69 0
631 584 -549 0
-271 778 -245 0
-873 -573 -884 0
181 -404 -776 0
26 516 -864 0
-969 731 -884 0
-477 -974 -653 0
875 -947 -332 0
115 411 -654 0
-858 -489 669 0
834 212 -193 0
995 784 559 0
632 -979 758 0
-386 856 804 0
99 -566 -404 0
69 -525 138 0
-802 -57 329 0
122 -955 -60 0
-129 111 -247 0
-594 938 -973 0
-502 406 -651 0
585 322 -627 0
-854 562 -923 0
633 -607 -152 0
468 -983 -470 0
858 864 822 0
-396 -650 679 0
-398 155 825 0
-490 525 -103 0
456 506 643 0
-108 984 163 0
655 -382 -362 0
-608 924 -970 0
-361 -92 -207 0
27 54 606 0
621 417 950 0
-980 871 -647 0
-814 70 299 0
-606 966 343 0
-936 396 -835 0
776 906 640 0
486 547 -392 0
496 -819 -363 0
535 943 677 0
765 1 -188 0
677 518 -540 0
-40 -969 711 0
219 730 -870 0
-261 473 -595 0
638 -948 -562 0
587 714 13 0
499 -933 -333 0
787 166 -730 0
19 -97 -598 0
-190 -733 134 0
-200 -57 233 0
-66 -461 921 0
-882 -219 686 0
-82 -927 -66 0
-345 -882 946 0
-217 -685 -307 0
-387 -143 -402 0
437 -846 -968 0
591 332 -522 0
556 615 718 0
-343 -80 647 0
-375 498 -770 0
410 685 156 0
-975 -482 722 0
-874 719 208 0
209 -35 -904 0
-569 1 -626 0
835 -90 270 0
-668 598 61 0
772 237 -26 0
79 508 510 0
866 -624 463 0
-351 -782 -201 0
-380 -453 134 0
255 -659 901 0
-754 -610 571 0
-823 -544 -163 0
267 -426 608 0
656 503 -126 0
-161 -42 -776 0
337 -921 -369 0
-782 476 104 0
-823 -910 427 0
659 221 -534 0
808 -436 -27 0
-631 -519 -186 0
23 -30 -148 0
221 -475 -857 0
138 -758 957 0
731 360 -385 0
669 -359 -226 0
225 -483 -739 0
407 -943 698 0
-215 394 429 0
-994 -443 163 0
971 -51 -313 0
-676 841 39 0
-249 42 455 0
258 -3 -76 0
-770 657 -312 0
-775 782 -964 0
-373 772 -353 0
249 212 -376 0
-806 -365 -993 0
-2 379 -565 0
121 791 206 0
7 50 69 0
-100 -989 505 0
347 -381 460 0
-262 788 393 0
505 -333 -944 0
296 -942 649 0
-678 -125 -309 0
-54 -342 151 0
95 678 459 0
114 198 -231 0
659 -221 550 0
-381 -676 143 0
345 479 476 0
447 780 -839 0
-180 -437 -582 0
191 266 494 0
509 -73 -644 0
932 -686 750 0
652 -873 -100 0
-392 165 730 0
-795 -314 -159 0
497 278 -738 0
973 316 266 0
-697 -278 -74 0
-445 71 951 0
-657 859 -932 0
562 424 -103 0
-786 -98 458 0
527 -611 346 0
429 -362 -530 0
68 -812 -600 0
495 769 639 0
100 14 690 0
-496 778 315 0
252 -469 190 0
297 -38 -310 0
216 -219 549 0
-754 -2 505 0
446 -723 -983 0
348 -172 -822 0
75 -863 52 0
132 640 -289 0
950 780 301 0
-161 -122 -451 0
70 292 -475 0
185 589 -287 0
652 -934 647 0
648 437 -865 0
-65 350 457 0
600 184 -277 0
-382 353 202 0
-235 754 -217 0
775 694 -664 0
-654 670 -89 0
909 -899 -19 0
-174 -927 -73 0
869 -105 449 0
-60 537 601 0
623 36 -154 0
-17 373 -86 0
617 -312 960 0
-701 715 710 0
-352 542 -866 0
249 -26 533 0
-944 -700 -733 0
182 958 875 0
-310 -757 895 0
80 295 -994 0
-699 303 -164 0
-872 787 764 0
329 -533 -493 0
631 -329 309 0
447 -712 446 0
370 -759 13 0
-387 -487 736 0
-607 -310 238 0
614 -981 562 0
-745 -35 889 0
300 710 -822 0
-378 -730 -792 0
-613 729 834 0
76 751 -711 0
450 955 341 0
-539 534 -308 0
874 925 795 0
187 -113 983 0
806 -677 -676 0
-767 -761 83 0
-392 -450 -146 0
-490 209 -954 0
-977 918 694 0
80 3 -756 0
10 354 387 0
108 -321 -196 0
-80 179 -64 0
656 355 259 0
524 373 881 0
-784 -454 802 0
389 764 -171 0
-484 -373 -807 0
-659 -658 -550 0
-518 856 -240 0
577 497 268 0
236 -32 -379 0
-489 174 124 0
-553 382 -169 0
-80 714 -324 0
506 961 775 0
938 -178 339 0
17 927 329 0
-891 -910 -527 0
-529 -941 -355 0
-414 457 113 0
231 -248 -952 0
525 861 -776 0
-712 -733 -806 0
223 -563 -384 0
-733 -270 -175 0
703 388 580 0
-452 607 -760 0
357 360 273 0
314 -756 911 0
-915 -653 -836 0
-437 -418 -51 0
-38 -773 -485 0
-751 -203 936 0
-672 242 915 0
-382 -794 -950 0
855 307 -330 0
162 -266 11 0
920 -273 776 0
242 -36 -723 0
-643 -937 -310 0
556 386 109 0
104 -287 -187 0
357 96 -166 0
26 627 743 0
90 -112 -241 0
-224 183 948 0
-527 63 218 0
890 -588 240 0
587 805 -658 0
-182 170 -261 0
-656 763 353 0
-925 -808 -198 0
728 -808 281 0
-162 71 873 0
720 -729 728 0
-287 -820 45 0
-587 895 -2 0
-754 -83 755 0
-746 -382 424 0
653 790 447 0
-385 357 -458 0
-625 643 -691 0
105 739 -570 0
43 -632 -69 0
527 -297 68 0
939 -555 582 0
-257 700 -234 0
362 -871 -822 0
349 26 430 0
-340 179 -450 0
506 -972 -350 0
-549 29 914 0
363 -169 12 0
98 -779 720 0
-961 -131 811 0
-251 -646 -842 0
257 459 -380 0
622 38 -107 0
870 498 -126 0
-802 -434 -529 0
443 -269 58 0
562 -425 -500 0
-118 891 488 0
650 207 406 0
412 540 331 0
732 312 495 0
-582 392 367 0
-610 -361 372 0
251 887 -30 0
303 519 -65 0
-18 626 378 0
344 -967 585 0
-759 688 742 0
677 444 860 0
275 649 177 0
568 -758 -740 0
230 90 985 0
-222 -495 238 0
-313 -519 302 0
7 272 11 0
312 723 -981 0
220 649 836 0
-862 -537 181 0
461 937 165 0
589 -425 -69 0
-375 563 -572 0
-267 735 -330 0
-619 233 158 0
114 -601 912 0
494 178 -462 0
408 -872 -977 0
675 -303 982 0
599 854 -570 0
256 774 -901 0
686 413 463 0
959 533 -534 0
628 415 -321 0
-29 -326 -980 0
550 -611 -236 0
-266 231 445 0
217 -848 911 0
379 -727 -965 0
13 567 -586 0
-493 -247 766 0
71 -229 -466 0
903 50 -216 0
-840 -742 -205 0
415 533 -783 0
-335 776 -968 0
357 -754 963 0
-406 -360 77 0
892 -508 -823 0
-418 -744 860 0
-428 -846 193 0
-99 -857 875 0
719 320 -240 0
-517 887 328 0
181 705 -608 0
8 -155 891 0
-946 329 517 0
123 304 -564 0
285 -165 855 0
-12 763 136 0
566 993 595 0
-574 93 148 0
614 -224 435 0
233 19 -491 0
-21 747 -584 0
633 -754 869 0
-554 -892 500 0
-227 391 990 0
588 676 698 0
-255 590 -755 0
914 639 837 0
-672 -931 398 0
-53 581 -186 0
132 -487 -137 0
422 -82 -643 0
724 -784 -227 0
-396 595 951 0
-559 171 929 0
817 -389 824 0
-638 -735 -835 0
270 -502 -95 0
25 -846 -976 0
405 -532 -181 0
-623 -892 -449 0
-203 36 -186 0
-682 -405 324 0
683 -484 -594 0
366 18 -628 0
-390 234 43 0
-586 -260 159 0
247 -918 -685 0
-852 -468 -904 0
229 761 979 0
-88 -650 713 0
320 -848 -583 0
793 -799 846 0
-904 -224 -5 0
-831 -365 -195 0
-907 280 -666 0
-998 -109 -148 0
392 245 269 0
-866 -820 570 0
-42 695 -569 0
-820 840 -555 0
991 -636 -37 0
-238 -57 227 0
-645 -622 63 0
-607 481 -46 0
-657 731 921 0
590 -555 -539 0
-467 -464 50 0
-155 318 114 0
-300 -495 -330 0
659 -904 654 0
-277 67 -379 0
128 205 878 0
-694 -832 484 0
-388 -185 997 0
-456 -899 -500 0
511 -757 -806 0
595 -753 896 0
-287 709 747 0
-739 400 898 0
-754 835 260 0
634 759 896 0
-340 202 108 0
-886 433 42 0
531 -6 -389 0
724 198 -351 0
-88 122 -370 0
-487 -399 -585 0
799 410 -365 0
925 826 -754 0
-506 -921 -16 0
-595 -712 -251 0
69 897 488 0
-112 -754 679 0
-752 -414 263 0
-880 117 444 0
729 422 -362 0
926 -617 -41 0
-188 -767 -113 0
-303 663 480 0
-712 574 -198 0
535 865 672 0
136 723 -481 0
167 532 590 0
-342 -563 -262 0
-868 -393 -314 0
194 719 -373 0
-88 391 -994 0
914 -752 343 0
452 -758 483 0
57 805 724 0
-252 290 268 0
471 -407 898 0
-864 95 -414 0
569 -676 -479 0
-181 -379 178 0
-298 517 487 0
-236 -318 -39 0
824 -313 274 0
-245 741 -515 0
-789 660 210 0
221 -647 781 0
525 -751 936 0
350 -716 -366 0
-197 290 54 0
-527 593 127 0
183 -297 -331 0
-882 851 -332 0
-58 284 -377 0
-814 682 -580 0
-265 593 18 0
151 -620 -44 0
374 67 983 0
287 -582 395 0
954 488 183 0
567 835 -508 0
718 887 -568 0
-899 977 -465 0
-274 -626 -685 0
-21 886 228 0
609 608 -257 0
247 -119 -579 0
983 -904 -914 0
717 473 779 0
-550 -389 361 0
-343 -520 685 0
872 347 586 0
881 -517 -271 0
485 -591 622 0
-212 -560 -102 0
574 -13 660 0
275 -951 -209 0
-250 280 -242 0
-647 455 -262 0
164 -365 -416 0
-414 -626 -838 0
-912 -519 35 0
-602 510 377 0
-677 -749 414 0
-447 640 -25 0
102 844 -795 0
104 126 -297 0
745 940 -762 0
286 -543 -675 0
980 -478 -381 0
-984 965 484 0
540 -186 776 0
888 730 768 0
330 821 255 0
-620 -14 458 0
-635 774 736 0
810 -914 -75 0
511 -189 514 0
-546 557 -269 0
683 -834 461 0
-44 705 950 0
450 -300 804 0
-628 -138 -952 0
546 -20 -181 0
665 471 940 0
-413 -985 -424 0
-229 472 -241 0
-937 633 968 0
-494 -81 296 0
-196 -545 -686 0
-96 -212 -618 0
-360 -165 -8 0
-557 -370 -887 0
707 -261 -178 0
-872 483 -869 0
721 969 168 0
504 712 -103 0
-966 -164 130 0
-945 -212 -375 0
41 565 -177 0
-222 -730 -611 0
-162 372 -140 0
186 995 -323 0
407 -167 -367 0
-564 -119 877 0
-979 -18 415 0
-606 207 -684 0
440 83 961 0
-499 623 -611 0
108 -995 -570 0
-718 -275 581 0
-741 -561 153 0
-279 -627 -264 0
987 684 -897 0
-119 84 -956 0
-521 372 -458 0
288 -527 26 0
281 -29 679 0
-992 -814 13 0
-916 -27 -858 0
-8 -246 -296 0
12 -275 -20 0
-131 -55 -325 0
-619 21 340 0
-529 -715 778 0
145 -712 -544 0
489 -582 -449 0
-743 857 484 0
-425 574 -867 0
-791 -910 330 0
-979 776 -248 0
-489 197 103 0
830 736 -60 0
31 733 -720 0
560 97 -112 0
123 -920 467 0
-791 -968 916 0
-523 626 -633 0
795 656 165 0
-297 -566 -382 0
-724 811 572 0
674 -586 -143 0
868 343 120 0
814 215 212 0
-362 493 -164 0
409 798 -753 0
608 -711 -529 0
344 746 -543 0
265 -877 -829 0
114 973 -409 0
225 112 937 0
710 -103 210 0
-708 -865 -74 0
527 759 919 0
469 -929 606 0
-720 -936 -571 0
-228 351 -73 0
32 -742 -790 0
-42 -727 -671 0
-793 74 -693 0
-759 -368 -476 0
-97 -700 693 0
-382 423 -6 0
416 -434 -86 0
361 766 493 0
48 -444 -224 0
-978 400 -549 0
-212 283 868 0
802 -153 57 0
598 -295 -863 0
-976 790 -879 0
-666 -493 914 0
-838 772 962 0
416 -806 -897 0
345 831 267 0
643 624 156 0
-570 -639 -316 0
678 6 -642 0
-346 -848 667 0
358 372 35 0
494 -316 -238 0
-763 187 622 0
9 -219 839 0
431 -864 -713 0
538 -992 386 0
332 138 695 0
-807 224 302 0
729 -733 -715 0
-837 -861 227 0
-466 245 -312 0
-799 806 -185 0
-181 -163 -9 0
688 -901 -856 0
-861 117 598 0
-581 328 -515 0
310 -781 -886 0
652 -745 119 0
273 83 -603 0
841 -219 307 0
-893 508 -69 0
-782 189 -130 0
721 -166 -428 0
-634 934 270 0
745 -311 -453 0
-104 256 -269 0
30 480 -247 0
-339 933 -355 0
167 -758 -864 0
667 32 -819 0
457 320 815 0
511 -431 403 0
58 -800 149 0
-6 -597 857 0
-761 38 -6 0
-83 -869 -58 0
296 94 798 0
842 44 382 0
553 -735 -779 0
816 132 358 0
898 -921 964 0
-191 511 826 0
735 909 36 0
-534 -629 -610 0
-530 -477 -48 0
780 -408 897 0
-995 -744 -376 0
68 -850 417 0
396 -836 -644 0
41 299 647 0
65 499 -735 0
787 -127 -758 0
-170 665 -214 0
-794 -874 110 0
-762 158 325 0
569 -803 -971 0
288 901 -302 0
-385 -695 -314 0
453 311 -753 0
-342 327 -966 0
212 -397 -351 0
620 -374 -573 0
-227 -320 -758 0
-710 20 -931 0
403 -273 -718 0
935 520 286 0
-933 -615 106 0
-157 -63 438 0
-138 18 644 0
225 210 356 0
-117 246 188 0
-326 -862 840 0
-755 847 -963 0
-774 968 624 0
899 237 943 0
428 -563 986 0
-519 182 541 0
510 -719 552 0
601 -876 907 0
-561 -967 71 0
-745 271 -491 0
-979 59 -447 0
-888 -415 -384 0
790 -772 -437 0
-329 209 817 0
64 392 364 0
-665 659 -643 0
872 -304 -610 0
21 -184 -495 0
-489 655 -111 0
14 647 -620 0
459 -885 -645 0
292 65 -600 0
796 -836 -301 0
761 863 286 0
-344 -329 137 0
722 428 921 0
806 -690 165 0
-681 -267 -12 0
-72 -628 -187 0
-889 -99 38 0
304 -378 854 0
-929 -605 -487 0
802 396 -896 0
-37 -919 364 0
964 -457 -492 0
-462 -758 -422 0
-634 416 905 0
329 79 -908 0
-334 -882 -263 0
520 -401 -51 0
-956 -518 193 0
-271 -130 -618 0
791 -566 390 0
464 922 905 0
474 -845 -656 0
-590 41 -655 0
-934 226 -326 0
-673 -42 -97 0
-921 766 930 0
93 895 -860 0
246 907 857 0
447 416 -719 0
806 159 -428 0
454 -903 -145 0
333 -421 143 0
-49 -633 -909 0
876 326 -700 0
-197 47 598 0
446 -892 584 0
-237 -188 958 0
716 625 -112 0
220 778 362 0
-438 91 -265 0
762 -226 -3 0
-361 -99 92 0
703 -197 446 0
885 -859 17 0
310 -713 23 0
-488 227 -674 0
389 682 -786 0
-363 -983 156 0
650 687 -821 0
188 -414 -63 0
572 -843 -639 0
656 -461 258 0
184 745 -625 0
867 -633 312 0
693 -691 -635 0
52 215 494 0
28 366 396 0
464 836 -371 0
-695 183 -202 0
-35 -798 -321 0
-453 27 -273 0
-658 795 945 0
349 -384 -105 0
-6 -612 80 0
304 -906 -11 0
705 -861 -917 0
565 -774 -963 0
903 -795 -413 0
-565 -595 -34 0
36 -907 627 0
547 -448 322 0
-614 -377 -847 0
110 -182 -757 0
141 180 228 0
-35 325 203 0
-794 928 894 0
92 -613 -56 0
-263 736 -908 0
-471 748 533 0
122 -240 -825 0
869 560 -123 0
-842 939 932 0
-299 -737 847 0
316 -364 -928 0
826 195 374 0
-389 -223 -768 0
-835 310 -62 0
-561 339 20 0
100 198 645 0
816 -609 585 0
973 970 696 0
-93 559 -297 0
-789 123 -296 0
995 82 96 0
519 -764 419 0
869 653 -10 0
-148 915 -842 0
371 386 113 0
-181 -661 77 0
362 607 296 0
609 76 -348 0
-54 521 -927 0
537 -680 901 0
-927 266 731 0
805 -763 -206 0
942 -262 -191 0
468 789 -176 0
495 588 -53 0
-642 -746 -770 0
776 -833 397 0
929 -612 -664 0
258 188 -223 0
-176 -44 66 0
241 -825 889 0
-982 909 219 0
-88 -600 55 0
-262 -1 -961 0
515 665 -901 0
954 867 -234 0
-168 510 303 0
672 -252 -436 0
-280 -381 -618 0
568 -68 274 0
807 -648 -822 0
577 214 605 0
881 -439 955 0
645 -196 -247 0
921 -836 -447 0
482 -555 647 0
413 366 55 0
413 105 -973 0
791 -473 937 0
382 60 975 0
-757 484 422 0
41 -385 -288 0
-34 348 -368 0
-355 979 768 0
598 567 -364 0
725 527 -730 0
723 795 928 0
-398 948 378 0
-952 -719 -492 0
-646 -476 -232 0
63 -628 -117 0
40 -497 -85 0
-40 -83 261 0
33 -862 410 0
-459 441 -790 0
-508 797 -546 0
-380 -746 954 0
-658 -555 458 0
-12 -457 -618 0
679 -898 111 0
-108 -286 -709 0
148 -32 876 0
175 910 853 0
-591 80 -401 0
-146 -957 -63 0
-207 -960 -839 0
356 -421 -284 0
-211 -649 91 0
241 -375 150 0
974 17 -244 0
-86 299 -812 0
-883 -11 -416 0
-783 -149 189 0
-447 -270 -784 0
953 594 -357 0
-406 147 218 0
623 -627 149 0
-137 692 586 0
-621 -881 889 0
-380 543 -912 0
-781 -125 -298 0
898 986 856 0
-712 -513 -344 0
332 -113 -695 0
655 692 180 0
767 -370 -720 0
224 -162 -864 0
-138 -783 -56 0
241 -568 -73 0
376 409 284 0
-802 -274 524 0
-113 -706 428 0
-165 -698 -13 0
-105 -150 -110 0
418 327 -1000 0
-652 -316 329 0
1000 -971 28 0
-289 -895 -32 0
48 214 -276 0
997 -632 518 0
-579 752 98 0
148 -924 -152 0
105 480 -543 0
-317 -255 -446 0
-15 -884 464 0
78 -853 -325 0
2 669 403 0
-966 -817 645 0
163 -363 -373 0
494 -641 426 0
-158 764 594 0
905 -452 -9 0
154 275 -416 0
89 -495 -209 0
674 -315 -221 0
-613 522 -178 0
467 309 -369 0
-32 691 933 0
-174 -910 455 0
6 -979 -720 0
177 324 241 0
573 197 -347 0
-343 -837 -756 0
361 359 -440 0
966 -956 -360 0
-613 -900 467 0
-643 224 -164 0
218 703 -628 0
-387 -905 358 0
-717 -66 931 0
-853 -431 608 0
822 49 886 0
999 419 -509 0
740 -671 -320 0
992 -195 -784 0
-628 150 498 0
951 664 -313 0
416 -638 204 0
-845 928 -686 0
-462 -511 -155 0
-288 -128 831 0
658 -447 -71 0
311 -539 -664 0
-81 286 -582 0
967 -397 704 0
-396 920 279 0
513 -999 472 0
428 653 -823 0
356 -136 -792 0
-824 302 340 0
192 -208 -314 0
-307 -141 -995 0
949 414 536 0
-828 -930 -876 0
-153 925 -380 0
827 471 76 0
-647 944 239 0
918 43 792 0
821 -230 600 0
-317 386 -692 0
-61 -356 -514 0
-488 -157 303 0
303 -483 -845 0
510 -981 -666 0
863 423 -124 0
516 -571 -260 0
487 619 -56 0
545 -893 79 0
22 981 356 0
-584 -501 -32 0
951 943 -290 0
572 619 -817 0
-584 103 74 0
408 492 -548 0
776 638 449 0
661 -528 -50 0
817 402 896 0
-599 157 591 0
-995 -887 890 0
929 212 -765 0
-312 598 755 0
312 636 864 0
994 -992 469 0
-50 -114 880 0
642 -331 106 0
581 70 -635 0
524 590 212 0
189 934 -577 0
-287 167 292 0
-824 -449 342 0
788 -17 -388 0
317 421 546 0
384 25 48 0
-6 63 -984 0
-870 257 834 0
271 282 538 0
597 -923 331 0
-197 -964 687 0
340 -234 -537 0
-684 -98 910 0
-535 299 640 0
571 -857 930 0
459 -426 809 0
504 -658 -830 0
-666 357 -983 0
956 589 -969 0
-680 -858 -860 0
106 587 599 0
-443 -92 -328 0
-723 -471 459 0
-538 7 -429 0
-183 327 -302 0
902 8 610 0
366 -163 714 0
-588 128 -70 0
835 -551 865 0
472 366 810 0
-464 -19 -170 0
-998 621 289 0
435 742 624 0
748 456 391 0
-586 822 666 0
-838 -273 -386 0
-509 878 -659 0
-957 -408 592 0
600 -551 -937 0
-344 -239 -373 0
-73 87 142 0
798 974 341 0
427 -165 767 0
775 853 -473 0
925 383 285 0
88 -440 -218 0
-739 269 106 0
-792 349 -28 0
-279 -539 167 0
443 -266 -898 0
939 -385 -137 0
-178 -173 -978 0
-795 620 464 0
-481 357 672 0
-50 -169 -934 0
314 85 262 0
-136 -984 -62 0
886 -165 -300 0
701 680 -500 0
-122 -324 891 0
-464 -161 -882 0
270 -183 -972 0
244 -56 -603 0
390 937 412 0
-1000 -807 850 0
728 -562 606 0
191 794 2 0
-767 -809 492 0
630 986 -282 0
-119 -376 747 0
166 -750 -883 0
210 -965 -682 0
-203 279 763 0
-101 -577 -392 0
774 -957 638 0
-955 -966 978 0
838 -309 -391 0
-311 224 -991 0
-680 -505 -433 0
261 958 295 0
732 827 139 0
201 -335 778 0
-917 -111 -219 0
351 116 -982 0
67 -253 16 0
-850 4 791 0
839 -780 646 0
288 -933 705 0
534 -56 -184 0
-937 -302 -38 0
784 592 961 0
-566 -84 322 0
-662 995 222 0
373 -462 -434 0
644 467 -233 0
619 273 -476 0
47 213 -839 0
949 -297 -344 0
-963 -660 915 0
-755 102 620 0
308 -54 -339 0
505 567 -304 0
-870 944 68 0
8 380 -206 0
350 221 -133 0
-432 452 -67 0
-321 675 -218 0
-588 911 300 0
-172 -175 -562 0
661 726 -340 0
-993 516 142 0
-335 787 965 0
-32 -234 -73 0
281 -457 628 0
111 977 428 0
638 -559 967 0
492 780 463 0
7 -58 823 0
307 432 973 0
267 665 184 0
-41 -500 423 0
483 916 589 0
-744 138 -937 0
-60 988 631 0
222 -169 -883 0
896 624 -520 0
-239 425 219 0
-190 -719 811 0
409 -761 -574 0
-394 -32 -126 0
-594 628 305 0
673 64 -32 0
-527 -963 -882 0
769 113 -456 0
-733 -101 667 0
279 810 -801 0
278 680 -270 0
-849 -853 -379 0
698 -373 476 0
320 669 -548 0
217 676 518 0
-854 978 980 0
784 203 31 0
-899 616 697 0
-439 795 -823 0
-694 -235 43 0
-997 567 156 0
840 518 328 0
351 -512 838 0
-867 -710 -543 0
-416 -3 581 0
-828 188 -58 0
-670 908 243 0
-293 -229 817 0
-362 777 579 0
-679 94 329 0
361 637 982 0
-585 716 -475 0
-162 188 -254 0
-922 418 782 0
-583 467 -399 0
-916 670 -107 0
694 -933 110 0
551 -972 -185 0
509 -380 -855 0
501 767 249 0
-140 894 -564 0
-505 19 545 0
446 731 -523 0
-456 793 -430 0
-243 -113 -836 0
425 -695 -596 0
-252 -868 832 0
923 302 149 0
-523 -808 977 0
-633 -721 793 0
94 -918 -272 0
770 -400 -446 0
258 -396 -408 0
-381 -419 -117 0
-6 -701 -309 0
35 -948 -160 0
51 654 309 0
478 -207 -230 0
-492 -849 588 0
35 -819 -61 0
-869 204 109 0
-575 -444 -152 0
758 -859 -617 0
518 700 -47 0
-465 -237 -591 0
-209 576 529 0
-198 702 342 0
628 -675 -415 0
250 -277 908 0
-556 867 -130 0
-832 -671 165 0
-429 -944 521 0
895 316 -730 0
-243 -758 -416 0
62 792 -91 0
215 385 459 0
-529 607 656 0
825 -288 47 0
-921 124 960 0
-630 -857 -592 0
484 211 663 0
22 779 -593 0
471 160 -319 0
-279 -938 -382 0
-427 -148 287 0
-355 668 730 0
-153 289 -830 0
903 -295 -433 0
-413 507 194 0
303 977 -760 0
157 -878 -84 0
-792 -80 -832 0
-238 -288 -988 0
639 -632 983 0
-512 326 -770 0
-486 763 -57 0
-896 -63 -574 0
37 -130 -181 0
-986 543 604 0
450 147 392 0
-457 -765 86 0
-869 -856 -274 0
-986 982 887 0
598 -865 -635 0
835 -689 840 0
678 -13 157 0
-75 750 17 0
61 -446 590 0
-59 -670 210 0
-904 -774 -978 0
-803 -401 -855 0
453 995 422 0
33 -265 -63 0
346 -569 -730 0
917 -444 169 0
-777 244 411 0
562 222 326 0
279 350 801 0
-780 -908 339 0
-107 -82 -156 0
51 17 -318 0
-880 -144 -397 0
-851 296 -11 0
-942 161 820 0
-922 -256 -566 0
-517 -982 -317 0
442 397 -582 0
348 -983 -354 0
-101 180 538 0
638 459 503 0
530 -821 645 0
345 368 -852 0
-97 456 491 0
446 -67 -534 0
-161 -207 -105 0
937 254 -42 0
343 -890 -17 0
-268 514 -915 0
-22 753 -570 0
673 -152 -134 0
671 -420 180 0
751 129 -470 0
414 693 -786 0
727 775 370 0
846 -493 -893 0
894 367 89 0
-615 294 -255 0
-73 -252 961 0
-967 -191 -732 0
-947 -355 759 0
-231 -365 668 0
-412 -277 272 0
-310 404 860 0
-358 22 -445 0
404 -709 -394 0
-266 414 -17 0
-549 -340 -855 0
-967 277 125 0
-82 736 -753 0
-215 -422 -295 0
353 -761 -370 0
-475 -291 -958 0
508 249 -624 0
807 125 123 0
-507 805 -593 0
786 498 839 0
-505 495 -410 0
330 -263 360 0
284 -113 -963 0
873 621 973 0
911 -32 -894 0
648 130 48 0
-688 -214 122 0
-732 949 -552 0
-489 -329 543 0
291 473 733 0
-188 -378 -877 0
299 -313 886 0
-968 -694 161 0
-569 -140 -838 0
-230 456 704 0
-991 -223 742 0
-870 -789 -248 0
-504 629 -712 0
-562 -30 -871 0
-43 28 -33 0
922 -692 -248 0
294 -351 -495 0
871 922 -992 0
-31 -643 -504 0
549 610 863 0
-827 700 352 0
-200 -54 581 0
178 -394 -29 0
177 -643 450 0
676 -804 318 0
-175 -786 -862 0
-90 -598 -93 0
122 -151 -137 0
-366 -407 -199 0
-539 148 507 0
755 -482 -122 0
-794 -201 365 0
102 -819 439 0
-651 73 346 0
533 838 226 0
-858 114 -306 0
-541 -560 57 0
-630 217 410 0
-662 991 -325 0
99 942 243 0
157 -615 -758 0
-701 -280 -817 0
192 110 433 0
-889 -431 -876 0
-75 -912 -537 0
-63 -888 553 0
403 -253 235 0
203 -848 990 0
596 549 -240 0
-868 -244 1000 0
-114 -703 230 0
-727 -420 -895 0
425 -369 -534 0
998 -583 687 0
846 300 -360 0
-909 668 189 0
-909 721 481 0
-182 -787 958 0
-968 1 -648 0
497 712 -95 0
-999 140 261 0
875 -727 -418 0
-49 -975 613 0
278 -453 954 0
361 -362 -858 0
583 -832 765 0
897 988 -322 0
343 -455 174 0
590 -124 -484 0
568 923 718 0
-111 -768 201 0
-759 -723 -752 0
-730 -784 811 0
-133 880 126 0
785 -430 222 0
233 153 -707 0
901 959 571 0
-915 -127 251 0
408 816 -838 0
519 -525 -790 0
-159 -190 302 0
736 -940 66 0
643 -969 -135 0
-23 163 783 0
52 749 513 0
-374 -599 716 0
244 346 712 0
103 713 558 0
679 946 857 0
663 -833 706 0
111 923 -609 0
689 511 687 0
1000 -729 446 0
-762 -379 845 0
-476 -104 -785 0
-710 972 212 0
-899 -828 -107 0
531 -270 -481 0
-261 -358 -52 0
-731 743 -700 0
-275 -718 -377 0
751 559 83 0
137 764 -369 0
103 265 -623 0
-515 -523 542 0
-347 165 109 0
897 -396 979 0
-589 -999 -543 0
802 153 -344 0
-352 440 -779 0
754 -56 852 0
257 -341 -917 0
706 109 668 0
-360 -209 220 0
-504 899 -466 0
-155 -497 -179 0
-394 779 825 0
689 30 268 0
978 131 -505 0
591 587 697 0
-296 181 -901 0
-801 -814 -836 0
110 -310 649 0
145 -928 405 0
-508 -822 -676 0
603 785 -799 0
-38 541 8 0
665 485 -937 0
-796 -914 900 0
455 218 -631 0
-108 -490 887 0
-605 -914 217 0
-965 -162 941 0
-180 950 258 0
-986 22 -156 0
660 -537 -990 0
420 273 823 0
648 294 -509 0
-387 -910 692 0
426 651 -397 0
-987 31 982 0
830 784 420 0
-215 -207 197 0
280 953 -164 0
587 790 -400 0
-242 683 278 0
869 791 524 0
-634 -962 -558 0
-248 -734 -996 0
-863 -495 567 0
-321 819 541 0
-639 597 66 0
-736 528 -104 0
-955 162 105 0
-481 -355 7 0
-80 869 157 0
-110 413 734 0
-52 -854 149 0
88 -168 95 0
-703 -526 -885 0
897 419 80 0
-515 716 -52 0
-273 -126 674 0
298 -89 388 0
-42 -178 158 0
-133 -751 869 0
465 -497 744 0
-492 -168 224 0
-556 -518 -217 0
-47 301 -919 0
66 -282 875 0
368 910 -242 0
84 196 786 0
-695 250 -433 0
720 615 -61 0
-306 -281 -609 0
-797 502 -590 0
98 -972 427 0
-54 -40 -19 0
-183 971 -953 0
-11 -985 -117 0
-122 484 -683 0
-807 -649 946 0
367 429 -685 0
-752 -84 758 0
-152 -259 773 0
999 -156 -873 0
-421 -861 -53 0
648 -594 365 0
140 494 -48 0
651 -212 114 0
732 249 -228 0
75 570 -394 0
