p cnf 1000 3450
519 -621 -332 0
-562 -318 621 0
165 -582 314 0
-596 -784 345 0
-77 -310 162 0
881 672 151 0
-98 -555 -568 0
-280 412 -151 0
686 -380 -80 0
370 -55 17 0
545 -999 576 0
131 865 -361 0
-469 693 -428 0
-532 -859 224 0
-607 537 -319 0
355 -807 571 0
160 95 188 0
375 379 775 0
-433 -505 -435 0
490 -723 -876 0
910 -151 -426 0
-177 46 627 0
-722 585 284 0
387 -431 -737 0
-22 -330 -232 0
759 451 708 0
565 -72 -564 0
934 -6 -624 0
527 -514 -536 0
-100 843 582 0
163 -814 -205 0
-545 -303 -650 0
-470 726 61 0
-446 600 -132 0
-724 -456 -870 0
-821 -646 -202 0
-61 362 404 0
587 -614 -512 0
-903 -187 -952 0
-199 -949 -977 0
532 -193 150 0
-647 68 -911 0
-843 300 603 0
945 -234 -857 0
-270 -288 -569 0
-994 406 332 0
-719 887 673 0
706 -743 -713 0
146 -600 294 0
-855 608 -701 0
689 185 -292 0
-857 238 731 0
-438 -694 -601 0
-889 753 -131 0
20 182 -25 0
-10 917 290 0
171 -956 856 0
-898 -543 443 0
-90 799 -72 0
-55 777 -83 0
-367 806 987 0
520 -907 -614 0
671 830 -766 0
-348 -295 928 0
690 748 -138 0
157 -360 -107 0
-88 -265 465 0
107 -141 -776 0
-49 -548 543 0
747 -208 442 0
752 972 620 0
725 343 -606 0
582 606 132 0
296 -441 142 0
-959 -866 -895 0
-827 101 -465 0
-681 -227 298 0
586 -516 869 0
692 124 521 0
698 -673 -884 0
714 -473 658 0
627 223 590 0
-873 537 4 0
-582 640 -967 0
504 -579 470 0
-735 -651 324 0
-123 73 539 0
202 99 -248 0
-41 -819 -301 0
668 -21 -641 0
841 -932 -436 0
-690 -795 -186 0
747 -781 -291 0
-857 311 735 0
795 521 854 0
842 -202 662 0
428 -262 106 0
738 -53 -175 0
983 -152 877 0
503 -126 -448 0
-16 -371 -103 0
78 652 -905 0
-564 -587 336 0
674 -896 -932 0
40 936 -509 0
332 -440 951 0
803 -765 -602 0
-694 741 722 0
-861 -543 -838 0
887 -533 41 0
926 -619 -636 0
-605 449 -295 0
301 -827 -374 0
-344 413 -154 0
-446 874 934 0
647 -960 459 0
-436 -603 513 0
34 -250 754 0
-335 648 -693 0
930 843 956 0
451 -132 -461 0
-587 335 702 0
440 355 -117 0
-981 -339 753 0
-584 -635 -770 0
859 -486 11 0
-187 10 -169 0
364 -82 707 0
-394 -868 -682 0
-195 237 -937 0
516 796 816 0
243 269 -361 0
-857 -321 121 0
997 588 -558 0
-94 -337 697 0
-792 -61 -728 0
595 -114 -453 0
464 771 -284 0
-325 683 -404 0
-508 -205 -334 0
828 -110 2 0
249 55 -262 0
949 -962 893 0
-937 866 -127 0
-545 740 638 0
-136 634 792 0
384 735 912 0
-731 -681 819 0
-939 -568 -673 0
-489 246 543 0
65 -914 934 0
811 -407 -48 0
-382 655 188 0
860 -368 -951 0
-951 131 -944 0
-75 -520 135 0
798 -734 -214 0
-618 -12 924 0
-892 885 -832 0
527 -779 45 0
587 354 -272 0
848 803 -556 0
816 -226 -633 0
796 503 -124 0
-46 -889 -474 0
915 -801 611 0
457 662 -681 0
799 921 -57 0
-568 -127 395 0
512 -956 -634 0
-1 -746 71 0
-98 -169 -510 0
146 26 625 0
-20 -689 808 0
782 918 986 0
533 -119 -752 0
-981 585 -559 0
731 -933 -76 0
-918 334 247 0
445 129 -888 0
2 419 -48 0
-929 775 -598 0
414 -452 49 0
981 -904 133 0
-329 945 -612 0
600 141 649 0
398 -623 -119 0
841 657 838 0
455 126 187 0
861 -649 365 0
-658 190 598 0
-336 364 990 0
960 -254 372 0
-307 -883 -271 0
172 -644 -175 0
1 109 557 0
-709 -47 165 0
169 -295 -10 0
681 892 232 0
-230 944 -621 0
-525 -565 430 0
764 -624 643 0
301 -640 -345 0
-611 -589 -726 0
-705 955 -399 0
979 984 -108 0
-264 663 -108 0
272 64 -182 0
376 -790 -860 0
-957 -223 892 0
-890 -155 782 0
-11 -333 -376 0
-581 -306 -116 0
-271 -285 525 0
688 -480 -152 0
-118 230 -679 0
-587 314 -692 0
159 -995 -107 0
-282 -481 -926 0
-706 156 -744 0
772 635 667 0
438 817 -755 0
-806 399 499 0
-776 -848 -876 0
-103 -889 -523 0
380 -770 -823 0
49 2 -926 0
116 -573 -741 0
-908 -98 387 0
741 698 -196 0
-794 -719 -995 0
-798 -470 866 0
-564 -817 -562 0
-981 -937 200 0
-644 944 -323 0
903 791 -344 0
578 -927 -487 0
-252 328 -925 0
515 -244 909 0
550 -616 -448 0
458 -428 403 0
-824 383 240 0
313 -825 -29 0
71 -802 -558 0
978 -501 958 0
49 -72 502 0
315 194 765 0
-192 371 938 0
454 835 475 0
-67 -574 -324 0
-526 30 -428 0
397 590 441 0
316 -877 -337 0
434 834 158 0
-392 -755 -555 0
-326 220 791 0
363 651 301 0
-609 -404 322 0
27 149 523 0
-129 -558 -641 0
-846 -34 432 0
-152 -688 676 0
-676 -922 686 0
35 966 494 0
81 679 387 0
-968 -891 925 0
-236 348 372 0
-43 -788 681 0
241 677 869 0
991 -694 491 0
-267 -727 972 0
762 -894 -501 0
607 -817 430 0
487 -322 -548 0
608 372 -735 0
31 445 528 0
-520 273 220 0
-792 -886 -845 0
-521 -644 -4 0
-838 -671 384 0
239 785 789 0
99 624 35 0
241 34 617 0
613 438 -658 0
732 -991 -439 0
-326 -257 -209 0
-782 792 476 0
893 319 573 0
375 426 808 0
398 98 -785 0
-838 -134 -845 0
-731 -76 200 0
-744 -855 -972 0
308 66 -257 0
-409 -428 737 0
-219 -880 672 0
254 -356 137 0
-110 -335 342 0
-188 -160 -768 0
-325 816 -350 0
395 -751 -860 0
359 282 406 0
-365 -43 123 0
918 -624 123 0
139 -605 215 0
-479 -833 314 0
-333 -25 782 0
-371 135 364 0
475 736 -161 0
-438 -840 -274 0
-649 814 -675 0
765 -999 -710 0
-166 277 -667 0
615 -841 879 0
-469 55 94 0
-244 511 617 0
717 -129 139 0
864 962 -203 0
968 -150 -955 0
-542 616 913 0
467 980 -983 0
-901 -604 -166 0
-244 576 -231 0
983 446 -657 0
575 -731 3 0
-119 -378 -888 0
-103 44 895 0
296 -933 -236 0
-972 101 691 0
-779 -594 348 0
-501 475 727 0
-689 -208 -475 0
-259 565 -106 0
871 37 -202 0
-535 -953 -596 0
332 -442 915 0
129 -139 -309 0
87 235 899 0
-935 -497 686 0
863 260 651 0
-314 782 214 0
738 -298 -512 0
-237 -83 733 0
-744 26 -973 0
391 208 -693 0
-739 -896 713 0
193 -808 215 0
-487 247 -87 0
-602 119 -531 0
-397 -350 -40 0
763 -476 287 0
480 65 283 0
-264 601 286 0
-204 -487 766 0
-320 151 954 0
407 296 -991 0
563 558 -792 0
-876 -759 654 0
-514 186 406 0
-370 48 769 0
79 538 -751 0
365 -698 592 0
-967 -941 101 0
-276 -257 440 0
355 -272 184 0
-280 871 -885 0
544 384 -196 0
620 -724 -998 0
550 -944 -710 0
-409 -919 -507 0
-904 -819 116 0
489 859 -79 0
-773 -194 416 0
-915 673 513 0
-390 639 843 0
-767 -641 379 0
669 -762 54 0
-906 888 860 0
-970 75 368 0
787 -466 -653 0
-372 386 684 0
24 -150 595 0
13 -854 776 0
-515 -739 402 0
334 -279 -752 0
-227 938 -619 0
222 -279 612 0
811 -991 -822 0
-324 718 979 0
783 278 -266 0
-974 801 770 0
919 -338 -737 0
545 522 362 0
168 151 -390 0
101 760 681 0
-271 894 103 0
-381 -599 -438 0
-114 -819 -15 0
-388 898 234 0
-453 81 675 0
-70 -29 226 0
380 -377 913 0
796 -778 -696 0
-593 -443 885 0
-610 -993 -131 0
-534 423 584 0
-398 -843 162 0
381 954 595 0
141 539 581 0
-215 -570 32 0
410 866 -484 0
-55 873 119 0
952 -616 -707 0
-20 489 509 0
-470 869 -203 0
-599 202 -724 0
-91 -102 -368 0
776 416 425 0
-561 -598 -268 0
800 -912 -436 0
-130 989 346 0
-220 -71 -613 0
451 504 -580 0
129 -928 525 0
951 611 -253 0
898 -932 -477 0
-935 724 -636 0
680 -961 -517 0
545 851 526 0
-230 -923 -15 0
556 -474 -30 0
391 -762 -485 0
-614 498 843 0
-154 350 -4 0
-63 -168 -540 0
835 405 -177 0
170 -591 -500 0
-941 280 631 0
-628 807 -174 0
128 73 -312 0
649 581 338 0
687 675 -841 0
-403 -670 -506 0
187 -407 524 0
-583 682 64 0
-968 -83 99 0
-818 -688 -577 0
-758 -511 897 0
424 13 -982 0
6 -767 -575 0
-229 858 -939 0
272 349 293 0
-346 586 643 0
-923 443 -853 0
-934 247 261 0
-602 769 -528 0
-774 663 124 0
-38 719 -678 0
-733 979 830 0
291 375 -117 0
-898 -979 335 0
190 294 449 0
-936 -617 -484 0
-375 -458 -174 0
-981 -73 -925 0
479 -18 527 0
-597 237 -927 0
387 437 -121 0
-760 -844 -730 0
-639 -162 647 0
-105 -782 -35 0
894 268 -803 0
696 -219 930 0
-840 651 -604 0
796 -770 -114 0
-220 -525 -218 0
754 -256 -880 0
324 141 -634 0
-862 -709 583 0
762 -670 933 0
-635 -498 -497 0
-935 82 -249 0
22 -983 -928 0
-287 -233 -7 0
-806 -918 -7 0
-970 12 -88 0
32 -149 477 0
-414 116 -823 0
379 136 -957 0
731 -29 -893 0
10 -280 194 0
-941 -201 -422 0
-455 912 -97 0
-42 176 900 0
-680 -722 -989 0
1 50 -892 0
21 -64 -407 0
-111 398 377 0
430 -949 -323 0
290 -625 291 0
-749 -844 369 0
-607 251 -685 0
915 -933 -160 0
-633 -7 -857 0
975 456 -608 0
-964 -901 -973 0
451 138 -902 0
-566 467 -549 0
-987 -404 194 0
-750 10 -181 0
765 -833 322 0
873 289 -364 0
168 565 682 0
186 -124 774 0
-281 72 800 0
901 853 673 0
310 108 580 0
-862 472 203 0
-946 96 -916 0
-287 535 -348 0
727 -51 -794 0
-538 661 356 0
492 -668 -518 0
-380 -435 894 0
906 -820 -70 0
-853 19 -111 0
-536 -371 -44 0
-512 -44 324 0
104 657 274 0
-671 -918 858 0
239 443 601 0
-20 -282 -450 0
-23 296 579 0
199 846 923 0
-889 950 146 0
-904 740 388 0
-847 -229 -437 0
-739 -485 406 0
-840 -260 542 0
696 -390 -199 0
-387 -759 -653 0
-527 607 -271 0
772 -297 897 0
798 -338 -37 0
-664 -121 -577 0
931 -467 -916 0
171 -747 -141 0
-507 -464 -578 0
-644 -603 99 0
273 -31 -331 0
-913 251 399 0
461 86 79 0
248 143 -470 0
775 -367 680 0
328 518 -607 0
426 141 790 0
251 -821 -828 0
924 996 850 0
-992 -552 878 0
306 -50 744 0
-550 479 -94 0
261 -878 -870 0
-968 -737 111 0
-694 185 -192 0
473 228 -123 0
778 -319 -87 0
276 -107 -917 0
-887 370 -76 0
-998 87 130 0
-876 -996 -263 0
-837 -151 636 0
488 340 123 0
65 198 28 0
528 -709 -716 0
740 -248 786 0
195 -483 854 0
-788 -311 -964 0
506 -672 8 0
-915 -427 234 0
-537 -846 -568 0
-209 -280 -315 0
-685 -692 -210 0
855 -972 204 0
-720 236 -874 0
-560 497 -519 0
-471 224 -987 0
770 35 834 0
-283 -775 -909 0
240 -984 145 0
-658 -128 -710 0
-958 929 -121 0
-913 662 -589 0
-260 796 379 0
-272 -483 -7 0
-648 897 -915 0
-142 -173 -759 0
-580 -962 961 0
-352 374 527 0
388 -820 -601 0
605 -579 -630 0
-531 -741 -863 0
757 133 566 0
-108 -603 701 0
858 782 717 0
-210 -87 20 0
-518 704 424 0
502 77 702 0
299 -718 -888 0
-165 -435 25 0
-529 -836 -387 0
112 -476 -21 0
549 -244 -190 0
115 165 -485 0
-451 763 73 0
1000 -954 -330 0
-156 -409 763 0
721 856 -564 0
134 949 -358 0
433 -791 347 0
842 78 327 0
-216 337 791 0
-502 789 67 0
144 945 -261 0
603 209 111 0
-665 523 632 0
-405 -71 963 0
427 434 633 0
44 864 -638 0
464 -817 412 0
-226 -411 938 0
930 -291 61 0
282 -752 -385 0
793 752 -700 0
893 -699 348 0
-101 -932 154 0
977 -80 211 0
547 181 522 0
296 -539 908 0
-24 -426 -211 0
-668 -281 30 0
-936 -894 -823 0
312 -648 -497 0
-753 919 243 0
-414 -372 -7 0
-88 525 958 0
-908 -9 -893 0
-273 638 833 0
87 278 -43 0
130 -507 780 0
267 -246 -510 0
-462 -638 532 0
249 -452 -154 0
117 -279 -729 0
-228 804 46 0
279 -160 -186 0
-867 102 880 0
-25 -193 528 0
-950 102 532 0
-567 494 997 0
-309 612 593 0
-450 358 436 0
379 -269 313 0
581 129 497 0
863 -368 -591 0
230 348 437 0
-258 705 753 0
-22 137 -192 0
-987 954 101 0
-588 402 232 0
185 262 863 0
630 937 -15 0
578 -658 201 0
-920 -302 673 0
615 610 -800 0
239 624 323 0
240 163 356 0
299 -495 -163 0
-935 -174 -869 0
-64 -499 -108 0
-369 249 885 0
477 -418 -94 0
-670 401 -157 0
-474 -276 722 0
-681 -43 718 0
251 -159 -707 0
397 -457 -179 0
-829 -557 551 0
-239 -841 581 0
715 365 -513 0
33 -567 961 0
-897 -751 27 0
-952 -611 560 0
35 -5 -408 0
-206 660 38 0
-692 106 719 0
-714 -329 -412 0
-702 -124 -869 0
-664 327 -850 0
288 485 -486 0
-530 -106 734 0
-765 -262 -92 0
549 889 -711 0
-608 -367 -875 0
-984 -935 887 0
-644 139 546 0
-393 -1000 -636 0
214 690 -821 0
-109 624 618 0
-532 916 -192 0
445 -333 -77 0
-150 -67 255 0
-389 -628 -731 0
117 6 -536 0
843 -206 -749 0
9 -355 391 0
247 427 766 0
716 -532 139 0
-727 884 617 0
346 242 -904 0
399 -687 -948 0
282 -742 -736 0
550 972 493 0
985 944 21 0
-122 590 101 0
-236 -607 -78 0
-368 148 -774 0
-822 -40 50 0
-276 -679 580 0
-603 297 737 0
476 -112 -900 0
452 -621 -827 0
248 -633 79 0
958 137 -566 0
-964 568 -763 0
16 -859 810 0
-645 -294 390 0
-352 816 -455 0
-271 -988 -230 0
-663 910 -22 0
708 449 1000 0
458 -738 680 0
-532 958 -688 0
-685 299 954 0
-319 433 -776 0
-781 -437 502 0
991 -924 -713 0
706 19 102 0
431 -39 -855 0
-582 -285 -348 0
373 451 82 0
-763 908 890 0
995 -159 229 0
175 735 963 0
-514 -41 -461 0
989 213 -810 0
-221 -538 -395 0
701 -653 -272 0
887 -477 -902 0
-666 134 756 0
407 710 440 0
-35 702 -608 0
22 -81 77 0
400 808 329 0
99 -431 576 0
160 145 -774 0
-976 -592 -840 0
813 818 -257 0
-142 -7 -576 0
923 679 -218 0
-779 546 942 0
-708 723 576 0
470 -339 845 0
856 -134 996 0
-719 -919 -746 0
47 251 -481 0
124 597 925 0
-574 734 -423 0
-693 -724 97 0
-961 -130 -752 0
-467 -260 584 0
-95 -6 -350 0
-167 154 -983 0
868 178 -18 0
651 902 -673 0
917 616 -254 0
859 818 631 0
401 -854 -595 0
-111 849 417 0
-203 -52 800 0
-211 815 -986 0
-3 76 -329 0
179 184 -550 0
73 -352 -188 0
-339 526 -4 0
380 254 789 0
-249 -787 -885 0
971 -523 437 0
92 -160 -139 0
953 494 -858 0
-620 -523 -728 0
-802 745 689 0
617 694 -178 0
97 -994 181 0
-538 -7 -742 0
156 -632 -248 0
-995 409 -204 0
-1 -811 822 0
940 -587 -466 0
927 128 -153 0
-715 805 313 0
189 55 577 0
252 -221 -254 0
-591 483 -26 0
-581 -310 611 0
912 -455 161 0
-667 -379 223 0
-40 -306 903 0
-580 -419 -614 0
-42 -530 -443 0
158 792 -484 0
433 -506 276 0
572 -786 -994 0
13 458 -666 0
-938 -992 590 0
-564 -243 -144 0
-822 -589 -377 0
618 -756 -158 0
-925 -849 -707 0
524 807 251 0
-931 654 -684 0
-706 -66 501 0
277 -68 -336 0
750 -211 -334 0
445 -603 -754 0
-785 -895 -406 0
-921 618 942 0
166 956 -333 0
-82 -824 791 0
599 -20 526 0
-944 -75 -935 0
875 897 -235 0
576 -485 -899 0
-432 -322 66 0
833 656 603 0
-128 804 -197 0
120 -291 -369 0
-60 -761 -115 0
551 541 233 0
-241 -904 -669 0
721 -748 64 0
955 -471 223 0
-479 577 -950 0
-712 -837 988 0
783 -651 -900 0
-71 -970 -393 0
659 457 -503 0
378 -175 -104 0
169 609 -888 0
416 970 -914 0
-17 -546 391 0
-179 -396 -36 0
314 -587 890 0
180 -854 -631 0
-388 375 140 0
306 -24 21 0
600 119 503 0
-184 -962 378 0
-844 433 -32 0
131 -439 137 0
-552 -165 -885 0
389 408 51 0
402 -64 -584 0
-139 405 -744 0
61 353 -892 0
-229 -138 -113 0
-322 861 -98 0
268 -41 908 0
175 -754 455 0
736 -854 -490 0
-142 -916 943 0
891 -322 -354 0
-489 722 -382 0
405 -881 -437 0
826 593 65 0
954 -659 9 0
977 -691 362 0
258 570 776 0
595 964 375 0
218 336 -664 0
-382 -44 -837 0
853 440 -35 0
805 699 652 0
975 305 171 0
-530 175 -470 0
-861 -309 -979 0
-852 29 -641 0
-45 422 -695 0
-470 -576 -239 0
-854 -814 -23 0
338 857 216 0
297 440 -968 0
200 -659 -975 0
417 318 -897 0
150 -95 -864 0
-472 249 431 0
823 -719 738 0
558 -805 -341 0
125 991 354 0
-563 152 264 0
-207 -510 -473 0
864 629 -75 0
375 380 -75 0
74 -932 -328 0
-580 -655 -88 0
113 509 -158 0
288 -747 -286 0
-673 -549 -438 0
981 851 211 0
-174 468 38 0
-445 -71 -117 0
-837 -955 -418 0
937 -289 261 0
440 332 -571 0
787 421 -122 0
21 429 514 0
-83 617 -623 0
293 -999 993 0
-785 -810 -249 0
-814 23 -303 0
381 105 355 0
773 392 636 0
-600 649 -766 0
-877 -436 964 0
-943 752 -159 0
296 -73 227 0
459 766 -626 0
304 8 -794 0
244 -40 -338 0
753 8 -744 0
-622 -471 205 0
827 665 466 0
884 32 175 0
-817 -27 254 0
337 523 997 0
597 -51 -174 0
947 207 208 0
-5 545 405 0
753 359 299 0
601 285 168 0
-263 179 -721 0
-492 -970 -978 0
-844 -430 -217 0
-934 -804 -416 0
-27 295 342 0
-953 -712 796 0
812 631 -590 0
455 453 -27 0
-490 765 973 0
476 33 -787 0
603 446 964 0
500 743 -280 0
-628 -8 -507 0
-554 -906 -834 0
510 -185 -473 0
-863 469 173 0
-148 613 -530 0
381 -384 -700 0
-263 -635 477 0
974 531 326 0
490 -884 20 0
652 520 -844 0
430 474 -111 0
-219 -386 417 0
992 -654 454 0
-744 -947 101 0
-664 810 -345 0
-701 306 594 0
404 322 724 0
716 -487 -202 0
150 250 -159 0
-214 966 -555 0
-999 -139 -181 0
-462 -164 -207 0
862 -378 605 0
-829 561 836 0
709 -472 -163 0
668 -130 -617 0
470 851 -613 0
-880 -826 944 0
549 -744 349 0
-479 336 -371 0
908 -849 61 0
-966 587 -292 0
-195 -910 -871 0
921 733 -24 0
-796 -42 -963 0
-205 -449 -756 0
-10 -111 -860 0
-57 -76 -980 0
-498 -702 243 0
714 -551 325 0
-553 865 -157 0
479 -2 108 0
-399 -98 625 0
286 -985 83 0
72 -803 331 0
861 -460 607 0
-740 852 806 0
37 -891 -361 0
435 463 569 0
-571 -957 130 0
-773 737 -664 0
-565 912 477 0
371 -247 -858 0
105 369 48 0
-953 356 -924 0
-592 228 188 0
-756 -266 -87 0
47 -351 -898 0
-940 -48 -352 0
632 526 2 0
839 -357 468 0
-985 -953 -790 0
-835 -14 -633 0
911 -289 230 0
86 -818 -485 0
-883 404 -115 0
765 -437 -733 0
914 -559 38 0
743 924 971 0
-976 -579 853 0
-660 -72 -16 0
-426 -601 -266 0
-74 -401 -45 0
344 400 -768 0
-311 -849 490 0
141 571 -806 0
203 -302 -882 0
-899 -275 -763 0
698 779 709 0
104 -613 -285 0
-601 -680 886 0
222 -925 757 0
820 -931 -796 0
847 -509 -663 0
-481 453 -155 0
640 208 -666 0
-584 386 74 0
887 -894 -356 0
-773 -394 96 0
-179 -361 676 0
241 -57 -510 0
785 709 -484 0
865 217 457 0
427 498 624 0
-216 -587 104 0
447 294 -194 0
223 822 -781 0
-233 338 -629 0
605 -671 -236 0
773 298 907 0
-202 217 -134 0
-669 -231 -750 0
224 -927 338 0
-955 -616 382 0
-500 782 734 0
256 -378 -116 0
-121 -221 342 0
-998 -893 523 0
459 -939 97 0
305 -640 -801 0
-720 -214 -902 0
468 -61 646 0
-701 -294 735 0
476 -537 -349 0
-7 32 703 0
-50 -577 888 0
-344 -548 -403 0
-835 590 790 0
-822 -804 104 0
-612 884 269 0
-812 -925 -437 0
-414 -872 519 0
-825 -273 -960 0
-934 -816 657 0
-701 -980 990 0
113 -140 667 0
-473 656 -47 0
-403 -929 65 0
-712 -315 -502 0
619 922 -912 0
-94 284 -436 0
176 652 -536 0
-77 -443 735 0
559 324 474 0
991 818 585 0
253 932 -605 0
978 -903 -119 0
-67 616 -914 0
449 -253 975 0
-134 188 983 0
-538 692 992 0
726 39 995 0
593 745 588 0
-603 244 665 0
-609 -896 309 0
694 420 184 0
808 -17 385 0
983 -457 883 0
-616 812 66 0
464 536 -648 0
-614 481 775 0
-538 280 838 0
502 32 -812 0
-850 -878 716 0
295 -595 376 0
876 885 -593 0
673 662 -10 0
-811 815 -64 0
-522 29 -979 0
-736 -97 588 0
630 -236 -104 0
-712 -629 -393 0
-533 322 -484 0
-984 18 -57 0
126 -959 -777 0
164 -768 -854 0
622 -413 784 0
-274 629 479 0
-967 -814 398 0
232 -117 650 0
-813 -624 175 0
695 -837 -519 0
39 275 -610 0
-134 -772 596 0
-25 11 304 0
444 134 827 0
-289 199 562 0
-419 475 -510 0
-126 415 -623 0
289 -473 -380 0
577 533 -698 0
-928 -206 987 0
-779 -753 -4 0
81 970 -600 0
471 -724 -358 0
-289 611 -923 0
-809 97 -446 0
-284 -39 -249 0
426 819 468 0
-17 -654 -817 0
-215 -582 205 0
-459 -348 -941 0
611 93 -59 0
-947 -682 465 0
-114 386 -371 0
-4 117 775 0
-152 -464 -278 0
-19 -607 -368 0
-850 51 -755 0
-235 805 969 0
365 -693 5 0
-145 819 171 0
795 -601 521 0
969 -336 -98 0
789 447 -835 0
585 -474 361 0
705 876 564 0
-968 -619 -157 0
572 302 -933 0
-585 -523 831 0
248 -64 87 0
-234 -151 478 0
-39 -558 -752 0
526 493 398 0
490 855 341 0
-328 442 -604 0
458 -611 -755 0
-398 871 -702 0
373 -864 -187 0
53 -886 882 0
-441 -128 -887 0
623 -530 105 0
-684 733 20 0
-719 -112 527 0
-694 -13 -519 0
730 162 -396 0
767 439 793 0
100 853 -887 0
752 544 269 0
-336 -648 289 0
111 804 456 0
989 -276 -856 0
523 -324 86 0
-753 -267 843 0
-277 816 -682 0
-120 -786 398 0
-673 -91 443 0
23 611 817 0
-129 -933 73 0
138 412 -636 0
318 -297 534 0
-897 424 490 0
604 -582 864 0
-694 856 637 0
-656 -741 -498 0
-93 751 194 0
-582 608 -897 0
623 332 841 0
515 27 -306 0
980 -456 354 0
156 -629 -938 0
232 888 -783 0
-58 -127 -343 0
-380 802 45 0
-682 -329 -459 0
-965 944 604 0
-100 849 -452 0
-796 714 -596 0
-583 685 803 0
91 322 -427 0
693 352 305 0
663 127 -236 0
623 413 -698 0
-470 718 -554 0
-388 638 995 0
-50 -491 932 0
-721 -546 -178 0
250 337 -702 0
-968 -33 589 0
607 -729 739 0
-925 710 74 0
649 225 -552 0
-435 150 405 0
-822 678 964 0
-538 -339 507 0
661 -555 684 0
597 681 379 0
681 570 986 0
869 -130 -593 0
761 -175 -944 0
-35 874 458 0
-162 -937 612 0
825 792 807 0
-590 -777 -381 0
-233 -990 -810 0
543 981 908 0
286 -242 992 0
-635 577 -685 0
-986 313 -207 0
787 -547 -996 0
-858 249 -881 0
-489 302 -605 0
652 -735 -45 0
-365 -24 567 0
336 708 715 0
-268 754 891 0
999 -173 -960 0
-351 -563 807 0
-783 -571 -336 0
12 380 -351 0
-916 661 -601 0
-115 -974 -815 0
16 -27 -80 0
-415 871 449 0
410 -595 -494 0
379 181 -250 0
-13 462 633 0
181 899 -842 0
760 -606 153 0
-49 992 700 0
798 -165 -531 0
-434 -701 -231 0
-446 -683 -457 0
-693 602 -627 0
595 -938 44 0
944 -925 -669 0
215 -265 772 0
366 294 734 0
-868 -513 18 0
590 34 920 0
441 -546 -374 0
255 -707 841 0
-254 973 606 0
305 -650 -812 0
-159 -144 496 0
-861 133 672 0
-414 369 394 0
-70 -427 -436 0
102 -220 331 0
-699 280 -317 0
774 -861 -773 0
-840 -626 629 0
415 -218 256 0
543 -203 450 0
-93 264 560 0
965 95 351 0
-854 -408 -668 0
402 530 -208 0
93 -371 599 0
-85 -955 -640 0
-923 -245 -2 0
-865 637 -846 0
106 -216 -363 0
-94 458 250 0
-506 366 243 0
186 -814 -152 0
-320 963 -263 0
278 207 -746 0
-503 66 -795 0
742 -748 447 0
608 696 -293 0
-686 462 170 0
-808 -332 -615 0
-199 356 377 0
249 -601 -412 0
820 -322 488 0
418 -612 -849 0
356 -611 599 0
-712 -515 -926 0
-518 -236 -976 0
-762 359 -303 0
675 406 529 0
-235 -646 -906 0
160 -630 -496 0
-464 108 619 0
543 491 56 0
664 67 533 0
861 838 -909 0
354 -441 -597 0
252 -444 436 0
-266 395 -852 0
676 742 847 0
410 -269 814 0
-848 394 -650 0
636 316 963 0
-778 661 228 0
-843 -860 832 0
347 -243 749 0
-955 -429 594 0
713 -136 129 0
-270 925 -414 0
-297 -901 612 0
675 241 -57 0
-399 215 34 0
-744 106 -26 0
-755 -393 -110 0
-681 -497 390 0
893 -476 -877 0
686 20 621 0
863 -462 67 0
390 -285 612 0
-634 694 931 0
-97 384 -157 0
-412 951 -111 0
-522 138 415 0
702 348 -347 0
652 -228 685 0
262 -278 661 0
333 -596 -6 0
373 -891 -456 0
453 637 477 0
623 270 310 0
-873 733 748 0
-398 -712 559 0
-798 -174 61 0
-942 443 -72 0
351 298 881 0
-912 707 -663 0
562 409 441 0
381 680 -180 0
699 -789 986 0
-541 147 515 0
-250 -485 -926 0
-630 -93 503 0
833 410 -167 0
-565 -438 298 0
-430 -180 456 0
750 206 131 0
-76 974 -45 0
-846 -631 -382 0
36 293 -73 0
221 354 571 0
594 765 -242 0
364 104 -103 0
432 994 -386 0
-463 -970 -606 0
137 -209 -671 0
-270 249 -888 0
319 -312 -755 0
784 671 -676 0
878 -662 190 0
-689 -964 669 0
-528 -297 668 0
809 146 -25 0
-978 637 763 0
-870 -58 -833 0
-978 -822 -263 0
-431 285 -838 0
771 473 223 0
378 873 -242 0
443 -128 -286 0
784 -238 -357 0
39 -609 -776 0
-302 -552 689 0
-263 294 -331 0
-625 765 66 0
566 -545 400 0
806 -122 27 0
543 425 -891 0
-646 94 -522 0
655 -494 -657 0
912 378 344 0
410 -542 -611 0
-863 644 -88 0
-349 951 -776 0
-183 -896 748 0
585 644 -530 0
-495 184 -571 0
428 78 -933 0
458 -163 844 0
-950 -876 452 0
-108 433 -675 0
551 -778 -346 0
-583 -742 468 0
216 -52 -671 0
231 603 558 0
-390 243 738 0
-644 695 81 0
212 737 442 0
668 437 -36 0
993 -147 96 0
225 630 -894 0
528 -943 456 0
464 -525 -252 0
-430 -354 -261 0
562 299 895 0
628 410 178 0
291 -942 -791 0
-883 979 931 0
927 714 448 0
-725 -374 394 0
954 372 -458 0
58 632 -30 0
-870 725 400 0
-419 -210 424 0
-135 251 -42 0
872 950 828 0
-136 -959 878 0
193 345 -937 0
629 283 421 0
387 -330 468 0
-702 573 456 0
323 -553 909 0
906 -498 -754 0
921 -409 301 0
-731 317 -575 0
964 -635 -869 0
700 331 -391 0
240 -580 939 0
-496 600 581 0
-240 310 -307 0
-675 -49 156 0
-929 -178 -832 0
-159 -326 -213 0
-616 701 203 0
194 -543 152 0
306 948 -135 0
778 341 -387 0
457 -766 -430 0
-474 888 -393 0
941 -117 -238 0
373 44 821 0
-409 39 317 0
259 -87 168 0
537 573 990 0
-841 -193 -857 0
-240 -880 -25 0
-636 -499 -601 0
528 443 594 0
-905 -821 355 0
470 772 864 0
123 637 -585 0
-489 879 -469 0
-115 562 712 0
-369 -871 266 0
970 -729 676 0
667 801 -1000 0
55 -472 389 0
328 403 747 0
631 -926 -796 0
-399 285 -619 0
278 -8 565 0
419 406 969 0
-875 -874 -275 0
665 242 751 0
543 -306 798 0
-368 857 -641 0
844 636 296 0
497 -220 708 0
-468 -251 -508 0
335 -189 747 0
112 -520 29 0
-997 -740 -251 0
697 524 -466 0
591 772 886 0
633 -996 -382 0
560 -350 -78 0
912 -813 -463 0
717 789 -408 0
784 286 552 0
234 -614 -753 0
-858 364 -708 0
-648 639 311 0
992 -526 33 0
-906 212 692 0
-476 -851 840 0
-963 149 -150 0
218 -497 -912 0
196 96 -571 0
48 -867 -940 0
644 -419 311 0
848 -507 701 0
806 405 -903 0
369 -564 -434 0
881 875 211 0
-69 -907 130 0
97 108 -888 0
919 -867 141 0
-405 689 -845 0
-917 320 -882 0
61 30 -403 0
90 -74 454 0
-959 622 640 0
-553 -845 -717 0
-140 515 631 0
701 -227 -329 0
435 330 -545 0
708 -238 -424 0
-38 -912 63 0
558 -687 -675 0
613 -707 -837 0
353 -616 -947 0
-613 -128 706 0
-602 -838 -825 0
358 850 7 0
-204 510 -822 0
-946 24 -488 0
-276 -942 -645 0
24 115 -759 0
575 -580 306 0
231 -947 -407 0
-810 210 -805 0
850 680 -893 0
-597 -928 -379 0
246 734 262 0
841 -365 -951 0
-22 -949 489 0
-860 527 -241 0
324 492 433 0
-288 773 259 0
989 348 247 0
-856 655 -783 0
23 -73 -311 0
619 -370 809 0
-144 702 -59 0
-185 -458 1 0
-24 457 431 0
-68 -443 -637 0
-39 -28 -281 0
-270 219 130 0
341 860 239 0
367 -170 488 0
660 -986 -686 0
215 -410 -144 0
77 -856 106 0
-947 18 -414 0
-460 113 710 0
-244 165 48 0
-875 363 -658 0
-97 -356 -649 0
-949 218 -369 0
-212 237 528 0
-468 -458 555 0
89 -399 -525 0
454 720 426 0
-599 922 -374 0
219 -176 817 0
656 626 -921 0
-215 -567 213 0
-637 -992 864 0
130 951 -133 0
-932 -475 -320 0
984 759 157 0
287 -247 -471 0
142 716 529 0
-404 -708 452 0
719 861 -244 0
911 -172 -985 0
-318 -565 -123 0
617 -323 -819 0
-398 705 -418 0
-445 493 -76 0
-702 693 868 0
538 -601 334 0
807 327 -527 0
429 284 231 0
392 837 -558 0
-585 992 -52 0
70 -854 -226 0
98 712 -893 0
-793 -201 953 0
-868 927 283 0
773 -211 -196 0
928 621 683 0
-381 739 -230 0
-756 336 482 0
-47 586 -229 0
786 80 340 0
601 -394 250 0
917 260 411 0
-246 21 -18 0
453 -904 328 0
266 -559 -921 0
-610 -207 -790 0
-829 803 -137 0
487 142 -521 0
-490 -832 -168 0
825 829 -328 0
923 720 -354 0
-634 -958 774 0
763 899 688 0
-895 782 208 0
308 -637 -582 0
875 636 554 0
-75 -618 737 0
830 -659 -624 0
-193 312 -986 0
-120 -33 172 0
-796 544 -737 0
4 -840 557 0
437 -428 -66 0
-11 -708 274 0
-730 -892 669 0
-269 34 486 0
-252 853 318 0
859 416 644 0
-819 510 -862 0
426 -66 733 0
333 257 -725 0
529 577 291 0
-475 482 973 0
999 -393 -630 0
740 74 -510 0
-177 463 623 0
985 -190 -216 0
-692 759 -189 0
100 749 -906 0
-550 -344 308 0
678 -789 -627 0
149 -143 -654 0
122 443 586 0
-360 744 -281 0
829 -289 -80 0
609 35 175 0
706 647 408 0
-489 -273 -754 0
-805 -295 339 0
61 -209 -165 0
670 963 -187 0
309 -674 -652 0
-774 919 -314 0
-61 -165 -99 0
548 831 -686 0
-518 -499 124 0
-359 642 -419 0
494 -687 -356 0
-314 -28 -827 0
-655 -201 954 0
103 654 -543 0
-745 -697 993 0
-411 -66 25 0
-34 842 -202 0
884 622 69 0
5 -71 -566 0
702 564 294 0
883 -578 559 0
-315 36 145 0
361 814 866 0
-37 -566 720 0
524 -590 -491 0
569 -563 -113 0
838 -245 63 0
-457 -729 354 0
-945 772 149 0
139 303 743 0
-341 -20 541 0
-510 600 547 0
-907 872 -393 0
-486 867 -182 0
584 -340 -155 0
64 464 -474 0
237 927 -760 0
-898 -164 -652 0
30 46 -566 0
-787 -54 -940 0
252 -885 -343 0
-270 -759 -404 0
167 -723 -149 0
-353 53 510 0
-290 608 -329 0
289 -130 566 0
452 -294 663 0
-702 -246 -707 0
-880 853 -255 0
240 348 -477 0
-707 925 609 0
-371 123 712 0
513 836 70 0
-277 253 175 0
-320 -893 -515 0
-398 404 -524 0
905 403 -81 0
-847 -648 -473 0
-225 188 265 0
-192 -440 492 0
203 899 -326 0
-725 512 278 0
385 154 -632 0
318 -344 -108 0
832 -942 -193 0
-771 65 751 0
-433 685 -236 0
220 35 -200 0
228 521 607 0
450 525 -501 0
-155 153 686 0
-420 -463 166 0
688 767 57 0
-963 -236 59 0
-351 654 132 0
828 -910 855 0
520 137 -850 0
-34 -943 -797 0
741 -114 224 0
-267 -591 -796 0
-751 -780 89 0
-648 463 -493 0
781 374 380 0
555 641 -216 0
303 591 -784 0
463 -483 35 0
-694 -843 -507 0
-633 -512 -637 0
944 940 -439 0
-863 -585 -898 0
370 632 194 0
-270 380 181 0
447 214 666 0
-46 392 -504 0
954 -972 85 0
300 688 -973 0
308 -345 -6 0
-15 -978 -105 0
-85 -975 997 0
401 170 -366 0
144 488 456 0
-828 -868 -457 0
-25 -965 -938 0
750 -950 -850 0
-761 -733 230 0
-10 -185 71 0
-805 924 961 0
186 -965 -580 0
-264 -635 -90 0
447 -865 40 0
726 791 -499 0
-944 -565 -362 0
-894 544 -150 0
-351 348 872 0
498 678 165 0
-835 -770 -682 0
-540 575 -229 0
-955 -739 214 0
-981 -607 973 0
98 -358 259 0
-701 -840 380 0
399 770 -386 0
666 -762 -1000 0
-79 788 -245 0
421 936 -220 0
-326 -807 -213 0
-715 470 -455 0
-677 384 -806 0
-46 -683 151 0
616 235 -56 0
955 -677 963 0
273 -455 -912 0
-330 -387 -898 0
-900 -269 769 0
-480 692 96 0
-919 -140 636 0
-416 -889 -48 0
826 162 852 0
-103 -172 -307 0
637 187 925 0
-893 520 -370 0
211 221 521 0
87 -361 684 0
552 -667 47 0
644 789 928 0
180 282 771 0
-83 214 -849 0
468 -291 -977 0
745 475 -994 0
-662 80 818 0
540 -502 -858 0
-976 898 -922 0
121 638 -823 0
-380 328 376 0
-442 -999 -197 0
-320 293 375 0
944 -392 -857 0
-19 -916 929 0
-821 -443 685 0
-341 818 -64 0
206 -350 588 0
815 120 -855 0
198 -694 -436 0
882 -799 905 0
801 651 -93 0
-825 -72 -252 0
-934 902 -530 0
461 705 -288 0
-520 642 479 0
372 -836 -361 0
-661 -380 -94 0
-830 -59 612 0
-482 119 -907 0
733 -58 -52 0
-596 -327 -240 0
410 -282 -263 0
891 -834 -15 0
-925 566 -89 0
-806 393 387 0
-231 -390 -666 0
-210 450 -546 0
454 127 -203 0
-930 929 809 0
-640 318 -558 0
623 -917 408 0
75 -226 90 0
597 -732 -869 0
-809 -194 629 0
-365 -464 946 0
-854 -94 -289 0
-688 93 527 0
-216 888 617 0
551 529 180 0
517 770 945 0
-454 671 -952 0
935 -724 365 0
-676 526 617 0
861 -428 -925 0
440 211 903 0
603 -400 -704 0
843 594 489 0
-546 257 707 0
577 -696 -956 0
-850 -891 805 0
559 786 -581 0
447 -70 -284 0
259 66 -918 0
52 395 -304 0
-486 -174 368 0
437 -752 -609 0
206 -454 -344 0
723 748 -171 0
939 -16 520 0
-426 -944 -894 0
694 -676 629 0
-903 -624 885 0
115 -302 -130 0
-174 -553 -348 0
-759 -77 -498 0
466 -808 -263 0
-554 485 73 0
758 -839 485 0
842 -832 -856 0
-572 730 -898 0
-911 402 828 0
212 811 972 0
-785 -97 778 0
543 331 -99 0
433 131 -818 0
-779 -966 114 0
-768 242 415 0
859 -968 266 0
178 -192 905 0
-798 -511 701 0
-385 -677 -570 0
945 767 688 0
-196 876 -692 0
-573 17 879 0
944 272 684 0
-777 638 -724 0
769 -443 890 0
-328 143 897 0
644 411 244 0
362 -931 150 0
-196 -864 664 0
-387 184 744 0
-835 -466 622 0
-744 384 -156 0
84 502 304 0
-252 -660 -92 0
-7 -26 -465 0
-806 -885 913 0
-126 -668 224 0
-263 -309 -273 0
371 10 582 0
964 850 748 0
96 252 -883 0
-687 733 -525 0
99 -978 -540 0
503 -121 150 0
-761 -647 388 0
699 -596 45 0
234 183 966 0
-30 -357 491 0
268 -145 702 0
-715 -339 812 0
738 408 843 0
-356 76 821 0
709 868 -356 0
-641 -27 7 0
506 -944 -458 0
-982 616 385 0
-670 756 646 0
42 105 -88 0
-373 440 558 0
-494 -623 -666 0
108 569 -300 0
677 -520 964 0
313 -864 -414 0
-203 -834 384 0
-996 34 -374 0
-96 209 781 0
-592 365 402 0
-38 -391 210 0
-536 -81 313 0
-292 -704 293 0
824 -158 874 0
-162 -351 59 0
-609 -555 -215 0
-167 516 424 0
-243 471 807 0
389 -214 -621 0
158 -728 813 0
82 511 415 0
-581 272 -347 0
-979 510 -97 0
395 -888 -312 0
-241 717 761 0
-317 -498 -763 0
-141 865 -553 0
-469 372 66 0
280 790 -900 0
-668 -438 -702 0
-312 -406 78 0
497 -709 459 0
-270 -774 465 0
137 786 -321 0
392 -446 670 0
128 -833 872 0
703 -843 -715 0
-924 947 -765 0
950 -635 -451 0
706 -527 394 0
-864 331 -516 0
-739 -927 -821 0
-181 -551 295 0
-50 497 -796 0
-18 -990 -147 0
614 132 -604 0
600 -281 -439 0
-659 27 633 0
296 -941 -175 0
818 -947 -934 0
640 380 -516 0
-125 -28 119 0
328 -290 953 0
-264 333 -247 0
-553 -679 -701 0
-855 758 -663 0
-714 -442 -473 0
-459 -123 -803 0
609 -5 -137 0
604 -488 -154 0
-391 709 429 0
-410 -93 337 0
560 -999 -650 0
370 -451 899 0
698 -706 597 0
744 -945 473 0
604 517 736 0
153 -350 755 0
442 -169 624 0
-495 753 -521 0
-96 -697 -912 0
753 43 -147 0
-523 -385 741 0
850 822 -262 0
-855 -441 -76 0
-498 -212 898 0
-266 562 -573 0
-135 -491 -423 0
329 -637 143 0
-120 -14 -849 0
-516 -535 -982 0
77 -374 -978 0
-467 -886 445 0
-836 367 117 0
-133 -253 -404 0
-133 -279 -950 0
411 -509 -677 0
-310 -663 418 0
258 -201 538 0
-946 912 -736 0
-143 -427 -88 0
-653 95 423 0
-612 -956 -835 0
-508 -575 323 0
-176 -150 100 0
965 -279 -1000 0
132 442 872 0
728 -844 -381 0
831 890 539 0
840 938 513 0
701 -330 -209 0
429 -338 -403 0
-234 -939 243 0
-989 791 -7 0
52 -342 -269 0
925 -319 -565 0
422 295 323 0
-828 466 209 0
348 415 925 0
381 806 13 0
-933 -613 -221 0
667 789 117 0
-785 -455 617 0
-531 -460 849 0
-924 287 -163 0
-905 -599 634 0
-80 293 357 0
520 -146 401 0
-324 -778 -758 0
139 152 -841 0
-250 -914 625 0
64 768 867 0
783 80 -521 0
570 -413 803 0
568 542 -500 0
1 191 -248 0
419 -565 -689 0
-122 402 -924 0
650 -368 -296 0
-776 366 178 0
218 -776 162 0
-663 445 658 0
132 751 584 0
-608 524 -684 0
848 163 556 0
-186 -551 -362 0
708 -309 -907 0
297 -423 645 0
622 -345 -572 0
-848 -440 195 0
594 -819 874 0
-93 233 -950 0
153 -909 -365 0
429 -166 -758 0
959 725 -257 0
165 17 356 0
543 110 -331 0
959 522 908 0
768 -283 714 0
-14 -61 16 0
581 -968 546 0
93 -522 860 0
871 -985 873 0
-129 673 -759 0
-893 -354 799 0
-879 630 329 0
339 -530 35 0
-98 -235 205 0
627 -524 -493 0
741 -560 11 0
-702 895 -503 0
-827 576 -842 0
43 -286 553 0
-299 571 639 0
-527 -990 962 0
-942 -505 -39 0
-879 -669 -180 0
-544 693 976 0
999 -774 557 0
871 929 -630 0
598 738 714 0
151 533 -448 0
-352 416 478 0
728 -38 -502 0
-135 -822 554 0
-878 -170 -230 0
927 -195 211 0
418 -134 937 0
66 281 824 0
-419 382 376 0
75 -443 794 0
-904 121 47 0
512 -134 -735 0
16 735 995 0
-557 709 -57 0
-727 -887 -937 0
-175 -349 -259 0
-10 650 -67 0
905 12 997 0
987 919 217 0
56 669 288 0
341 427 -821 0
678 -349 -796 0
-934 822 835 0
219 -748 -546 0
-413 457 922 0
778 52 -636 0
-962 -125 986 0
-353 36 -238 0
575 237 958 0
617 78 -297 0
-90 -554 141 0
43 172 795 0
-87 360 402 0
-698 626 642 0
823 105 -278 0
-498 714 -12 0
-879 -255 -355 0
-237 -153 -170 0
155 -99 -494 0
-10 392 378 0
-757 -956 -619 0
-855 -389 886 0
-759 -119 554 0
754 -808 422 0
568 724 -728 0
805 253 179 0
218 -417 54 0
-951 -862 537 0
32 318 638 0
175 179 -186 0
-115 58 -56 0
-701 998 442 0
-205 -386 -674 0
543 -997 -981 0
-939 -283 -949 0
-217 560 978 0
-644 93 983 0
258 -397 935 0
-172 872 -426 0
-428 -659 296 0
990 862 -312 0
-483 253 -3 0
-403 43 556 0
938 576 55 0
957 702 -654 0
-13 -268 -365 0
-882 -985 281 0
17 634 -256 0
194 534 213 0
-140 23 373 0
-687 954 630 0
923 -832 -218 0
-206 -571 254 0
770 253 -950 0
99 221 108 0
-728 223 984 0
728 -927 226 0
424 875 -197 0
203 -265 -231 0
-599 715 -306 0
-910 -322 -553 0
-658 51 -72 0
474 641 -643 0
-138 543 945 0
-821 500 -935 0
-568 -902 900 0
-70 -94 55 0
169 -193 -507 0
-228 -560 617 0
104 716 609 0
-64 696 452 0
-247 186 -365 0
-919 -667 -256 0
861 -708 -127 0
-200 404 -680 0
532 -991 546 0
385 -663 436 0
200 -196 402 0
-276 348 507 0
-246 -265 -783 0
941 605 11 0
375 -341 -756 0
661 274 606 0
-182 -158 -736 0
684 996 -576 0
-230 107 782 0
-332 527 -308 0
486 488 632 0
-30 680 518 0
780 54 -956 0
-1000 721 546 0
-41 -904 515 0
-855 932 -941 0
80 959 314 0
-582 -516 -441 0
727 -63 843 0
-443 -992 432 0
596 639 -746 0
-864 -594 -59 0
19 443 385 0
-363 152 501 0
392 352 -637 0
52 -638 -629 0
-181 510 613 0
416 -704 -852 0
-980 305 697 0
383 -534 -65 0
-413 437 251 0
-221 332 192 0
166 635 -312 0
-542 -189 -17 0
910 623 943 0
429 -7 -739 0
-76 -896 963 0
-740 226 -410 0
-394 444 -650 0
47 -516 -491 0
593 710 146 0
868 776 -160 0
-437 -41 -554 0
880 -912 -801 0
-598 -690 -655 0
679 745 824 0
419 205 572 0
712 969 -472 0
732 326 409 0
-816 -183 142 0
-14 -805 -348 0
579 546 10 0
-749 -645 -968 0
-504 -108 26 0
-929 458 363 0
-740 -785 760 0
-346 965 646 0
-916 -158 -756 0
-676 619 453 0
795 211 -903 0
-359 386 420 0
992 899 -953 0
90 -716 542 0
603 -806 -900 0
577 466 -243 0
310 694 769 0
-496 546 554 0
-428 690 563 0
502 -156 196 0
-221 570 566 0
-176 848 -453 0
590 -72 641 0
938 751 -498 0
294 -918 -971 0
977 300 -536 0
-577 539 63 0
-412 829 -619 0
124 706 -696 0
717 450 -435 0
-566 -945 765 0
296 869 -913 0
197 680 -817 0
-275 444 -380 0
-691 -513 222 0
-505 -372 -952 0
-524 -363 -896 0
623 -897 188 0
-2 -767 -956 0
573 -35 877 0
986 -460 871 0
-331 133 -754 0
786 120 917 0
-508 848 259 0
-259 -554 -959 0
-136 -855 76 0
-573 -193 -722 0
499 -543 -589 0
513 -826 670 0
-997 930 410 0
922 960 -868 0
717 839 391 0
87 -177 223 0
-623 -985 -231 0
-744 -337 -21 0
-692 -230 838 0
-331 67 -946 0
-122 329 770 0
-255 -515 -214 0
89 -818 852 0
730 442 237 0
-302 -321 659 0
956 349 -77 0
374 -488 588 0
-441 -80 325 0
-18 580 -295 0
811 -347 -542 0
28 249 -243 0
-117 389 565 0
-920 240 857 0
-82 958 -570 0
68 -207 -349 0
602 826 27 0
-971 468 -817 0
-29 604 749 0
-592 -934 -873 0
-625 -907 950 0
-877 -479 -165 0
-327 -622 -396 0
151 550 -186 0
867 497 744 0
-435 260 -925 0
-374 -200 927 0
816 -263 -21 0
-950 900 192 0
-349 -517 194 0
-130 695 928 0
-557 -798 282 0
-154 -104 684 0
-259 -780 59 0
789 330 -650 0
-914 -596 764 0
-473 -960 162 0
466 -519 27 0
-929 -30 -123 0
-286 151 49 0
655 364 53 0
207 -229 150 0
-698 950 179 0
-945 -280 792 0
-985 413 -721 0
822 -735 -790 0
-60 834 666 0
698 -731 -309 0
207 -782 304 0
391 -180 564 0
932 20 -39 0
-758 -189 832 0
-846 900 882 0
-195 880 908 0
310 283 -899 0
-520 254 -886 0
863 34 698 0
102 743 -331 0
665 63 236 0
91 330 -11 0
-424 -541 -246 0
509 111 788 0
-347 -25 -67 0
-27 -297 344 0
-560 902 -421 0
30 -844 399 0
486 68 -408 0
-972 -84 -891 0
-865 -889 -140 0
-420 206 -911 0
-716 544 604 0
-374 -331 -355 0
867 -751 -117 0
-610 -572 -955 0
123 354 349 0
48 301 -288 0
-273 -794 614 0
551 862 575 0
794 970 60 0
-364 689 -546 0
411 235 662 0
-911 879 738 0
759 74 -103 0
-224 -967 279 0
-528 573 226 0
881 933 -253 0
-19 833 206 0
-66 -568 -954 0
-42 576 749 0
-978 443 -466 0
968 -905 72 0
-774 103 648 0
-456 -443 -884 0
562 -224 535 0
-367 -203 455 0
-713 -974 -896 0
113 -602 -900 0
48 912 175 0
-702 -971 505 0
858 572 -583 0
-684 -764 -242 0
470 -623 119 0
-702 -166 -336 0
745 -406 -450 0
-19 478 686 0
348 308 760 0
527 -309 -601 0
-330 -921 848 0
-628 639 -264 0
-91 -686 -555 0
-57 -950 143 0
-301 -196 -35 0
-228 -622 522 0
-44 -210 326 0
-409 288 394 0
450 20 -716 0
-233 664 -869 0
35 205 -747 0
142 -983 -950 0
-343 739 -240 0
693 -936 -208 0
105 -876 -859 0
-469 -647 352 0
-343 -798 767 0
664 158 351 0
-918 -322 -952 0
529 -58 400 0
-584 -10 -175 0
403 -611 -286 0
-273 126 190 0
-178 321 -746 0
748 721 767 0
250 -260 544 0
475 896 -535 0
209 108 -894 0
-679 492 -251 0
-879 -463 -513 0
873 222 307 0
745 -931 -724 0
-436 -541 557 0
-380 577 -422 0
77 -934 -667 0
-99 -707 -246 0
-322 -938 132 0
339 -5 28 0
-208 -489 917 0
-517 -331 -390 0
213 207 -406 0
199 42 -461 0
-956 -144 168 0
156 -630 563 0
-15 -120 -73 0
-760 421 -173 0
2 -531 870 0
-661 802 -747 0
-370 -634 -931 0
-213 923 29 0
-7 923 -48 0
-177 173 -886 0
209 492 -848 0
843 483 -555 0
449 -911 789 0
-83 -606 899 0
326 512 -32 0
-613 2 952 0
376 876 39 0
963 -357 -193 0
833 848 -616 0
905 -855 211 0
979 978 798 0
-398 -923 -701 0
-229 -522 -296 0
860 -260 179 0
-980 919 917 0
-335 -698 437 0
-826 910 708 0
907 -558 -430 0
71 -182 -546 0
-924 -725 -574 0
820 -718 709 0
-517 -402 -938 0
701 -389 938 0
-27 635 -243 0
-174 -952 904 0
709 -158 -375 0
-453 -554 62 0
-300 -238 -831 0
918 -88 497 0
868 111 270 0
-821 191 -419 0
850 952 182 0
402 -353 -367 0
-252 -678 293 0
673 -796 -708 0
-354 487 778 0
-583 -13 -36 0
470 575 480 0
812 -463 178 0
46 113 -416 0
-801 -306 573 0
802 -831 -696 0
819 384 -338 0
132 727 922 0
-546 984 -809 0
-840 408 -536 0
-380 -463 899 0
827 -536 335 0
580 560 -419 0
716 -288 783 0
-525 -433 -121 0
-141 -371 903 0
706 -813 -859 0
-965 -337 -212 0
-46 726 -376 0
641 138 848 0
-119 771 -355 0
217 -685 662 0
449 -351 839 0
-650 995 763 0
132 345 301 0
-115 -755 179 0
-191 -653 -713 0
854 161 940 0
788 486 -609 0
388 -885 331 0
-94 433 -211 0
-246 290 -874 0
-471 -380 -283 0
-226 -993 848 0
-754 291 192 0
618 -308 -833 0
-799 291 -307 0
-62 231 805 0
137 176 -742 0
391 -648 462 0
910 755 785 0
-839 -931 -100 0
-655 -593 840 0
158 345 308 0
760 26 608 0
-997 436 -627 0
767 -858 231 0
246 -161 -653 0
191 -764 -349 0
236 -975 194 0
-407 -878 833 0
102 -184 -984 0
-144 -3 -852 0
660 821 516 0
419 -986 -953 0
296 -25 958 0
190 -255 -324 0
655 585 -929 0
263 -390 -654 0
547 -526 157 0
-261 706 -253 0
-363 584 -136 0
953 245 -66 0
911 412 -335 0
-259 917 524 0
194 -342 505 0
350 105 529 0
361 901 -230 0
606 362 780 0
523 -861 510 0
594 715 -677 0
373 908 106 0
-757 806 -37 0
475 600 9 0
582 337 141 0
66 751 -137 0
189 -239 -925 0
218 316 -809 0
-318 -905 145 0
550 -83 934 0
-18 400 403 0
763 62 -609 0
-131 973 298 0
-490 227 132 0
-715 153 531 0
618 -716 841 0
-669 865 772 0
8 -579 -703 0
-749 495 956 0
-225 183 451 0
-704 103 -332 0
816 -959 -358 0
19 510 199 0
-83 -784 135 0
-627 -137 753 0
-876 -972 22 0
857 -701 7 0
-616 -756 -147 0
-611 450 829 0
501 -714 -841 0
734 9 292 0
-840 -959 769 0
859 343 -163 0
-754 -643 157 0
-839 -167 -619 0
821 -561 785 0
372 -773 173 0
-245 617 -738 0
-169 -375 -709 0
578 -612 -148 0
-177 -938 -855 0
-140 -324 -62 0
-142 906 -717 0
832 -906 245 0
815 -916 -390 0
-433 -353 -919 0
782 750 796 0
-780 617 98 0
-700 -940 80 0
-919 -96 -176 0
964 656 308 0
-466 -722 578 0
-117 105 761 0
-926 -587 805 0
772 -125 -419 0
672 379 948 0
59 -754 1000 0
-721 -671 -513 0
-595 782 -438 0
-545 -309 -213 0
794 -835 813 0
-192 -586 -783 0
438 981 -731 0
199 60 421 0
-698 -3 -719 0
-279 230 396 0
266 431 -490 0
818 624 350 0
811 -390 82 0
111 -69 699 0
-30 -136 514 0
394 862 223 0
-740 384 735 0
-513 49 522 0
610 382 -801 0
364 -217 569 0
740 467 -51 0
-330 276 -260 0
-514 329 -94 0
-19 -227 771 0
337 -348 -368 0
-708 -680 218 0
116 533 161 0
-905 -51 917 0
-274 -370 691 0
-534 -461 -87 0
-633 967 -46 0
-687 926 856 0
700 873 477 0
262 -665 -114 0
16 -988 -94 0
-611 -263 -346 0
343 -144 424 0
53 359 227 0
979 -335 -209 0
200 542 196 0
-406 -640 -448 0
-568 -752 -161 0
859 -653 -381 0
-90 -965 952 0
-462 140 -576 0
880 -918 927 0
-244 531 963 0
188 -802 913 0
-511 -684 -550 0
603 950 17 0
-51 -951 -373 0
-983 792 443 0
473 -346 961 0
-690 380 -410 0
913 398 348 0
845 -799 172 0
-103 648 342 0
251 978 -834 0
41 -754 993 0
86 402 561 0
-497 -966 -157 0
871 187 16 0
896 -848 1 0
515 -954 437 0
302 -642 67 0
-640 -904 432 0
271 918 537 0
-120 -57 856 0
-504 581 -720 0
129 -502 294 0
163 684 -304 0
-912 -30 12 0
394 654 745 0
276 498 240 0
726 -101 -16 0
-773 -168 -268 0
652 -477 935 0
-85 274 54 0
-951 761 228 0
-940 667 -613 0
-390 -816 260 0
-699 -127 -864 0
-871 -141 -391 0
656 -816 90 0
-186 80 -787 0
-217 840 984 0
-979 -634 -783 0
-602 886 -635 0
881 -281 -199 0
150 -496 211 0
-809 -510 -428 0
-586 58 559 0
644 -206 -573 0
309 212 -289 0
-607 494 396 0
894 36 219 0
-949 187 67 0
514 558 883 0
-537 198 -193 0
-752 -582 962 0
962 429 56 0
-722 41 123 0
103 -14 770 0
-482 -122 205 0
-273 -191 715 0
-272 -669 -49 0
-414 105 16 0
265 -634 335 0
-921 -636 -475 0
197 -707 -101 0
-583 -452 34 0
980 917 -182 0
-71 -795 -772 0
583 729 -142 0
651 85 825 0
714 112 -547 0
-745 203 684 0
316 793 -920 0
-236 906 -927 0
-539 322 851 0
671 871 857 0
-128 -759 -536 0
423 351 18 0
-277 -949 -407 0
31 -83 -999 0
-373 -973 726 0
-491 76 -700 0
882 -838 -889 0
654 46 664 0
819 344 663 0
-624 -555 491 0
565 846 -563 0
-710 -328 411 0
850 -406 394 0
-626 -639 852 0
503 -53 894 0
-6 340 -764 0
723 86 -542 0
-477 -658 -995 0
352 993 624 0
649 867 -201 0
-280 519 -48 0
-87 -592 825 0
-843 -671 -661 0
558 -774 408 0
-544 79 -393 0
965 169 617 0
-183 -221 511 0
118 -636 -530 0
460 -586 -617 0
744 202 -953 0
859 934 641 0
942 -768 -65 0
-168 535 777 0
163 -91 411 0
783 167 101 0
-615 187 676 0
795 250 35 0
991 896 -393 0
577 -200 982 0
866 211 120 0
-935 -558 -267 0
-356 268 -674 0
-209 867 73 0
686 -381 633 0
159 255 226 0
-602 987 -729 0
-988 -65 658 0
886 -510 -827 0
878 -167 -759 0
936 -112 660 0
-657 230 345 0
255 543 798 0
-731 -560 -94 0
-357 -980 -15 0
103 342 -626 0
40 -372 442 0
438 -432 835 0
554 -742 625 0
920 513 -16 0
8 192 505 0
-501 413 -912 0
978 14 -777 0
-227 -152 -129 0
906 -72 562 0
177 -656 350 0
-965 -772 -624 0
537 -292 -606 0
-197 -272 340 0
307 -59 216 0
-407 -867 932 0
-702 929 -298 0
258 -710 534 0
717 -903 688 0
772 -25 31 0
-104 -225 40 0
487 422 -11 0
789 -33 946 0
465 -521 -914 0
280 -391 -712 0
-342 214 -797 0
246 478 -318 0
-82 -897 -728 0
-162 399 -881 0
-191 -215 673 0
-54 233 -16 0
716 -901 222 0
-434 -313 539 0
-163 945 -946 0
-597 -896 -307 0
772 -782 790 0
-652 215 723 0
806 225 373 0
70 310 -53 0
-242 634 -79 0
387 -979 820 0
-530 -673 671 0
-857 -486 -483 0
-995 -69 284 0
146 -497 74 0
616 420 -310 0
428 836 -594 0
-985 942 -863 0
-2 -551 -433 0
799 634 818 0
-27 437 315 0
-456 -806 -770 0
106 806 -945 0
-221 -382 -503 0
707 571 157 0
-967 288 -991 0
18 241 549 0
-974 -500 -430 0
-919 -157 628 0
166 -932 -71 0
431 -306 -575 0
729 487 -717 0
380 870 -582 0
-13 -293 -630 0
783 -824 703 0
831 19 516 0
965 -511 295 0
523 483 -849 0
-817 -507 -814 0
-787 -367 637 0
792 403 245 0
-453 531 -689 0
-701 62 -863 0
738 -823 -385 0
-311 -929 -522 0
-443 -337 -964 0
522 -548 638 0
-120 -750 -627 0
595 -316 -732 0
519 170 538 0
306 979 987 0
631 -511 -947 0
-739 -562 -385 0
-808 -942 400 0
-838 941 3 0
560 307 613 0
875 -110 -847 0
421 533 -650 0
-448 217 -741 0
-325 -764 -784 0
28 -185 668 0
871 196 -647 0
568 -842 -241 0
-912 610 239 0
-559 -751 169 0
445 919 -667 0
541 -736 57 0
184 141 -646 0
-916 260 -421 0
-837 -881 -267 0
-718 -288 -210 0
-436 -865 -399 0
473 701 113 0
-523 -591 795 0
-448 -482 147 0
-208 -468 617 0
348 -413 355 0
805 807 -724 0
9 313 840 0
853 350 755 0
484 703 -408 0
-417 -628 -67 0
-866 -223 -446 0
-433 -451 275 0
635 -78 -922 0
729 65 573 0
405 -924 -894 0
496 -266 -894 0
-27 -881 26 0
903 90 313 0
556 885 -163 0
-420 251 517 0
503 -442 60 0
845 -224 347 0
-304 -576 344 0
668 201 954 0
835 736 -337 0
253 -108 -608 0
281 -370 569 0
320 852 429 0
993 -425 845 0
480 -855 133 0
-277 620 789 0
121 540 -624 0
-473 -742 399 0
883 885 -388 0
562 549 -251 0
-63 987 590 0
-298 -223 -983 0
397 71 29 0
124 -132 712 0
11 508 429 0
-679 428 -957 0
-178 -32 -185 0
131 -467 -737 0
55 843 -833 0
979 703 -435 0
-766 102 659 0
-175 -323 682 0
-368 -885 -565 0
-927 527 -970 0
775 -807 42 0
-550 272 -30 0
-753 -918 464 0
-459 193 752 0
-513 312 -456 0
725 -647 -471 0
339 -885 647 0
-243 -372 -794 0
-767 -671 17 0
-18 -909 613 0
-407 -885 442 0
-146 350 -55 0
134 -198 232 0
937 -309 38 0
108 681 -338 0
112 -322 -478 0
63 -71 974 0
741 643 509 0
178 -592 -881 0
441 512 -755 0
-549 -238 -938 0
-801 -758 228 0
744 -94 694 0
281 -886 200 0
-244 -976 942 0
-746 -47 -96 0
-407 -136 -900 0
-156 -546 953 0
-197 -757 -949 0
-179 894 -723 0
-426 288 499 0
999 -351 14 0
778 192 301 0
213 -489 -279 0
-615 -44 225 0
638 -481 590 0
-664 -150 102 0
157 661 345 0
724 887 -618 0
-489 411 260 0
-227 -230 889 0
-896 -123 -578 0
-806 -805 -27 0
993 -683 820 0
832 416 -57 0
1 -437 413 0
-141 -360 -452 0
203 -126 -778 0
-911 44 -123 0
-599 -3 301 0
17 316 782 0
418 313 -865 0
-76 -337 328 0
686 -38 -808 0
-406 664 522 0
-584 -304 -107 0
83 855 642 0
985 958 -335 0
270 -703 -364 0
-116 438 223 0
-923 -446 -361 0
-77 -608 -790 0
-843 241 -862 0
-528 805 658 0
220 -109 781 0
118 309 203 0
398 -962 -968 0
-518 778 -340 0
-568 -414 899 0
427 780 832 0
-759 978 -540 0
174 -90 497 0
-663 -346 206 0
-349 -61 786 0
596 -393 -870 0
-396 -470 -903 0
646 -180 28 0
-581 -766 -549 0
-797 164 524 0
-305 -128 -733 0
814 -42 817 0
799 463 -871 0
-501 237 -734 0
-17 -587 564 0
500 488 967 0
-101 -63 -517 0
140 814 187 0
-120 -612 826 0
-837 -715 361 0
-680 -284 -484 0
-58 277 -861 0
142 516 672 0
397 -320 168 0
991 310 -878 0
-356 585 -667 0
-195 -194 -27 0
999 979 -718 0
421 455 411 0
96 -797 244 0
-201 975 602 0
-499 982 -582 0
-855 -849 -259 0
-871 -172 -635 0
-290 -830 139 0
185 -106 945 0
-132 88 -503 0
-383 448 107 0
-543 524 -854 0
-156 -908 611 0
-921 -696 616 0
-693 222 854 0
-47 923 664 0
625 -653 728 0
-180 -959 170 0
119 848 -8 0
984 -18 699 0
-117 -866 973 0
483 295 644 0
168 -934 664 0
-642 318 851 0
-116 -986 505 0
772 477 -875 0
-210 578 324 0
-728 459 188 0
336 -128 -789 0
949 943 807 0
-137 572 -492 0
365 -999 876 0
318 -175 489 0
-61 935 -288 0
-488 462 873 0
-826 -12 282 0
132 289 492 0
445 -353 -512 0
860 312 162 0
-326 747 415 0
-575 -453 621 0
-958 752 -550 0
655 745 -726 0
457 772 -804 0
79 834 -660 0
186 -538 -258 0
387 -488 -358 0
168 -11 -585 0
-548 837 -777 0
485 266 420 0
-745 -816 15 0
523 133 -194 0
19 919 -686 0
485 -846 -610 0
-928 -841 -770 0
295 846 546 0
-652 -923 338 0
625 130 -646 0
321 986 51 0
710 55 -134 0
-856 964 613 0
-715 387 914 0
-131 922 987 0
-99 226 -283 0
-281 500 545 0
828 -594 429 0
-943 638 -381 0
-233 667 -579 0
825 212 -339 0
-553 -39 -386 0
143 -866 -565 0
-830 -208 -679 0
-519 -998 848 0
-937 246 -827 0
560 -763 -985 0
-955 -965 -125 0
111 851 -142 0
-744 -464 -316 0
828 585 106 0
397 -510 -269 0
687 542 455 0
-194 220 943 0
-427 -565 521 0
-725 -242 992 0
714 -170 91 0
363 -394 667 0
148 -198 9 0
906 442 -216 0
-85 567 695 0
-265 558 -614 0
-333 227 569 0
913 843 -798 0
-488 476 332 0
485 389 990 0
-78 -543 804 0
751 -240 500 0
997 -572 625 0
21 774 391 0
-430 -892 -958 0
237 -577 703 0
296 -88 61 0
76 84 90 0
-180 -673 -145 0
176 -213 -365 0
468 599 -161 0
133 964 -477 0
909 145 -516 0
-481 31 487 0
408 240 636 0
147 794 -124 0
-243 -691 421 0
-393 318 778 0
259 -722 332 0
-468 -820 216 0
-810 -667 156 0
-381 401 551 0
596 -212 -332 0
-734 311 928 0
-29 533 -817 0
543 -642 -286 0
415 -66 -840 0
-96 -428 296 0
795 -3 -594 0
264 43 -414 0
-362 -84 -80 0
896 644 -853 0
-65 954 437 0
-317 -104 -230 0
197 -629 734 0
582 496 501 0
-546 -702 -24 0
701 -80 26 0
685 643 937 0
-281 817 -838 0
617 590 -318 0
-172 -999 -319 0
105 777 -879 0
-553 -265 331 0
-267 451 342 0
58 -147 623 0
-307 -351 227 0
-398 -407 -169 0
-637 -44 -47 0
-184 483 607 0
-60 260 -528 0
-386 -34 543 0
177 -553 -325 0
-773 -372 354 0
688 -197 -203 0
-256 871 135 0
626 129 154 0
2 -71 -358 0
-530 201 885 0
-236 387 -520 0
-862 -895 469 0
317 -56 -29 0
-409 636 -148 0
-460 149 -446 0
-76 -259 291 0
-650 -247 -313 0
-151 -187 869 0
118 838 -918 0
-43 853 881 0
-796 -925 -121 0
577 -997 19 0
-643 434 -381 0
-173 477 942 0
792 887 -880 0
764 -254 -608 0
-589 92 754 0
149 -743 28 0
-862 -226 199 0
216 -315 690 0
606 797 172 0
114 -858 -530 0
997 -217 -772 0
799 726 -102 0
806 716 -177 0
-761 -976 522 0
-292 517 868 0
-979 373 943 0
-146 764 14 0
719 90 931 0
-431 -234 824 0
-589 -760 -825 0
769 -205 935 0
-17 341 -657 0
277 55 -439 0
-964 -787 -930 0
-373 -47 768 0
395 198 764 0
999 -109 -904 0
185 440 -980 0
-538 169 543 0
181 614 84 0
-246 -437 -671 0
-421 -488 896 0
606 830 -557 0
694 -402 -333 0
-70 -444 -606 0
-375 -101 -152 0
348 378 155 0
-800 -119 960 0
-954 730 -706 0
930 -575 892 0
154 -789 -334 0
-868 -34 359 0
-277 749 243 0
-346 -553 21 0
413 -333 -941 0
-218 -676 533 0
-664 187 489 0
-940 843 317 0
-218 -548 607 0
246 -1000 17 0
645 -651 758 0
435 -495 -534 0
385 -670 825 0
-655 -807 129 0
-349 385 -468 0
-550 -52 347 0
171 -890 -995 0
-690 -622 395 0
-205 661 198 0
938 -866 229 0
956 -598 -643 0
676 187 -12 0
-488 40 550 0
252 -329 -523 0
788 -444 -68 0
-354 -487 892 0
-964 903 685 0
924 795 932 0
208 300 563 0
491 -86 -549 0
143 -872 754 0
647 -643 -241 0
-5 13 523 0
156 -204 -258 0
-305 447 249 0
-690 333 -108 0
-698 -340 633 0
476 -386 770 0
578 -607 258 0
183 -736 -206 0
401 -568 321 0
552 441 -899 0
78 792 828 0
202 451 -351 0
-989 -688 -865 0
-942 169 -933 0
-455 528 366 0
441 722 -629 0
-66 -118 219 0
353 38 372 0
-70 -182 -590 0
568 848 -771 0
450 -465 -161 0
616 193 149 0
-613 -460 911 0
-30 -532 -232 0
656 -597 354 0
293 -673 490 0
848 -185 203 0
794 -188 57 0
438 -444 549 0
604 435 -650 0
701 -58 -837 0
614 -673 228 0
-946 -142 965 0
-79 -585 -6 0
716 796 5 0
-54 974 929 0
85 168 849 0
166 567 -979 0
678 -887 -814 0
-162 645 -112 0
358 591 -746 0
-787 581 -547 0
412 48 940 0
198 -743 -433 0
803 748 408 0
-332 -276 171 0
357 18 761 0
-682 -74 262 0
-526 249 -732 0
355 591 947 0
-979 505 -916 0
276 -254 -826 0
471 814 362 0
868 -840 134 0
680 -987 -529 0
-172 -779 634 0
-914 960 586 0
263 -39 331 0
-168 -454 -280 0
-805 333 -88 0
-249 -52 143 0
291 430 -194 0
-841 814 793 0
847 730 707 0
980 939 -381 0
703 913 230 0
461 -105 806 0
-238 -43 -39 0
435 125 -558 0
-333 392 149 0
670 993 -896 0
-454 465 323 0
-857 256 694 0
90 -430 945 0
-901 -227 400 0
456 -574 172 0
640 -610 641 0
-915 -398 -735 0
525 709 -635 0
728 -733 -449 0
619 484 -215 0
-387 600 -985 0
-326 -502 39 0
-655 492 232 0
-284 363 925 0
986 976 177 0
387 588 -752 0
-528 -309 -226 0
-683 -663 -985 0
-406 876 505 0
-729 -470 -57 0
-855 -966 341 0
139 709 -171 0
279 -597 343 0
354 273 -443 0
-728 -820 -54 0
638 987 742 0
195 -142 -975 0
470 -850 861 0
63 -699 -28 0
883 556 54 0
-381 424 -282 0
174 456 -650 0
697 530 336 0
-39 -682 772 0
-711 682 -565 0
692 -478 -855 0
-184 -959 -467 0
-573 -604 -826 0
-728 -752 -509 0
-176 -956 -24 0
-476 498 -929 0
-635 40 151 0
-199 -991 -829 0
99 365 -78 0
855 129 574 0
-125 949 116 0
-878 410 -213 0
27 443 -540 0
996 808 -383 0
-914 -323 196 0
219 253 59 0
467 -668 154 0
-688 -708 -954 0
46 -393 403 0
907 -680 -26 0
478 -265 -127 0
175 -658 564 0
-373 -827 147 0
199 95 -876 0
-417 231 -9 0
-109 182 11 0
973 309 999 0
-844 -452 -607 0
-496 -897 433 0
846 -624 -666 0
-774 160 -259 0
-476 627 -310 0
-966 28 309 0
-353 230 -542 0
-970 320 321 0
152 -748 634 0
-487 -173 -690 0
434 964 661 0
400 278 -498 0
-481 -290 -688 0
-127 691 -251 0
-810 641 -5 0
184 -626 800 0
-100 306 -454 0
-234 977 707 0
811 234 913 0
968 606 -179 0
705 153 328 0
-504 524 -132 0
835 850 287 0
-460 -51 -508 0
77 -147 -856 0
