p cnf 1000 3450
333 -854 712 0
804 195 -584 0
-306 389 778 0
364 379 -310 0
-968 293 153 0
896 738 209 0
-746 62 -120 0
-651 -33 648 0
-565 -486 945 0
813 -70 -11 0
-860 -810 896 0
-987 959 622 0
-764 -790 684 0
614 280 -757 0
695 16 -934 0
357 118 -204 0
-1 895 888 0
499 123 -773 0
278 990 -148 0
-887 650 -17 0
351 557 -79 0
-531 757 -494 0
-69 237 -824 0
580 632 -478 0
942 -411 -293 0
-191 -670 314 0
-810 428 495 0
-381 264 -587 0
-449 940 124 0
-363 -791 426 0
-233 -757 -968 0
488 -456 -455 0
457 -807 268 0
880 654 675 0
-81 549 -761 0
702 172 458 0
372 -896 -562 0
691 -286 -711 0
880 -556 257 0
-858 299 -417 0
-149 74 -391 0
552 950 -257 0
-736 -915 -9 0
-417 798 328 0
-763 480 -737 0
-996 -606 -881 0
-993 -702 -787 0
175 -56 -295 0
681 -366 -948 0
203 59 -403 0
-294 -169 355 0
722 -981 687 0
-661 -468 334 0
896 708 954 0
-854 712 569 0
50 -212 718 0
329 -381 -191 0
761 -590 108 0
826 837 355 0
-403 946 -791 0
746 -948 -6 0
-502 310 -235 0
-815 -981 -514 0
-740 386 56 0
-631 492 -623 0
814 -552 -176 0
-458 -425 635 0
-136 638 -617 0
198 972 -472 0
375 573 -425 0
822 289 581 0
625 -129 827 0
994 -133 569 0
605 775 -469 0
75 -734 -675 0
-948 -543 -991 0
-800 947 854 0
260 -453 697 0
534 764 -585 0
-238 437 753 0
-24 980 -367 0
599 313 -283 0
834 285 -504 0
-579 604 -640 0
-428 739 684 0
742 295 -132 0
-790 -39 680 0
-81 -671 11 0
426 550 -728 0
979 -599 440 0
-86 -673 -806 0
-111 -92 -881 0
-390 804 972 0
-958 -594 -215 0
831 -952 67 0
650 -574 46 0
-254 458 -614 0
161 -255 553 0
-358 113 -223 0
827 943 61 0
-713 -153 151 0
-643 -536 883 0
936 780 327 0
250 26 178 0
729 444 -266 0
632 512 368 0
-227 619 -249 0
640 -860 70 0
20 203 -717 0
-106 433 -12 0
169 -133 -172 0
376 975 -591 0
287 915 125 0
576 242 540 0
-680 -506 -487 0
-498 -932 855 0
282 20 31 0
562 729 478 0
-440 -964 521 0
-371 603 -514 0
-279 837 150 0
-84 919 480 0
-14 -437 285 0
-990 365 388 0
605 932 433 0
730 -241 958 0
111 754 26 0
-740 -764 937 0
-673 600 -464 0
-865 -190 58 0
-223 -785 -310 0
515 -446 532 0
-599 489 205 0
873 -116 193 0
145 493 -25 0
-490 931 291 0
-442 981 -687 0
711 296 -732 0
-163 -397 131 0
-55 127 597 0
-842 -861 -41 0
171 -93 397 0
-537 -949 280 0
-815 760 951 0
326 -14 460 0
-22 -277 366 0
170 -443 116 0
-826 139 -740 0
-992 450 182 0
745 -434 880 0
361 -132 -126 0
553 -612 925 0
-490 116 -273 0
507 -65 -971 0
-574 752 748 0
10 721 -324 0
342 -933 -449 0
-212 624 -980 0
470 -166 -323 0
942 548 167 0
325 592 135 0
997 -687 130 0
41 -532 -829 0
953 875 3 0
-155 647 148 0
-686 -164 -724 0
452 576 640 0
-889 -873 191 0
-487 -824 436 0
440 -805 -442 0
-810 -181 114 0
-695 640 -897 0
-935 -356 -653 0
510 189 -61 0
943 -326 745 0
55 -430 -48 0
458 -230 -46 0
144 -513 570 0
-397 811 31 0
-729 803 -273 0
-326 409 15 0
573 403 -535 0
-848 -549 -808 0
-993 734 -471 0
419 330 1000 0
704 -204 -113 0
206 -517 -620 0
-581 199 -435 0
-663 611 785 0
-971 979 224 0
-783 -944 989 0
400 288 -45 0
744 182 -14 0
546 -576 287 0
824 760 729 0
-830 689 -64 0
266 -283 88 0
-11 490 954 0
-391 59 589 0
311 407 -611 0
-582 -710 535 0
105 -185 -455 0
806 429 -933 0
-878 -410 -853 0
-274 537 -845 0
-606 390 866 0
-283 612 978 0
570 427 522 0
-459 -189 -386 0
904 75 8 0
564 259 469 0
683 -669 -693 0
159 227 561 0
-782 882 133 0
-172 856 230 0
666 -365 104 0
-99 409 579 0
147 -104 873 0
-959 -478 -751 0
602 989 -783 0
384 -64 -131 0
275 452 -716 0
-931 640 692 0
-534 644 -768 0
389 -304 -881 0
-371 682 408 0
406 -869 -722 0
-433 573 -69 0
935 -920 -763 0
299 214 28 0
-257 165 667 0
-146 -565 682 0
-302 -447 -83 0
-445 -605 -294 0
-323 316 -154 0
302 -847 -851 0
579 -695 -166 0
-861 873 -569 0
90 -359 -113 0
-441 67 110 0
285 300 497 0
157 -792 -711 0
-28 567 -117 0
-946 653 -41 0
-962 -978 256 0
195 610 448 0
389 -61 952 0
-324 -269 792 0
-795 -120 -41 0
411 323 696 0
-878 -341 395 0
884 7 558 0
111 -925 -455 0
902 -976 -799 0
623 158 -55 0
549 -260 192 0
-591 807 257 0
349 -412 26 0
-77 226 28 0
-982 691 543 0
-650 -377 237 0
-592 -190 -687 0
968 72 627 0
-311 -361 524 0
-346 378 182 0
669 -929 143 0
785 -431 -457 0
452 -352 -86 0
-695 45 763 0
-420 -472 744 0
252 783 574 0
151 -384 -215 0
-255 342 748 0
-12 -882 420 0
-966 614 -241 0
-853 866 -495 0
-689 -710 171 0
-624 -994 258 0
266 -238 285 0
-858 -663 885 0
-641 847 -67 0
696 508 837 0
455 -833 292 0
-729 827 946 0
169 678 997 0
-19 772 -213 0
-744 -890 -492 0
174 80 -335 0
975 584 -13 0
824 -893 -487 0
599 -128 -368 0
-887 253 697 0
-518 -684 731 0
602 -910 -447 0
371 948 672 0
42 -505 517 0
182 22 -283 0
-178 -454 901 0
-151 82 -509 0
24 -708 700 0
-523 -245 640 0
402 -244 -318 0
684 438 -972 0
-332 446 -620 0
735 237 622 0
729 721 300 0
-985 211 703 0
-389 16 858 0
-579 -355 -74 0
459 -556 -29 0
-898 253 -593 0
-213 -498 -482 0
-296 -52 127 0
846 787 551 0
-499 434 485 0
-583 435 798 0
-171 -931 344 0
505 258 401 0
-295 -12 589 0
116 -635 888 0
417 -482 540 0
-34 662 320 0
-750 -191 166 0
-942 -591 496 0
-567 -174 -950 0
-537 -373 -314 0
891 -854 548 0
-497 878 794 0
-405 929 -609 0
820 57 -312 0
-499 -159 -953 0
-364 -241 -881 0
-200 -847 -761 0
36 330 96 0
915 403 -909 0
-674 448 846 0
136 506 -592 0
526 -570 -25 0
59 -26 52 0
-553 461 169 0
305 -623 504 0
594 -59 -74 0
-967 30 -236 0
85 917 975 0
-854 226 542 0
154 -658 -565 0
922 867 415 0
-912 -276 -45 0
-143 -642 29 0
-946 -928 -799 0
989 -205 546 0
236 291 -488 0
-899 587 409 0
-789 -377 796 0
181 -988 256 0
247 -259 781 0
-17 833 -817 0
-24 117 -193 0
422 -802 -955 0
27 362 -395 0
-837 607 307 0
639 -414 -563 0
719 -462 500 0
592 133 -140 0
-298 761 -701 0
-253 779 453 0
-457 -492 863 0
407 -622 -334 0
739 270 -847 0
-137 -505 873 0
-110 -815 641 0
611 -976 -110 0
-77 -28 -568 0
952 849 -288 0
953 -963 382 0
-24 847 448 0
-751 -108 509 0
246 -917 -965 0
-746 787 -518 0
450 -958 -83 0
-361 -804 -914 0
437 -574 -650 0
-795 -717 12 0
182 76 425 0
876 57 214 0
-307 -611 -986 0
445 818 -138 0
-318 469 441 0
453 -769 492 0
905 -775 -113 0
-471 -395 906 0
682 918 -226 0
415 -11 517 0
382 -687 339 0
-264 -955 -679 0
-960 -253 -389 0
-442 868 392 0
-475 15 914 0
-248 -730 -817 0
-954 135 -552 0
478 -542 -423 0
-521 -109 143 0
-963 -362 243 0
-821 33 637 0
239 641 -422 0
-217 -158 904 0
135 41 -58 0
-860 960 156 0
-872 -889 580 0
-988 -652 -387 0
842 634 -489 0
519 229 -572 0
725 771 -687 0
-508 -23 945 0
496 575 953 0
-748 149 890 0
-682 209 768 0
434 -619 -258 0
-449 610 -416 0
-802 -278 -607 0
783 189 206 0
375 614 -606 0
738 -426 967 0
-700 24 -644 0
42 -253 190 0
-188 823 283 0
240 -391 -6 0
-619 -294 372 0
-944 755 -847 0
816 -597 -927 0
543 89 -483 0
517 -822 162 0
-285 -149 -423 0
-266 670 -302 0
-197 740 -216 0
-932 -986 -208 0
457 -404 103 0
-175 -908 854 0
439 -15 -938 0
343 395 945 0
-245 907 -382 0
-378 -684 -574 0
874 -785 -214 0
212 784 -104 0
-504 -739 313 0
-729 807 -704 0
678 291 -288 0
106 23 -646 0
896 -211 -271 0
-181 714 -717 0
-26 -789 -33 0
223 271 -141 0
-313 -235 -521 0
-665 816 122 0
-193 196 -468 0
436 418 -905 0
-546 699 124 0
-638 -321 662 0
-678 -734 -332 0
625 -788 926 0
643 935 -806 0
-426 919 923 0
-853 -512 360 0
600 -368 -490 0
568 92 199 0
51 273 864 0
-65 -729 -818 0
-450 390 918 0
108 111 -157 0
-255 -431 -578 0
-308 -518 -522 0
800 -688 -648 0
-272 662 -154 0
-746 305 -350 0
-215 768 680 0
738 158 215 0
459 -969 -152 0
-185 -966 -26 0
248 -379 854 0
-514 -465 826 0
127 -590 115 0
785 630 757 0
68 -253 -911 0
-146 375 106 0
495 61 501 0
-778 721 -33 0
949 998 854 0
340 581 -289 0
608 -977 211 0
-625 -160 729 0
396 370 626 0
841 -62 617 0
312 961 -921 0
858 -132 -860 0
548 739 873 0
282 273 561 0
542 426 -854 0
550 166 -208 0
408 -447 996 0
694 -380 -711 0
-335 174 986 0
396 494 -247 0
-659 -734 990 0
-993 -97 80 0
744 759 700 0
-267 -240 849 0
235 -758 -734 0
262 214 -654 0
621 -47 666 0
-550 -195 -868 0
371 301 -92 0
-5 851 -107 0
936 -58 975 0
-598 986 928 0
80 932 293 0
942 939 -600 0
-127 644 -648 0
831 400 -461 0
701 985 -317 0
927 -14 87 0
-485 213 148 0
-88 932 -400 0
958 -607 -735 0
790 250 649 0
654 -550 694 0
-995 -871 -933 0
-905 -575 -528 0
147 579 27 0
13 183 406 0
-145 -267 -331 0
270 456 -216 0
-668 -739 -850 0
473 -586 485 0
208 -552 -527 0
973 -874 -198 0
193 -372 378 0
-626 -794 687 0
687 -595 998 0
853 521 -750 0
307 923 -912 0
662 -428 -38 0
217 -805 768 0
-312 733 3 0
-719 22 368 0
-363 15 876 0
-57 -488 954 0
-166 216 500 0
-156 -122 541 0
148 -990 -493 0
500 527 531 0
550 -252 -714 0
-615 462 -908 0
901 -533 704 0
953 53 -583 0
227 -348 -688 0
-48 -29 980 0
-900 -421 320 0
-878 -631 731 0
874 -976 903 0
139 -346 219 0
-519 842 593 0
-413 -468 -756 0
455 724 -27 0
-152 833 -261 0
-285 -710 456 0
781 -966 -238 0
-318 -892 -519 0
155 570 945 0
-257 -572 -533 0
-946 -23 -552 0
558 492 -32 0
754 613 -749 0
286 623 -671 0
235 207 -428 0
736 -489 427 0
-921 -648 962 0
-237 105 -155 0
489 372 42 0
126 411 395 0
652 -49 471 0
588 850 -344 0
857 15 339 0
-189 628 203 0
-410 -481 -688 0
420 500 320 0
245 -725 -789 0
126 463 -495 0
65 -482 642 0
-928 -913 -432 0
791 -994 694 0
253 668 -385 0
-420 764 -375 0
-440 -456 269 0
-598 570 -334 0
484 796 -372 0
287 -830 292 0
667 -189 -597 0
-648 204 212 0
772 -353 -862 0
-16 -134 843 0
-418 22 -854 0
-696 -65 -855 0
874 -156 -791 0
464 564 -328 0
349 -368 -232 0
43 835 -209 0
412 901 -603 0
-69 686 996 0
66 -220 -41 0
-649 -638 469 0
126 -709 -768 0
-711 789 942 0
-653 985 226 0
137 -528 -752 0
386 -45 -769 0
115 514 -899 0
-535 -503 -8 0
146 -459 -681 0
-696 88 19 0
281 -113 331 0
559 774 -952 0
-724 -837 64 0
564 714 139 0
843 482 -213 0
278 -188 620 0
-161 189 -997 0
142 741 -70 0
-289 -360 270 0
799 305 891 0
380 665 -977 0
-218 -708 -251 0
-741 -315 62 0
854 -691 -504 0
480 918 889 0
-952 -941 244 0
-66 528 -441 0
-217 430 715 0
-82 365 965 0
-608 -412 -351 0
563 180 722 0
140 -689 52 0
6 -213 -145 0
-819 754 -603 0
891 -395 675 0
-902 9 128 0
-488 -981 -362 0
552 -923 -476 0
-588 472 -374 0
156 -365 724 0
896 -28 -209 0
949 -102 -52 0
81 633 416 0
-534 529 -983 0
-784 -156 -425 0
-663 192 441 0
-33 -327 338 0
-185 121 549 0
577 -124 986 0
-380 -938 -215 0
484 -72 812 0
720 -458 809 0
89 -960 -539 0
461 828 595 0
637 -278 184 0
-367 -980 -523 0
-222 -724 277 0
-564 167 61 0
-732 -957 -118 0
-514 714 -926 0
-642 -817 -316 0
501 747 -825 0
363 -897 281 0
-3 -564 -58 0
229 -587 -706 0
609 162 410 0
985 549 637 0
634 582 869 0
48 -314 -50 0
975 -227 -294 0
-127 4 659 0
225 557 -870 0
289 874 -237 0
123 -605 -242 0
-238 140 758 0
867 -304 668 0
366 -324 -316 0
282 -119 21 0
-904 601 13 0
874 -708 369 0
345 198 -276 0
615 -210 302 0
705 -10 111 0
711 -267 -691 0
602 -642 -636 0
-778 775 744 0
286 876 739 0
290 -941 -879 0
74 -269 -867 0
873 -899 238 0
-288 161 904 0
40 383 945 0
-775 51 -417 0
137 788 615 0
908 -572 -433 0
530 -749 899 0
-766 497 222 0
-223 186 -275 0
-994 595 396 0
-648 -716 647 0
553 -808 -231 0
-573 891 -769 0
-362 -917 -370 0
-37 976 -878 0
89 2 629 0
612 -316 -737 0
-92 -298 -399 0
28 -517 -724 0
-308 -657 -188 0
-475 -826 -820 0
798 -957 -405 0
-564 -154 948 0
644 -466 75 0
-396 -69 -555 0
-921 637 -860 0
447 425 -177 0
-521 -813 -288 0
-866 -417 218 0
507 -805 -739 0
-16 716 -112 0
-526 802 104 0
61 -365 133 0
-507 124 -498 0
-47 314 608 0
-395 -567 -453 0
716 454 230 0
546 -233 -683 0
-147 -590 275 0
-691 -917 -771 0
-461 -489 485 0
287 900 74 0
-467 -971 636 0
557 -860 -216 0
227 191 -516 0
201 231 227 0
-456 615 -403 0
171 420 444 0
421 -204 -571 0
-850 331 717 0
-65 -887 -893 0
517 -580 130 0
-950 -709 984 0
-369 809 27 0
-884 871 342 0
-756 -467 474 0
294 194 584 0
-202 300 -791 0
305 765 -34 0
-532 510 -282 0
621 294 508 0
425 -318 -455 0
204 695 -493 0
729 -811 -989 0
13 208 404 0
2 -352 -11 0
-531 -561 -912 0
915 -995 -284 0
265 -646 -624 0
659 -896 -546 0
-88 -484 3 0
-909 -948 186 0
-134 456 26 0
-495 -870 596 0
-987 -60 -887 0
999 340 669 0
-324 868 -637 0
-815 939 720 0
-466 257 504 0
549 -105 786 0
852 403 702 0
-136 -293 -756 0
-385 370 -456 0
844 49 -430 0
584 -518 614 0
203 327 248 0
220 869 138 0
-391 919 -978 0
-460 -490 -630 0
620 880 -468 0
509 572 -820 0
63 -304 -553 0
170 206 -221 0
-118 719 -814 0
-949 430 -644 0
849 804 -874 0
-515 368 -580 0
806 -553 659 0
331 367 649 0
-889 -379 55 0
-929 -410 359 0
-971 135 695 0
28 649 914 0
-311 -256 -429 0
-660 -524 481 0
544 -868 -621 0
-88 202 645 0
449 -818 -519 0
-724 -824 -847 0
-269 -304 50 0
282 -91 -255 0
-706 987 873 0
806 75 616 0
-334 637 422 0
-952 259 94 0
-400 -259 -657 0
620 -694 411 0
-786 -282 372 0
-169 219 304 0
300 -343 967 0
556 -336 790 0
-872 -892 604 0
-295 -341 -128 0
526 -671 -98 0
-508 -745 261 0
-42 -426 -46 0
-375 -722 -31 0
410 397 308 0
728 -91 34 0
584 901 520 0
-340 -783 -480 0
530 745 518 0
997 -906 -391 0
-641 53 -757 0
945 -804 871 0
-524 -54 999 0
73 -837 124 0
600 862 173 0
369 375 -834 0
-422 -15 388 0
336 510 -535 0
-287 862 -978 0
-66 762 -363 0
766 -967 -829 0
374 766 -767 0
141 113 879 0
-538 478 737 0
696 715 -751 0
-435 619 798 0
-896 -297 -461 0
689 -559 -282 0
-792 466 -445 0
572 -962 -649 0
157 -14 -359 0
337 820 478 0
-394 -591 -383 0
805 511 33 0
-974 905 462 0
-330 765 -389 0
-295 509 714 0
-873 485 2 0
801 750 -148 0
-527 749 -485 0
969 532 820 0
-87 -592 391 0
-859 384 -319 0
91 444 -940 0
113 -328 -405 0
200 799 209 0
931 164 395 0
-363 524 522 0
572 881 187 0
-555 -581 489 0
124 -527 165 0
-292 828 207 0
-36 -170 -88 0
-139 849 623 0
479 983 -716 0
-827 649 -915 0
743 67 810 0
-151 -506 -966 0
-612 -809 -841 0
-998 -507 -341 0
833 -58 430 0
379 -559 -728 0
-58 -240 -568 0
-129 -827 252 0
-666 -332 153 0
-9 78 20 0
611 940 187 0
-407 -107 195 0
-12 -203 -594 0
-803 -174 -2 0
-772 404 -328 0
638 -584 -213 0
982 595 -897 0
361 537 -694 0
480 991 149 0
-553 232 -676 0
-923 -662 -742 0
688 980 998 0
155 209 -878 0
-799 242 -332 0
361 978 -489 0
756 441 423 0
662 995 346 0
-287 -526 820 0
988 482 203 0
251 816 -601 0
1 -594 875 0
-187 977 -735 0
-43 818 -939 0
213 -51 694 0
-217 -419 -880 0
624 298 37 0
-461 -279 -64 0
100 458 -973 0
893 -830 157 0
-679 -657 805 0
110 284 356 0
-844 -258 100 0
822 -440 354 0
-816 -892 131 0
-776 705 554 0
-800 -41 942 0
-828 -448 485 0
-127 727 -220 0
-574 -192 297 0
-559 298 -240 0
514 -447 878 0
551 382 -608 0
550 579 -315 0
136 530 -143 0
176 -809 -209 0
192 407 987 0
-503 -381 -243 0
-893 -165 150 0
395 875 111 0
252 348 785 0
-37 923 197 0
-813 264 -385 0
915 -469 -426 0
638 -618 -597 0
784 -996 -660 0
768 73 859 0
-68 -49 -234 0
-640 -953 -778 0
-659 638 182 0
-126 862 960 0
-471 623 512 0
487 -428 -300 0
-932 -520 692 0
-710 459 904 0
-961 -255 477 0
534 -815 -641 0
337 -987 -919 0
-87 -236 94 0
347 -816 -922 0
373 -698 -563 0
513 954 940 0
-213 -625 217 0
-128 895 245 0
-737 357 -712 0
-852 454 431 0
-772 -878 -632 0
-397 -760 -7 0
918 -683 -363 0
904 -681 90 0
-461 -155 602 0
730 471 -384 0
-575 -20 353 0
-673 147 -749 0
-550 946 -902 0
407 -553 -147 0
-456 -352 958 0
552 787 -125 0
-505 -257 438 0
-760 400 491 0
684 -796 -768 0
928 699 -394 0
-247 483 17 0
302 923 -39 0
948 -902 483 0
-730 -883 -601 0
-576 165 179 0
-614 -519 -336 0
469 -513 -705 0
-847 34 863 0
476 -756 -196 0
47 827 -10 0
700 107 -405 0
-682 950 -277 0
-824 883 -871 0
766 -601 578 0
-365 -399 -206 0
741 12 -888 0
-772 -448 -762 0
-704 642 896 0
122 976 -388 0
-761 -926 -628 0
-628 -620 351 0
765 502 393 0
323 850 650 0
908 -231 5 0
-784 -165 -720 0
-3 673 489 0
-933 -264 614 0
414 948 -808 0
416 -134 291 0
828 593 662 0
404 715 -380 0
-950 931 -310 0
604 781 -936 0
315 -841 -192 0
-349 330 -60 0
-821 -691 -836 0
674 623 -89 0
-146 -975 -443 0
-998 335 -131 0
511 -953 117 0
-980 570 -53 0
-516 -98 -539 0
-991 959 -794 0
-946 687 -900 0
953 239 498 0
380 -769 -673 0
454 313 611 0
887 2 -491 0
294 -311 -453 0
-481 642 813 0
-532 767 377 0
585 -501 262 0
-22 -589 375 0
107 -370 -95 0
972 222 448 0
-816 633 58 0
-870 -935 -297 0
378 709 -408 0
-459 114 82 0
-55 -368 472 0
44 -877 915 0
733 829 158 0
-863 66 260 0
319 -865 261 0
336 378 402 0
869 -524 999 0
367 -751 323 0
513 -454 671 0
78 933 343 0
38 -649 692 0
-258 145 460 0
-859 -429 -189 0
-651 -155 930 0
-887 742 -919 0
-639 -471 49 0
128 -410 191 0
838 -775 -23 0
821 -245 282 0
-390 450 981 0
-480 -176 91 0
638 777 -539 0
-304 522 -847 0
-303 -993 -147 0
-486 489 22 0
714 -601 778 0
265 -911 824 0
-894 676 973 0
300 -232 977 0
-44 -380 -472 0
960 837 -398 0
-668 169 790 0
-901 -349 560 0
769 932 571 0
-932 -452 980 0
363 -926 -894 0
456 -510 324 0
860 -340 -850 0
-698 -813 -23 0
-468 882 80 0
626 834 133 0
-225 206 -725 0
571 16 901 0
-962 856 -683 0
361 816 -782 0
798 -744 363 0
-692 837 -516 0
240 52 -445 0
-574 -55 -792 0
-620 -150 -447 0
309 754 -319 0
-667 986 -213 0
-523 -979 -622 0
599 -50 -433 0
388 600 -552 0
-647 983 654 0
-852 451 -786 0
-483 -357 -788 0
-878 957 -725 0
-716 -465 -817 0
535 30 -811 0
242 381 991 0
-912 -354 175 0
-811 937 -413 0
-10 113 217 0
329 -287 812 0
-533 19 -560 0
387 146 278 0
845 295 746 0
284 -500 377 0
-324 658 -536 0
-257 -356 353 0
-17 -735 -444 0
-166 655 -289 0
277 -818 -539 0
916 -199 17 0
323 -479 -414 0
-895 959 -742 0
-673 -130 648 0
862 -406 401 0
-63 -30 -731 0
-307 856 301 0
200 92 -828 0
452 874 133 0
995 -647 -60 0
193 566 -682 0
-841 -983 59 0
314 -844 -243 0
360 -741 614 0
-934 -480 -931 0
676 -155 91 0
351 981 -35 0
-878 382 -468 0
786 68 -638 0
-756 -557 58 0
667 -63 500 0
262 86 -930 0
-451 1 867 0
-551 -270 -393 0
760 -306 -648 0
678 -49 693 0
406 370 637 0
-515 907 26 0
228 -529 715 0
-246 -469 320 0
-899 741 -953 0
-230 593 -663 0
-758 38 888 0
-795 -171 -376 0
-427 548 796 0
93 273 -886 0
-890 271 523 0
-426 773 -868 0
-718 -392 -524 0
219 -413 -263 0
-544 -227 -490 0
478 -177 591 0
-922 -703 556 0
742 612 552 0
-608 127 -735 0
655 -819 142 0
-936 787 -565 0
961 750 797 0
-790 745 761 0
-382 -821 -9 0
-173 -106 -104 0
-903 255 431 0
783 -386 260 0
-409 -178 664 0
-88 -38 -94 0
411 -963 -585 0
93 602 -611 0
34 541 -16 0
779 -758 -677 0
309 -176 972 0
-247 -632 -35 0
148 -764 -142 0
997 374 -481 0
70 244 -262 0
-460 -269 -631 0
608 -729 -446 0
10 458 -816 0
209 382 -813 0
695 458 -908 0
989 967 -962 0
997 -163 -349 0
-308 -443 -310 0
-420 -185 -147 0
986 -771 -574 0
489 845 -712 0
-922 138 -330 0
692 -216 -85 0
-621 -687 -693 0
884 -76 -995 0
-530 -336 -605 0
-302 71 -594 0
667 547 986 0
-299 -125 -841 0
-939 -906 259 0
977 -253 974 0
-572 -876 -663 0
-815 -206 611 0
692 -579 408 0
-599 -749 -792 0
206 815 -633 0
-755 -349 -960 0
998 -372 -320 0
-470 767 369 0
-12 273 -668 0
-654 908 -938 0
-519 -860 762 0
-238 455 -225 0
-936 13 -901 0
2 193 -439 0
44 463 -23 0
86 -998 -107 0
854 788 44 0
-210 45 870 0
556 -677 818 0
-935 -972 635 0
-859 -208 927 0
665 165 979 0
851 -574 -82 0
209 -429 -627 0
-112 -762 -600 0
-406 367 -871 0
582 311 -967 0
219 -288 -633 0
498 589 -795 0
-926 312 -920 0
-357 443 -371 0
672 -974 -858 0
-137 140 831 0
532 344 980 0
-750 74 263 0
510 792 369 0
258 -598 89 0
-106 -841 651 0
-67 -465 69 0
989 347 -990 0
758 998 -568 0
-862 718 108 0
766 483 -816 0
-634 192 -294 0
60 -273 979 0
-312 -931 945 0
-308 467 -188 0
-250 261 -743 0
547 -37 552 0
503 961 256 0
426 -491 529 0
747 613 193 0
788 456 53 0
268 475 -722 0
-770 981 -10 0
-82 -190 613 0
379 28 -2 0
464 943 252 0
39 -18 662 0
932 50 -518 0
-246 947 -193 0
-119 782 -438 0
475 -689 562 0
8 664 -423 0
-558 -783 -774 0
318 832 -912 0
-300 -756 524 0
-634 31 648 0
-342 -788 134 0
-893 -91 -856 0
-400 -921 895 0
165 982 -572 0
589 840 644 0
348 -571 545 0
697 359 731 0
-473 874 136 0
180 -697 -281 0
-638 -245 441 0
-990 -648 -286 0
-99 56 765 0
241 -101 618 0
618 787 4 0
-369 -599 451 0
-712 830 -804 0
-269 671 225 0
-181 -821 560 0
-158 870 -370 0
548 -502 253 0
-977 516 -27 0
158 -334 721 0
-712 170 -903 0
-372 658 -967 0
329 656 -254 0
-366 -84 925 0
524 183 -266 0
-640 -582 -761 0
927 -702 -70 0
214 -344 991 0
-703 622 -683 0
-742 -565 754 0
-566 -548 75 0
-498 16 -546 0
428 897 940 0
987 220 -186 0
320 -752 696 0
-593 -660 57 0
-524 -426 -448 0
-945 -733 355 0
-753 389 344 0
453 923 327 0
-513 761 668 0
-574 -448 893 0
241 -199 -433 0
225 781 -71 0
269 -609 -407 0
-358 -245 -920 0
992 -25 577 0
650 931 -683 0
-108 665 -196 0
-695 -476 90 0
-228 -239 -331 0
-665 500 -814 0
-623 -593 43 0
399 -356 168 0
-383 -913 196 0
57 -414 -919 0
-688 -831 -643 0
587 243 -474 0
-605 -2 96 0
620 434 396 0
-937 -676 521 0
833 -676 -228 0
445 -872 -663 0
-416 79 -991 0
243 193 -569 0
-544 504 -264 0
-703 -210 -308 0
186 597 730 0
133 122 -966 0
167 441 -416 0
688 -937 -177 0
616 -472 -217 0
346 747 -248 0
22 123 349 0
20 878 -96 0
485 -984 -822 0
802 596 -74 0
501 653 553 0
978 980 -930 0
-927 -866 -645 0
-77 149 766 0
836 241 -34 0
26 912 -688 0
-678 684 742 0
-385 723 776 0
-902 -974 940 0
-725 -262 223 0
-65 -984 -374 0
162 650 54 0
121 -338 -450 0
-537 -314 -34 0
456 -241 -843 0
-118 157 779 0
33 61 90 0
880 509 801 0
909 -739 345 0
213 648 -788 0
548 417 -557 0
-950 -168 917 0
-385 46 -644 0
-969 -771 -672 0
-865 -609 -417 0
254 -852 -242 0
45 368 -470 0
8 -82 -37 0
-517 370 -215 0
-90 -56 -94 0
534 304 -934 0
-603 858 416 0
5 741 -265 0
-925 -200 706 0
-587 -706 -626 0
-610 -716 -636 0
-401 205 148 0
722 853 442 0
531 -382 230 0
837 -139 -777 0
-33 920 -530 0
-872 238 415 0
278 -643 669 0
227 -136 778 0
92 532 196 0
-516 -803 -430 0
162 340 -622 0
939 -243 983 0
-485 601 497 0
-264 -733 255 0
-281 -845 489 0
460 -801 -79 0
729 287 182 0
-556 -512 450 0
919 883 215 0
844 579 -883 0
-812 -57 456 0
-796 735 -407 0
-605 781 -355 0
147 105 -417 0
-588 -765 191 0
-626 -290 885 0
589 172 -60 0
-7 556 373 0
994 -558 296 0
803 -469 228 0
-690 960 -276 0
892 -684 -691 0
-466 -817 840 0
598 -182 -681 0
-570 -18 224 0
19 967 508 0
-718 -189 788 0
16 -424 -764 0
142 779 -409 0
-958 -764 257 0
-139 239 -439 0
-211 923 557 0
-250 699 37 0
910 192 789 0
522 202 113 0
-426 -953 -544 0
969 -854 -48 0
928 867 -838 0
-928 -18 701 0
577 -454 -835 0
-712 655 926 0
-631 -544 -924 0
-904 -122 502 0
-92 593 35 0
-632 -446 -643 0
843 626 36 0
-752 -773 -942 0
82 409 904 0
-825 -579 739 0
417 -738 -973 0
-16 -52 159 0
689 -123 -44 0
729 482 -900 0
-310 814 -186 0
649 -466 454 0
462 -318 -774 0
933 159 -578 0
566 972 -980 0
-472 847 -810 0
-506 -475 -294 0
20 -818 -92 0
491 643 232 0
840 351 -709 0
241 520 633 0
-512 -32 498 0
-832 248 -620 0
646 -26 -772 0
230 211 184 0
468 -723 -252 0
-997 -945 -988 0
631 -416 180 0
986 -164 -596 0
16 671 -837 0
-565 -469 225 0
-719 500 215 0
-320 -139 -136 0
962 -709 -161 0
236 -155 -359 0
446 -574 -200 0
-256 -396 557 0
-344 -85 -936 0
10 595 399 0
270 -983 766 0
565 524 719 0
578 -487 -765 0
-421 -10 201 0
-746 706 87 0
-82 -364 -457 0
-420 789 -878 0
-414 216 235 0
944 432 441 0
-594 6 -413 0
207 2 880 0
-280 -605 -712 0
323 105 850 0
584 137 329 0
394 -431 834 0
873 959 -730 0
-260 -578 -343 0
866 -289 343 0
73 246 506 0
-258 -435 897 0
292 428 -517 0
-715 -628 -517 0
58 699 -393 0
-714 -101 115 0
-916 464 -520 0
488 -355 307 0
11 367 188 0
-549 754 -154 0
-818 -292 259 0
406 598 -532 0
554 -931 -165 0
-678 937 -502 0
-355 -12 293 0
-786 -656 -945 0
652 -11 425 0
597 599 66 0
-301 496 -651 0
-661 -716 915 0
499 615 516 0
305 -899 -521 0
319 -923 427 0
-283 967 300 0
661 -508 831 0
931 -645 -672 0
-981 -425 -777 0
-167 -688 619 0
-227 89 -604 0
-179 -765 135 0
780 -72 615 0
558 816 623 0
868 -899 -674 0
-340 812 -432 0
-978 -757 990 0
-521 -556 -970 0
-493 498 -913 0
-948 -156 -382 0
-863 -833 -481 0
884 28 105 0
5 -332 191 0
433 -465 168 0
-747 -755 -249 0
104 -74 80 0
343 767 -634 0
-3 -413 -890 0
270 -396 305 0
-785 702 -308 0
-391 796 487 0
-240 -684 289 0
902 -955 434 0
431 822 633 0
80 -228 -743 0
323 672 873 0
18 -819 -901 0
-12 542 748 0
167 755 129 0
935 -203 -390 0
200 -787 841 0
807 426 921 0
609 285 -588 0
158 -361 22 0
809 -545 -505 0
90 -480 -314 0
-922 20 -48 0
-737 897 -506 0
103 -966 186 0
-590 658 467 0
-404 -896 768 0
-955 854 -419 0
146 -853 696 0
-736 176 803 0
-711 134 976 0
450 31 -514 0
-571 686 -377 0
728 785 34 0
-786 754 -125 0
293 391 160 0
-95 762 -906 0
877 -785 -413 0
308 -528 -220 0
-980 -531 13 0
439 475 -74 0
763 220 75 0
-59 429 -208 0
150 665 -512 0
-489 349 305 0
-468 -390 -883 0
479 648 -172 0
44 -955 -581 0
-197 245 -274 0
-943 927 -807 0
-813 619 -563 0
-960 488 820 0
-620 654 227 0
-574 -287 -40 0
-349 178 -108 0
140 288 60 0
-588 -16 -40 0
768 -565 960 0
899 -807 844 0
993 234 -419 0
972 -606 647 0
759 -533 168 0
-274 334 269 0
-829 -748 -148 0
976 441 169 0
757 -415 750 0
-35 60 198 0
386 -605 519 0
-131 -869 -583 0
-704 -137 733 0
-709 773 930 0
928 909 971 0
721 -311 589 0
361 -793 660 0
13 210 469 0
-589 -708 282 0
348 322 272 0
-128 139 138 0
449 -457 425 0
-3 -969 -551 0
-234 -42 688 0
-775 -129 -295 0
-218 727 526 0
-849 -747 425 0
949 -999 294 0
-89 668 -310 0
-637 801 -836 0
-804 -216 -915 0
184 -749 -708 0
-494 122 238 0
-827 286 935 0
-753 -78 -348 0
47 879 -258 0
-886 167 321 0
-151 -962 -548 0
870 921 -606 0
908 -589 42 0
923 736 150 0
852 -88 741 0
231 -391 331 0
-289 48 -715 0
152 -172 438 0
733 259 704 0
-50 -924 -783 0
123 -711 665 0
-642 -803 -452 0
627 -231 -158 0
-954 -553 -514 0
-682 -561 -463 0
-419 -380 595 0
365 -396 1000 0
-676 -264 590 0
923 -490 562 0
-903 -381 595 0
865 746 -13 0
588 -779 -319 0
765 328 666 0
-348 856 -853 0
298 987 429 0
-305 702 942 0
-472 -273 -571 0
-704 162 -233 0
-275 -94 -91 0
-125 -490 -586 0
228 27 394 0
431 -197 331 0
233 64 138 0
17 53 241 0
-779 543 869 0
182 100 166 0
385 -911 88 0
207 699 656 0
-714 62 912 0
630 230 -792 0
784 -523 341 0
-593 -282 708 0
504 -562 -689 0
-767 -278 573 0
758 -904 847 0
-734 -493 772 0
706 104 429 0
811 676 35 0
-306 919 -580 0
-65 974 313 0
159 -891 -84 0
-540 -355 -846 0
-87 60 -461 0
561 364 34 0
-525 -777 868 0
987 -861 -625 0
239 589 -975 0
-724 437 783 0
931 50 -989 0
815 -941 -89 0
999 -761 417 0
257 966 -222 0
-993 -280 -537 0
-883 -484 21 0
259 -434 821 0
-868 650 -729 0
134 193 -787 0
790 183 197 0
-501 -475 -422 0
936 -386 -998 0
-777 847 -264 0
929 -905 957 0
36 -136 -421 0
702 459 -101 0
-363 440 496 0
839 469 -771 0
678 -866 720 0
864 93 -145 0
-469 -276 -619 0
-838 955 -848 0
96 -975 750 0
-304 -962 212 0
-516 -857 -322 0
-864 -688 -315 0
339 964 -173 0
-262 -782 858 0
-286 -691 127 0
-856 888 -713 0
302 -455 377 0
36 -724 964 0
808 217 385 0
-112 372 5 0
-665 421 -957 0
-550 -380 386 0
124 -146 952 0
-628 448 771 0
909 -13 255 0
-438 -424 -715 0
-795 -719 -372 0
-589 -692 -61 0
542 294 211 0
-746 963 -101 0
683 -664 458 0
-893 -760 862 0
726 -204 650 0
574 428 -408 0
49 137 -178 0
334 -401 -129 0
-845 -848 244 0
990 -742 -297 0
750 -131 150 0
909 355 -485 0
-925 -167 209 0
-192 -520 -981 0
-260 -544 -375 0
-741 -139 -185 0
-143 -508 345 0
-760 473 -772 0
-49 409 474 0
206 -59 -980 0
-684 -709 -202 0
-889 109 17 0
742 -343 407 0
-579 -751 -686 0
65 -372 -860 0
-638 826 -401 0
-111 831 740 0
-649 817 149 0
-948 300 512 0
275 305 260 0
1000 -554 389 0
684 363 -756 0
-248 -129 814 0
636 -892 695 0
-988 -287 -827 0
-101 -445 418 0
893 843 -626 0
-567 -591 119 0
51 -772 846 0
-791 -216 138 0
680 23 540 0
-957 -791 601 0
-470 383 836 0
-968 -651 -24 0
-682 -538 -225 0
-609 380 -909 0
316 -118 -829 0
-533 -921 118 0
590 -723 -370 0
-777 -528 347 0
-253 -172 749 0
614 283 -261 0
761 -229 -124 0
927 -526 962 0
32 424 425 0
290 798 -340 0
-565 -129 -174 0
-788 359 726 0
-853 -657 687 0
-438 -171 -222 0
-789 -249 658 0
593 528 549 0
421 694 -91 0
-404 781 -720 0
68 282 513 0
-289 27 -143 0
979 -242 -322 0
-701 969 967 0
821 221 355 0
-948 29 495 0
-919 613 -692 0
707 174 141 0
-488 -811 943 0
-172 706 381 0
527 531 999 0
943 251 -109 0
-428 -62 -532 0
555 -674 -910 0
-963 463 529 0
-452 369 -920 0
211 -878 730 0
90 -320 736 0
-695 -352 35 0
273 -657 462 0
-785 -224 -228 0
-786 510 643 0
-779 -302 853 0
-69 718 199 0
371 133 120 0
622 779 -246 0
870 -853 -761 0
494 -815 808 0
-355 -256 -711 0
420 -161 491 0
-402 -400 -704 0
-41 962 520 0
30 23 -231 0
-438 -934 382 0
-416 527 -164 0
945 -947 641 0
-840 -323 -751 0
173 794 -442 0
-818 -781 210 0
957 816 -689 0
842 -470 96 0
966 -418 -721 0
-688 -375 88 0
771 -156 476 0
451 -836 -900 0
-564 -196 381 0
-719 -321 -451 0
-552 -612 397 0
-923 246 587 0
-221 -645 -149 0
989 -372 -770 0
818 628 468 0
-613 -652 -607 0
207 846 56 0
992 -325 303 0
93 -597 -963 0
163 -408 -185 0
-540 -246 109 0
-382 -208 -888 0
436 119 -898 0
68 107 -761 0
-233 560 126 0
-931 -522 709 0
855 544 531 0
-904 -887 -485 0
299 -387 -521 0
-877 -903 -487 0
-946 102 148 0
-543 100 427 0
-253 -803 -974 0
-472 864 480 0
-409 610 -217 0
223 181 101 0
-157 541 174 0
-239 -270 301 0
323 -504 -815 0
-263 -370 752 0
-511 233 866 0
-882 -318 -373 0
-928 233 304 0
-602 898 -68 0
-684 971 467 0
120 -705 -147 0
-105 -143 717 0
-525 907 -902 0
-577 -165 775 0
-814 -830 992 0
-654 66 -747 0
-399 690 786 0
-950 361 201 0
-242 612 -614 0
-632 -764 323 0
-681 363 -598 0
866 -755 88 0
-228 570 683 0
-392 -428 231 0
165 715 -562 0
-725 -732 850 0
-746 391 833 0
-848 -491 696 0
-745 -269 -394 0
948 844 -611 0
-189 -465 -877 0
-55 733 581 0
240 -140 -450 0
715 -170 -866 0
-788 735 6 0
-700 -939 -972 0
-250 387 -70 0
84 469 -102 0
-615 561 -320 0
189 -516 -213 0
-237 -488 -408 0
663 -76 -896 0
-795 -393 -97 0
497 427 -714 0
-493 302 327 0
-956 -226 840 0
-807 -670 -312 0
78 283 -917 0
-495 -252 -100 0
-256 -273 323 0
-84 -873 -668 0
-711 239 -867 0
-594 -287 -217 0
-474 399 304 0
435 193 -245 0
-46 100 604 0
412 828 311 0
761 -905 514 0
-858 152 87 0
-854 -860 -97 0
478 383 -346 0
276 821 -878 0
-884 -969 704 0
486 -228 13 0
614 -21 850 0
426 -966 -526 0
598 946 729 0
-644 -920 159 0
-730 -264 622 0
-787 436 -337 0
-943 289 -366 0
-1000 -957 -244 0
-62 329 21 0
-262 -43 380 0
645 -522 97 0
-104 -295 -329 0
-899 903 387 0
-941 -59 -21 0
-799 -361 92 0
-333 -99 -119 0
389 491 -489 0
-513 -392 926 0
354 448 -413 0
749 -582 933 0
560 623 -895 0
785 998 -918 0
-880 -606 -296 0
-483 574 809 0
-855 928 448 0
58 -757 -611 0
21 -17 -150 0
-993 -280 -89 0
994 62 510 0
-873 -579 -109 0
-203 -595 630 0
101 392 473 0
-174 -865 74 0
-641 223 -76 0
-66 834 -352 0
967 384 -714 0
113 -808 288 0
-806 -355 562 0
-788 256 702 0
-248 867 215 0
62 -776 -301 0
138 984 -319 0
20 -879 -976 0
228 594 56 0
665 1 -539 0
-824 -267 156 0
854 442 230 0
-231 742 29 0
466 572 397 0
-865 430 714 0
993 3 822 0
-36 -86 -600 0
954 897 859 0
475 99 902 0
73 -609 -408 0
419 -100 410 0
-542 715 324 0
356 824 -665 0
-677 -215 -189 0
341 -929 441 0
314 708 130 0
-993 768 686 0
739 -592 -401 0
571 675 -516 0
-23 45 639 0
-328 -873 985 0
950 -427 -576 0
801 -38 -285 0
-208 -558 -716 0
976 248 -282 0
616 838 431 0
-316 -739 358 0
-754 -292 -172 0
-606 28 518 0
-69 -116 -916 0
97 -807 624 0
-657 630 348 0
651 -343 987 0
-650 -733 -523 0
-843 1000 335 0
691 904 414 0
74 589 188 0
-178 -592 -351 0
377 652 322 0
87 -864 625 0
-95 384 99 0
941 -116 -526 0
576 277 791 0
-979 79 -510 0
-665 48 342 0
-226 575 -943 0
-850 320 -739 0
734 290 -278 0
394 -31 413 0
-861 716 209 0
-388 237 -897 0
-434 -876 41 0
-11 -760 773 0
-302 220 617 0
33 -384 -953 0
-666 -527 77 0
-85 486 869 0
-487 142 126 0
903 -355 693 0
-70 880 103 0
445 -749 480 0
741 -807 -783 0
349 -160 109 0
-101 47 -291 0
-184 -477 -954 0
-660 -386 -687 0
-20 -559 -585 0
-805 28 893 0
-301 -678 546 0
433 717 161 0
719 -84 935 0
136 642 381 0
-909 -216 -111 0
111 -132 -420 0
938 611 880 0
950 -566 381 0
905 -315 249 0
4 709 608 0
-677 73 -796 0
552 433 -776 0
900 270 -268 0
20 -483 774 0
747 690 -849 0
-283 888 -182 0
337 -344 387 0
739 -98 666 0
269 814 507 0
915 -393 -520 0
835 767 261 0
-918 364 390 0
-339 -964 55 0
863 -314 -19 0
839 -707 459 0
635 357 294 0
-665 685 -232 0
-876 741 318 0
-600 577 686 0
-920 950 23 0
-557 -446 23 0
89 5 32 0
-846 769 696 0
-687 -498 -611 0
295 457 521 0
-279 605 -597 0
758 -182 -797 0
-628 -670 104 0
-991 892 302 0
-991 -750 416 0
577 618 -485 0
659 553 -647 0
208 275 -381 0
801 -972 -871 0
815 -731 250 0
992 -515 278 0
-477 933 -344 0
-698 349 699 0
755 550 -608 0
173 803 196 0
-504 290 838 0
521 528 235 0
751 -909 -869 0
-881 262 265 0
-915 -518 -778 0
376 135 942 0
-766 506 569 0
-318 -598 -654 0
-832 -191 736 0
853 -274 -607 0
865 944 879 0
-472 650 -8 0
-88 -38 -924 0
357 -854 95 0
210 733 -965 0
-126 506 -658 0
53 701 -243 0
999 830 -296 0
-841 502 -247 0
612 772 88 0
-818 -356 383 0
118 878 908 0
-891 403 657 0
652 204 123 0
-470 837 783 0
-825 -184 936 0
-522 -260 -108 0
767 633 -602 0
8 573 -823 0
-438 485 -519 0
-420 180 -178 0
-424 860 856 0
-220 -344 799 0
374 -230 245 0
-885 -125 174 0
-402 -552 -61 0
302 -793 -123 0
-878 199 926 0
54 -394 -162 0
-85 -986 -671 0
151 179 -247 0
-219 -277 564 0
55 -380 631 0
610 476 -350 0
931 369 217 0
729 617 -366 0
-426 -691 882 0
-87 -187 -734 0
-89 630 629 0
-364 -114 -348 0
-591 618 -363 0
-156 -132 -333 0
-577 449 -75 0
224 -796 -304 0
-94 188 -739 0
-940 309 386 0
-872 630 959 0
798 417 -4 0
-427 355 225 0
-495 194 -439 0
626 593 -723 0
-701 343 -824 0
-340 638 -372 0
369 -967 -339 0
-325 -466 850 0
-745 167 451 0
-443 -670 -308 0
-916 -921 427 0
-45 658 999 0
-824 -754 -676 0
-178 -738 -295 0
156 -753 -991 0
667 -657 691 0
-61 -413 -295 0
-52 606 -991 0
748 426 -508 0
516 -350 -15 0
-72 -385 542 0
868 323 -925 0
780 -543 -950 0
517 353 926 0
-425 -217 -350 0
-48 -101 573 0
495 543 922 0
924 801 -999 0
315 -455 187 0
-60 -632 623 0
677 44 -760 0
-165 -969 -235 0
-505 232 -53 0
293 204 141 0
151 -744 -918 0
-368 -284 962 0
466 670 673 0
-868 486 -855 0
-40 -31 843 0
-979 493 475 0
934 655 671 0
19 910 49 0
999 -962 -508 0
2 -726 965 0
236 337 424 0
120 502 121 0
504 -296 409 0
-363 -415 948 0
234 -699 -378 0
996 650 -139 0
-600 539 -133 0
397 492 84 0
-346 531 -200 0
-454 50 809 0
-750 -664 -228 0
18 -888 440 0
236 -183 -940 0
418 -100 194 0
-985 -763 79 0
55 424 614 0
299 -32 -608 0
112 570 -154 0
620 -225 905 0
-601 217 -893 0
-587 706 -11 0
-552 242 -96 0
363 -415 668 0
295 411 747 0
178 -679 -520 0
471 -353 486 0
-981 -64 -652 0
-977 -53 -634 0
-689 -813 -986 0
435 -2 226 0
915 -272 342 0
935 -391 -618 0
-407 948 63 0
135 260 -822 0
78 782 309 0
996 -344 382 0
-973 -132 -711 0
-61 -92 -675 0
-479 -945 524 0
505 -761 665 0
388 226 -37 0
615 720 -921 0
948 5 -661 0
730 124 802 0
541 -355 -797 0
-42 457 677 0
575 -695 -336 0
416 -37 427 0
-733 -231 -830 0
578 281 118 0
474 -508 -47 0
-743 -37 286 0
-213 -981 -665 0
-278 -193 -433 0
328 619 -648 0
-590 -530 -595 0
433 868 813 0
396 -19 847 0
-322 -98 -939 0
-826 529 -421 0
-905 -204 -982 0
-755 92 -931 0
629 41 746 0
-582 570 705 0
708 -426 460 0
-922 230 -461 0
645 -72 -651 0
-863 -609 -753 0
402 449 391 0
758 -662 -381 0
-367 103 63 0
614 197 55 0
123 457 -379 0
-940 961 -694 0
-990 278 -799 0
160 -788 -862 0
574 -467 676 0
-424 -266 -317 0
961 564 299 0
-259 -492 -225 0
435 121 379 0
-112 551 387 0
633 -657 648 0
-416 945 722 0
643 812 570 0
-735 707 -769 0
-39 617 452 0
-644 -576 250 0
813 358 -493 0
-245 -259 -170 0
28 349 -536 0
-764 -207 -317 0
-634 687 644 0
-305 -615 -130 0
883 -453 70 0
509 -536 -169 0
-342 835 879 0
212 417 177 0
368 -21 911 0
521 8 626 0
146 615 -357 0
431 -838 -627 0
-960 -216 -407 0
162 -414 105 0
537 823 347 0
-144 819 -279 0
484 -692 233 0
-699 999 933 0
-477 200 -679 0
-680 118 885 0
-239 240 -699 0
-125 -937 -163 0
288 73 -896 0
812 -850 -142 0
343 -35 -134 0
568 -815 166 0
305 805 400 0
52 573 166 0
660 -823 989 0
-854 -747 956 0
970 -342 -236 0
512 734 -406 0
-514 673 43 0
-210 578 641 0
851 -540 741 0
-120 767 -486 0
-800 280 119 0
783 433 386 0
-288 -924 -500 0
302 -451 -256 0
-25 -775 -992 0
-974 -839 110 0
364 -66 -174 0
316 136 549 0
239 919 851 0
-505 573 582 0
-825 -778 -381 0
924 -385 -989 0
-912 -3 669 0
-416 99 -145 0
200 -165 11 0
188 985 -817 0
-308 -702 185 0
-183 574 -160 0
38 988 -501 0
-261 685 767 0
-291 775 -42 0
506 -725 312 0
169 -164 706 0
140 -184 653 0
913 -116 608 0
565 -145 1 0
943 -590 367 0
-606 402 639 0
512 858 -72 0
299 -958 -593 0
-616 892 -54 0
-912 14 682 0
34 -730 -496 0
227 265 -144 0
-565 884 -221 0
-621 357 809 0
705 -490 -260 0
-906 -634 549 0
903 -892 -652 0
690 -663 -935 0
310 -636 865 0
-91 -58 -118 0
941 -572 -665 0
91 -600 -336 0
191 -709 -686 0
-596 609 -861 0
962 -753 264 0
581 715 750 0
-558 -87 553 0
-652 -134 -563 0
-615 632 -157 0
652 109 -741 0
808 -88 907 0
567 299 249 0
318 272 -656 0
729 -98 -603 0
-30 -401 -877 0
-221 -141 731 0
714 39 672 0
-227 -140 29 0
-495 -138 207 0
576 860 -929 0
-532 -740 974 0
526 552 -924 0
545 -705 -75 0
931 -547 23 0
402 77 -603 0
-179 -490 659 0
30 -238 626 0
619 233 -601 0
-118 36 677 0
-42 751 444 0
-724 541 -737 0
140 -429 -658 0
-956 -26 -918 0
854 -98 429 0
709 336 -645 0
605 142 395 0
954 624 -148 0
-485 -123 814 0
262 81 309 0
-102 89 -331 0
-930 572 -7 0
248 -771 934 0
493 -854 -37 0
351 -150 -76 0
848 -734 435 0
-108 -600 -789 0
332 773 638 0
180 -158 642 0
-94 320 727 0
549 -950 634 0
-788 871 -409 0
459 472 -174 0
488 -310 542 0
976 -33 -594 0
-752 -200 579 0
592 110 -677 0
-571 538 673 0
-755 -533 -64 0
472 523 529 0
-480 467 -493 0
498 -181 -40 0
850 13 550 0
599 -952 814 0
-86 140 -785 0
253 697 -585 0
18 21 599 0
-388 -124 -871 0
-699 -798 608 0
949 -838 688 0
635 -889 344 0
-152 -836 -405 0
-958 -753 -972 0
958 684 -959 0
-163 457 -827 0
-331 -780 274 0
837 -522 789 0
-498 -682 -765 0
-56 894 -896 0
46 -779 803 0
23 956 -688 0
-829 621 -804 0
192 -849 -283 0
117 332 -752 0
-660 556 907 0
-714 638 534 0
-51 990 -723 0
-646 -101 -507 0
201 -133 -222 0
-120 -219 -572 0
264 982 37 0
474 637 -891 0
608 56 -731 0
907 -188 750 0
1 -348 -749 0
-472 -318 -487 0
-250 513 -183 0
769 -868 -842 0
343 -473 735 0
23 770 -789 0
427 88 899 0
881 -996 -570 0
-968 572 862 0
474 990 -885 0
-549 197 351 0
-757 804 883 0
-99 -496 -286 0
276 -274 963 0
625 -269 -183 0
412 664 652 0
223 -191 171 0
-435 -785 546 0
72 -252 341 0
723 753 -337 0
-132 -592 571 0
-991 -40 -360 0
556 664 -828 0
516 271 -298 0
865 922 203 0
-389 -109 242 0
-957 653 -347 0
-829 -85 130 0
-42 -244 -31 0
-654 996 22 0
-395 -488 -493 0
-140 -532 88 0
198 -375 -645 0
-728 -262 -169 0
-877 -580 -550 0
-293 239 503 0
-327 353 97 0
716 189 936 0
829 -601 -262 0
-956 597 561 0
713 395 433 0
160 294 -960 0
-100 -660 527 0
695 -314 970 0
-73 203 574 0
-313 -707 307 0
-153 -571 52 0
-946 102 -800 0
-526 -20 -196 0
-705 -673 136 0
522 638 669 0
-759 -135 132 0
-676 -185 -371 0
-847 -69 -593 0
840 96 -304 0
429 -426 -210 0
-389 648 496 0
337 969 -178 0
808 306 204 0
381 190 173 0
978 167 455 0
-195 112 -609 0
911 735 611 0
-730 -336 612 0
-846 727 579 0
-506 -930 719 0
689 -250 265 0
140 -222 657 0
-765 365 -708 0
-431 615 -440 0
-46 751 465 0
-171 -557 281 0
459 514 916 0
828 802 -699 0
-725 -641 -335 0
-174 -634 709 0
597 -722 5 0
-69 -837 650 0
-531 944 661 0
-631 -980 -423 0
598 -187 -62 0
731 -770 301 0
407 -853 879 0
-214 -216 -116 0
-717 507 -414 0
380 926 -901 0
554 -76 411 0
751 394 22 0
748 -626 531 0
-771 407 814 0
-740 -764 -177 0
405 -660 -973 0
666 989 -503 0
-270 -730 -466 0
-334 185 290 0
272 -392 293 0
-156 -137 -312 0
566 -272 895 0
-163 -330 100 0
869 -245 -430 0
-379 -720 798 0
-635 -933 -522 0
483 -428 -703 0
-226 -621 -271 0
-299 -32 -370 0
-406 612 457 0
-81 -286 -176 0
-441 -593 -5 0
-407 -253 427 0
-341 -472 475 0
523 -50 672 0
-396 805 904 0
494 -174 -590 0
440 167 72 0
-235 489 4 0
207 -57 79 0
-93 -827 487 0
295 -328 976 0
-91 69 563 0
-227 976 739 0
-40 867 -541 0
-591 636 -311 0
493 -149 -859 0
422 816 47 0
20 443 224 0
605 938 -754 0
-767 -49 157 0
512 223 91 0
-171 720 -711 0
56 136 297 0
765 119 144 0
-277 -854 667 0
-525 840 216 0
-502 -355 -15 0
-261 270 -971 0
101 754 -782 0
774 174 -904 0
-220 -962 -850 0
-894 -194 -721 0
-581 229 624 0
789 -141 960 0
622 606 -836 0
307 992 599 0
-463 -115 -410 0
-880 -640 -792 0
-768 -580 910 0
-674 -160 -94 0
-205 494 112 0
-727 527 469 0
-251 -846 111 0
830 713 -542 0
-73 74 -747 0
606 -270 -380 0
602 130 730 0
-638 -875 -723 0
412 -907 598 0
-824 834 246 0
937 608 -395 0
385 -366 306 0
-447 545 -53 0
562 -539 574 0
237 544 -76 0
-486 893 -525 0
-751 -445 447 0
-931 942 281 0
696 807 846 0
-996 -4 -837 0
163 -20 -287 0
840 549 245 0
383 496 108 0
502 749 -800 0
-867 389 562 0
794 466 -21 0
759 93 -821 0
-673 -350 524 0
596 635 207 0
-822 -545 -828 0
-964 -427 -55 0
168 -19 658 0
764 51 -180 0
4 -782 561 0
-883 707 49 0
530 13 156 0
932 -305 925 0
-505 -303 366 0
-812 -794 -973 0
320 -401 -829 0
-58 49 -219 0
115 870 -242 0
-969 -195 334 0
926 168 56 0
-166 877 -572 0
59 691 -928 0
-780 -988 25 0
931 -940 -332 0
-592 -777 -484 0
-976 942 631 0
909 877 933 0
783 587 -402 0
563 -335 -413 0
7 704 903 0
398 -162 511 0
732 776 954 0
-961 -611 376 0
-351 30 44 0
-846 588 672 0
246 -837 -696 0
-429 -236 -489 0
52 -460 944 0
-171 -981 -437 0
268 401 -922 0
-840 -603 389 0
764 -700 -68 0
-475 961 635 0
-804 744 66 0
-570 -747 -877 0
580 800 -498 0
-340 -328 338 0
64 149 574 0
190 -398 -883 0
-704 141 428 0
-922 874 -208 0
813 -169 -729 0
737 -464 -898 0
-632 484 -105 0
-120 42 -764 0
199 -18 -833 0
-724 -398 429 0
612 -358 -47 0
-711 -458 374 0
544 627 380 0
-957 971 -664 0
-152 -328 854 0
978 100 492 0
517 -137 -677 0
-243 605 322 0
-172 -787 940 0
-938 -223 301 0
20 135 74 0
149 383 -521 0
567 527 -561 0
246 566 637 0
-890 -532 862 0
-800 -352 274 0
94 262 598 0
288 262 -693 0
48 896 -455 0
-353 822 -551 0
-572 -642 -865 0
-93 738 -228 0
-658 -559 787 0
-609 115 -558 0
472 460 553 0
795 929 133 0
518 -625 298 0
804 -665 965 0
-92 357 -506 0
236 -689 -624 0
601 -790 514 0
-9 -522 26 0
-340 -967 928 0
550 -86 -809 0
21 -371 -334 0
77 309 -456 0
-541 274 -296 0
-958 146 -398 0
72 52 -102 0
556 -555 -610 0
-938 -846 350 0
-721 651 -298 0
-318 718 -243 0
998 -802 -592 0
180 472 286 0
-755 837 979 0
-331 792 258 0
-422 421 -692 0
827 -722 368 0
978 1 -675 0
355 688 -279 0
869 -295 866 0
982 995 -217 0
578 -646 -488 0
26 211 -999 0
-752 761 722 0
-184 -834 -946 0
175 -788 -731 0
49 737 -270 0
-29 -278 567 0
-535 494 -170 0
-865 32 988 0
-95 37 -496 0
-42 655 -332 0
690 -323 347 0
-669 -182 296 0
-599 -176 802 0
-777 -599 117 0
494 262 587 0
-67 -331 -845 0
434 615 -129 0
353 -395 455 0
-719 -981 603 0
855 388 400 0
-439 -951 567 0
316 -642 -11 0
-422 264 67 0
-863 448 511 0
-104 -968 -598 0
-87 828 390 0
-149 -527 -896 0
222 -132 352 0
637 -139 -656 0
388 -420 890 0
-920 -69 548 0
-571 -809 -637 0
99 -441 -844 0
87 632 299 0
314 -634 -10 0
-778 97 -15 0
-712 -854 993 0
19 250 403 0
-587 -527 62 0
930 -244 407 0
915 -279 -226 0
-55 -745 15 0
-1000 -470 -335 0
136 -977 -206 0
973 52 -512 0
-581 -84 -449 0
-132 218 -362 0
97 -829 -573 0
599 466 -588 0
-893 -406 -725 0
-965 644 -231 0
688 763 -147 0
32 -658 236 0
-418 -572 -620 0
-594 951 -325 0
163 768 -58 0
-494 182 741 0
601 763 262 0
-360 -255 577 0
785 -145 991 0
937 614 497 0
-114 121 -344 0
884 -429 -674 0
882 742 -907 0
-844 -595 28 0
402 -41 290 0
-983 -486 -557 0
-124 315 928 0
-256 -189 -31 0
971 -994 346 0
-584 918 -645 0
-605 -129 630 0
661 -712 -960 0
-907 537 -89 0
408 -978 738 0
25 903 -293 0
332 -57 -154 0
-466 493 545 0
-463 -942 729 0
-51 464 406 0
-37 883 -152 0
411 229 -742 0
555 116 -192 0
-779 665 -48 0
961 -79 130 0
348 478 332 0
-572 -977 -478 0
-751 590 -245 0
-977 -833 -406 0
-425 846 811 0
128 -421 -214 0
457 89 -143 0
-696 334 -669 0
914 -531 553 0
561 -382 442 0
24 997 289 0
699 446 352 0
708 -557 -233 0
-228 -269 -663 0
763 184 -144 0
-677 278 -787 0
417 -493 -557 0
-814 -719 958 0
-804 762 129 0
713 -579 474 0
-768 158 -397 0
501 121 977 0
458 96 -892 0
-591 372 -963 0
-597 54 649 0
640 -256 646 0
-556 -345 781 0
696 -385 -787 0
-573 303 387 0
36 -118 3 0
-390 -72 429 0
430 -218 143 0
-424 732 922 0
-999 922 825 0
638 -345 -328 0
165 655 122 0
-213 -715 -993 0
193 807 -334 0
-345 575 854 0
-486 718 -321 0
-462 -133 -425 0
-595 564 -1000 0
-552 -612 530 0
720 -551 967 0
-805 333 361 0
-105 -626 194 0
225 -788 -733 0
611 -950 -446 0
-886 519 -460 0
-500 -937 864 0
144 -495 -152 0
894 913 -80 0
-504 40 -217 0
-155 400 547 0
-945 -603 -934 0
703 641 870 0
-302 -95 598 0
46 564 762 0
751 176 641 0
-235 -347 -352 0
34 -183 311 0
320 -223 -87 0
-43 902 723 0
624 916 -550 0
-222 -263 804 0
962 -511 440 0
-189 334 -256 0
-231 -894 881 0
75 649 -207 0
176 141 591 0
550 956 -381 0
476 -240 893 0
-691 157 321 0
-626 -768 136 0
-412 750 166 0
97 -529 305 0
770 717 -746 0
-738 -980 597 0
-783 -138 -469 0
-618 -486 90 0
-76 458 198 0
997 85 -675 0
443 -38 459 0
-19 -124 -467 0
972 -326 -583 0
852 -720 17 0
59 -811 46 0
278 -680 -838 0
553 187 520 0
-233 53 752 0
232 -758 737 0
296 -152 -506 0
-264 235 -774 0
928 49 848 0
597 899 -377 0
258 -713 566 0
368 -599 639 0
-279 -843 -140 0
-948 719 -4 0
-222 -493 -422 0
-897 -82 372 0
867 4 -251 0
311 -367 -33 0
-136 -245 -878 0
-909 318 -732 0
469 316 916 0
-779 -507 -350 0
-322 -791 -444 0
774 214 975 0
-897 -317 681 0
178 473 -662 0
916 -102 -510 0
-778 893 844 0
269 607 934 0
-599 971 570 0
528 299 841 0
-432 437 -379 0
-598 461 -115 0
-926 -173 114 0
397 157 -458 0
839 925 -577 0
-295 -754 740 0
-693 337 -389 0
867 35 465 0
180 398 25 0
824 285 -242 0
645 -211 227 0
115 579 -623 0
-15 392 -472 0
-822 335 461 0
250 -469 310 0
128 -4 48 0
-108 -989 -693 0
-323 -420 -81 0
-645 764 -455 0
-126 -195 381 0
550 497 467 0
500 -506 80 0
968 -253 -687 0
-954 203 -590 0
-737 801 -864 0
-940 616 668 0
971 -518 769 0
5 -200 -777 0
635 668 -297 0
-536 413 -489 0
-829 -96 785 0
234 826 -565 0
-335 -633 -638 0
310 288 -682 0
381 443 -27 0
-817 850 -262 0
1 -374 -117 0
656 88 659 0
-418 80 4 0
727 352 239 0
-283 247 341 0
-115 62 520 0
-242 -91 749 0
-800 311 -500 0
-650 918 -502 0
98 -177 -451 0
-420 187 -242 0
-297 345 134 0
-805 -315 -36 0
274 104 294 0
614 -170 -200 0
-492 -638 521 0
-491 345 -792 0
638 325 173 0
-294 -106 -908 0
890 -947 -277 0
257 -197 -334 0
759 -494 -93 0
-370 999 -546 0
-711 -215 -20 0
956 764 670 0
579 -296 -941 0
-66 -131 53 0
-742 -928 -800 0
-5 706 -813 0
-865 83 4 0
-191 -535 -36 0
91 817 856 0
913 716 304 0
-541 71 -435 0
-690 -114 -431 0
531 -76 -78 0
-295 -928 597 0
537 -45 800 0
744 -312 -489 0
-308 -339 -748 0
465 -796 -828 0
740 999 -531 0
940 436 -751 0
146 -24 -121 0
552 -735 -866 0
864 -405 -609 0
-956 -69 -188 0
-26 -548 -620 0
-490 45 -940 0
512 830 738 0
-658 -830 -886 0
264 -640 -341 0
189 -922 -797 0
-124 -523 483 0
116 950 -524 0
-406 647 344 0
-834 -738 412 0
150 563 945 0
763 220 195 0
563 -87 255 0
307 301 -800 0
127 -765 76 0
-17 -587 82 0
-110 -660 901 0
-681 212 -549 0
923 27 -742 0
424 -272 -824 0
-652 -560 -336 0
274 882 114 0
-163 -823 -774 0
101 669 -477 0
-692 115 983 0
-300 -677 -936 0
50 568 -82 0
283 982 492 0
-754 573 858 0
95 -335 724 0
284 -879 -109 0
371 -134 264 0
-510 892 -165 0
463 -632 -206 0
-861 642 850 0
529 -609 -800 0
-402 677 348 0
-978 643 571 0
868 -779 854 0
711 316 -478 0
735 458 776 0
-985 -218 -582 0
-846 -262 -961 0
-694 -601 -380 0
965 328 -368 0
77 -708 -263 0
-1000 405 169 0
-662 785 -519 0
309 -403 -281 0
-721 34 396 0
-865 808 623 0
631 -206 811 0
-244 -552 243 0
-761 -997 -221 0
-603 -102 752 0
-530 -363 -247 0
735 -342 -235 0
713 545 -202 0
671 429 -183 0
972 483 -680 0
952 939 714 0
-14 -732 751 0
-667 -990 -946 0
-310 118 -477 0
172 901 -794 0
935 -287 131 0
605 960 -155 0
192 638 -212 0
604 737 -851 0
270 155 -670 0
716 215 -314 0
-32 851 781 0
-345 965 304 0
170 -395 617 0
-303 116 -96 0
-630 -240 -919 0
996 416 -601 0
587 -234 206 0
203 -77 532 0
-402 965 837 0
349 -880 -505 0
667 -100 -102 0
-895 126 -451 0
883 202 -170 0
16 192 800 0
-438 -669 114 0
-818 914 84 0
786 -751 -867 0
606 714 631 0
-440 291 -160 0
876 -909 7 0
-734 928 402 0
-549 389 522 0
-544 -980 155 0
717 -790 -445 0
-758 -938 714 0
548 361 -959 0
865 -512 337 0
-464 -201 446 0
620 -923 -497 0
-698 307 -301 0
-720 443 -3 0
456 669 564 0
-885 642 158 0
-794 -281 1 0
-378 -720 429 0
-590 -472 175 0
889 453 216 0
-134 -674 -265 0
-855 282 -311 0
131 744 -36 0
-611 196 512 0
-536 -873 -888 0
-182 -792 -982 0
427 303 -851 0
8 362 270 0
-822 -930 722 0
-86 -831 608 0
146 -15 -46 0
944 -392 -436 0
596 -92 408 0
149 9 -590 0
-180 -212 -111 0
513 479 -850 0
374 -389 104 0
501 888 -919 0
-136 831 846 0
662 387 -21 0
930 250 289 0
-979 -272 960 0
741 864 -701 0
-951 -322 360 0
961 -967 74 0
-365 449 90 0
-508 573 -995 0
-498 -796 837 0
459 732 -746 0
-165 -672 -442 0
-115 -280 133 0
375 723 -932 0
481 428 -470 0
808 393 489 0
-909 397 -611 0
656 -32 734 0
146 -68 193 0
-554 -98 -492 0
941 -139 35 0
-751 379 -443 0
-326 -554 -632 0
-544 -770 349 0
903 -324 -190 0
-82 -575 845 0
621 466 -539 0
-586 655 -111 0
325 456 909 0
331 -258 272 0
-701 -712 -333 0
904 608 506 0
-260 768 778 0
-87 -723 797 0
438 -265 89 0
241 692 76 0
193 355 375 0
186 796 -14 0
-676 94 -162 0
47 -529 844 0
946 -899 -154 0
-828 535 -621 0
-716 -672 493 0
528 -87 178 0
-466 -953 636 0
360 828 -376 0
130 -793 706 0
-860 -354 -150 0
-267 230 -72 0
757 -861 -941 0
-19 -879 907 0
244 927 529 0
-568 419 -534 0
-510 622 463 0
771 17 -114 0
-135 128 407 0
131 -524 -448 0
282 -676 72 0
-95 332 764 0
405 -272 570 0
902 616 -475 0
47 429 963 0
-416 -782 -817 0
270 52 -281 0
324 757 -923 0
-464 691 -850 0
-950 -777 -923 0
737 -236 -729 0
939 91 884 0
890 120 -930 0
29 -448 204 0
-66 345 881 0
-677 672 -156 0
-972 -661 -289 0
301 -413 846 0
941 -171 158 0
-849 -714 695 0
879 857 942 0
814 -987 612 0
-56 157 184 0
-980 256 -651 0
718 -275 -506 0
-526 4 835 0
446 -768 181 0
-814 774 -607 0
-867 -972 112 0
663 -855 -776 0
-436 120 -656 0
23 -91 -108 0
-13 255 -210 0
-969 -716 -220 0
-861 369 -813 0
-731 -212 997 0
904 379 -278 0
72 387 -560 0
-204 625 -635 0
-747 214 -553 0
-387 -603 -341 0
-399 829 549 0
51 -23 18 0
-254 -656 -665 0
195 86 -856 0
216 959 -329 0
438 727 -807 0
-138 364 -702 0
-759 481 -357 0
570 834 606 0
197 345 -354 0
147 747 -373 0
15 693 -38 0
829 374 -549 0
-642 -655 -73 0
72 -627 119 0
151 365 743 0
-958 47 -763 0
383 892 -384 0
434 157 682 0
635 326 -47 0
183 -927 548 0
-336 749 595 0
896 -902 -545 0
-926 -124 -805 0
492 -738 -109 0
-541 -704 533 0
29 -778 -687 0
-910 -186 334 0
871 646 -229 0
-223 200 -656 0
457 115 261 0
237 -33 361 0
719 -981 -733 0
757 945 -949 0
676 25 -365 0
-173 414 64 0
-865 609 999 0
91 111 314 0
488 -684 -651 0
1000 156 -552 0
813 618 231 0
-918 -8 701 0
-574 689 -321 0
209 566 -1000 0
716 941 835 0
-27 277 722 0
727 648 -61 0
-574 -830 -140 0
621 921 -450 0
-57 -773 -152 0
868 -647 -937 0
-593 -93 340 0
901 -687 -93 0
933 -823 -857 0
275 -936 -802 0
909 213 -175 0
727 -393 389 0
912 -814 -679 0
392 -243 -31 0
55 -515 -343 0
945 432 -130 0
860 627 -975 0
556 904 -362 0
132 -486 -50 0
84 206 20 0
-959 720 155 0
194 -654 763 0
786 -566 526 0
-67 -302 -73 0
-486 -455 849 0
731 831 -372 0
-454 -820 -602 0
-544 910 -236 0
-988 863 642 0
-684 -608 -420 0
-986 25 260 0
39 286 265 0
873 -166 -266 0
-560 781 138 0
164 -897 -205 0
-13 164 696 0
-847 -637 909 0
479 649 344 0
-42 916 438 0
-452 212 302 0
-97 43 856 0
543 376 -243 0
-973 -156 -500 0
749 -420 -605 0
88 -372 -520 0
-124 -732 -877 0
609 189 -869 0
777 704 335 0
683 428 -877 0
781 477 225 0
765 -217 814 0
-839 -148 731 0
477 -62 620 0
-255 -194 404 0
935 -611 545 0
536 173 611 0
952 498 874 0
-782 -999 -412 0
345 573 733 0
2 -552 -479 0
-649 -403 -876 0
-81 -834 42 0
-391 223 834 0
969 -57 830 0
-570 797 -346 0
-991 136 -111 0
-396 -879 461 0
-536 -627 -988 0
848 866 -330 0
74 -89 472 0
731 5 -41 0
-342 -836 781 0
-348 -521 251 0
-377 -844 -615 0
468 759 -127 0
717 47 794 0
-576 218 387 0
930 554 -376 0
973 -330 75 0
-922 666 483 0
-92 344 -614 0
-338 -354 471 0
-116 -661 756 0
-865 -763 -841 0
768 127 -712 0
-510 436 -486 0
-141 870 -133 0
926 783 802 0
535 561 -109 0
-689 -389 -950 0
67 -739 289 0
38 701 149 0
517 331 -213 0
69 40 -986 0
-680 52 -382 0
258 -630 -942 0
897 103 -486 0
-923 -680 77 0
-144 728 -799 0
-595 192 -979 0
877 -940 -647 0
-344 350 -620 0
-645 804 74 0
147 -445 186 0
-592 -786 880 0
876 657 419 0
257 -273 -598 0
305 -14 -748 0
34 -915 340 0
-977 432 832 0
-907 772 318 0
-81 752 -582 0
633 449 -996 0
791 721 427 0
50 -459 -334 0
360 -697 822 0
-533 -554 545 0
-119 662 -566 0
596 258 812 0
-622 -242 -10 0
-309 -605 768 0
910 713 302 0
-679 514 -754 0
-443 227 131 0
734 -469 282 0
263 342 -578 0
-675 37 -273 0
-732 856 44 0
-572 -934 580 0
584 753 335 0
832 -738 -637 0
273 -439 -496 0
-147 830 27 0
48 -812 -402 0
698 52 97 0
-544 -294 286 0
-918 242 -895 0
292 533 -806 0
987 242 -371 0
934 -161 630 0
-571 850 573 0
-893 955 -172 0
817 -93 -65 0
221 312 -807 0
711 -963 -501 0
305 -660 -218 0
-515 -873 744 0
837 799 91 0
366 -572 -972 0
-786 902 119 0
46 -869 577 0
150 -438 -598 0
-247 -791 921 0
-730 -138 -283 0
-362 -694 691 0
-231 676 -369 0
537 -207 -149 0
-623 -856 -713 0
187 -659 -87 0
36 289 156 0
250 -557 -708 0
-476 -299 737 0
450 261 108 0
-218 -842 273 0
