p cnf 500 1550
-229 362 -148 0
429 -116 291 0
-415 -77 -436 0
-498 406 -284 0
-354 360 391 0
-116 60 -294 0
9 -98 -370 0
432 -239 -14 0
-87 -17 446 0
-306 224 -487 0
-194 -282 -304 0
-304 -422 -448 0
-439 -195 269 0
404 335 -483 0
-12 -219 335 0
-288 5 10 0
226 -316 -146 0
-32 491 274 0
88 -158 374 0
225 -243 25 0
217 408 480 0
-259 462 188 0
112 168 -273 0
-448 -465 219 0
-328 423 64 0
-223 18 354 0
328 -245 458 0
-436 -49 -44 0
266 -318 376 0
51 54 -175 0
96 82 291 0
447 293 -278 0
460 349 331 0
488 439 448 0
-276 61 218 0
-293 238 -31 0
-375 137 21 0
471 101 500 0
251 -92 357 0
-307 492 491 0
44 -263 -474 0
-84 458 -301 0
-487 174 176 0
-215 -373 45 0
461 -79 218 0
74 -413 62 0
-338 82 353 0
-242 -426 99 0
-395 349 -430 0
-358 -251 -195 0
-35 -39 -32 0
-296 86 -372 0
-351 -158 -331 0
-410 383 -59 0
-465 184 67 0
129 -364 460 0
-349 -402 5 0
-20 271 25 0
-293 -297 384 0
-290 -6 366 0
147 335 -155 0
290 -2 -241 0
493 -146 496 0
-365 -295 -355 0
-106 295 -165 0
362 -41 -438 0
65 -377 110 0
-69 -472 213 0
262 233 55 0
-459 -219 277 0
149 19 274 0
211 212 -53 0
-159 98 237 0
-265 -198 -148 0
-20 355 24 0
19 418 449 0
372 -432 450 0
334 -299 424 0
378 -388 317 0
-498 144 26 0
386 88 -317 0
-131 -142 -96 0
427 -270 -205 0
176 7 -245 0
-162 105 -437 0
35 164 104 0
471 348 51 0
234 255 -264 0
-445 199 -41 0
197 -276 -481 0
345 -196 213 0
-178 250 -353 0
-38 -136 -470 0
316 -74 -16 0
500 -493 107 0
249 -200 211 0
481 -88 -53 0
396 -25 424 0
235 -243 224 0
-226 -191 -419 0
-294 464 -311 0
-276 -493 422 0
336 245 -340 0
-363 -193 -382 0
272 260 408 0
-244 -241 -87 0
-104 -64 -196 0
438 186 79 0
-200 -420 324 0
185 -351 433 0
309 -401 -416 0
-307 -485 -15 0
-499 -186 148 0
-448 171 483 0
-77 364 -87 0
137 463 287 0
13 225 -166 0
43 386 82 0
228 -251 -19 0
278 -381 -372 0
-231 -139 -206 0
-63 -326 182 0
-381 346 335 0
-269 222 -467 0
433 -463 -411 0
-167 21 -319 0
-205 492 94 0
-416 488 141 0
228 -38 -162 0
290 -357 458 0
-213 225 345 0
-387 116 39 0
268 -46 215 0
-422 157 -233 0
-305 152 -104 0
65 -71 -104 0
276 -429 -233 0
365 280 266 0
29 402 411 0
-347 133 173 0
445 183 444 0
204 -328 499 0
493 -262 -229 0
-82 121 69 0
335 -370 133 0
203 411 66 0
277 -301 -355 0
-488 -446 -290 0
282 -499 99 0
-438 55 224 0
152 102 -279 0
-29 -356 -355 0
-167 -131 -461 0
-91 294 317 0
-52 9 -155 0
474 324 -332 0
129 -33 95 0
-426 -387 -112 0
267 -41 56 0
306 -413 227 0
337 -458 -106 0
-89 -271 -346 0
-411 387 278 0
8 170 -428 0
202 57 -263 0
-166 138 276 0
175 72 415 0
287 -186 333 0
-369 -223 -60 0
146 256 360 0
185 -43 176 0
-13 -187 490 0
25 -62 -382 0
-224 -109 172 0
-116 -483 -316 0
-36 194 217 0
434 345 25 0
317 -350 107 0
-377 -250 -498 0
-375 -194 62 0
407 -54 442 0
-337 -113 -38 0
-456 47 363 0
-29 -164 -186 0
52 290 -189 0
-373 174 -156 0
-150 -292 -307 0
257 -221 -456 0
-475 -378 480 0
239 11 25 0
200 -423 354 0
458 -349 -104 0
226 107 -332 0
-28 222 -482 0
-35 65 -480 0
242 -370 481 0
359 -312 -160 0
425 -69 102 0
-96 351 -477 0
-435 313 186 0
-413 309 163 0
-193 240 -46 0
-125 -97 264 0
-208 493 307 0
-397 -392 362 0
498 -21 -49 0
64 -413 -261 0
313 -109 -74 0
-280 204 -406 0
39 -282 98 0
-497 256 250 0
241 364 305 0
-441 -92 -329 0
-139 473 419 0
-278 -203 -400 0
-141 484 202 0
66 -465 279 0
-481 -384 -445 0
10 -139 -58 0
-443 238 438 0
439 345 -390 0
480 17 121 0
-181 -294 305 0
-116 -216 359 0
63 453 -10 0
258 471 124 0
-390 421 257 0
175 154 212 0
355 -47 -447 0
-129 397 -431 0
124 50 215 0
112 165 -114 0
-327 -407 173 0
496 -372 -64 0
113 305 -163 0
-289 472 284 0
-22 71 -465 0
-314 86 -56 0
404 107 -147 0
27 -498 369 0
-30 175 -18 0
-192 -336 309 0
409 464 -383 0
471 311 -348 0
256 -471 206 0
-140 -126 -267 0
-164 -271 -440 0
269 175 95 0
490 204 189 0
-130 -253 396 0
204 -219 -211 0
50 -270 -246 0
-215 492 -226 0
68 473 -29 0
-484 -485 183 0
371 -374 2 0
396 -125 418 0
-113 -418 -386 0
194 -213 69 0
123 -388 -202 0
-396 -356 488 0
-55 34 442 0
-266 -239 252 0
-339 114 472 0
338 162 377 0
232 371 219 0
373 -499 -387 0
77 198 129 0
225 383 -385 0
299 416 123 0
283 90 -303 0
-323 -99 194 0
275 426 -206 0
196 453 409 0
-173 280 358 0
74 347 -161 0
300 131 175 0
29 -235 247 0
-297 -435 134 0
-421 -23 -434 0
-108 -494 191 0
367 15 -264 0
-251 -274 174 0
-165 -28 -301 0
172 -108 77 0
-377 48 111 0
93 -49 -232 0
-215 118 63 0
193 -368 97 0
-154 -478 442 0
222 -348 298 0
400 362 -183 0
356 69 -146 0
-114 -314 -377 0
286 -179 -429 0
256 287 -24 0
-51 71 -243 0
109 -480 22 0
218 -390 287 0
394 272 361 0
-294 -132 -202 0
-50 -272 -39 0
39 2 164 0
379 494 399 0
10 300 -340 0
-280 141 -254 0
267 214 -435 0
-49 484 360 0
-404 109 -396 0
-112 469 308 0
141 36 -260 0
-128 107 132 0
259 334 436 0
237 -51 -356 0
-368 230 -181 0
257 393 307 0
120 5 383 0
21 -120 404 0
-282 -163 -111 0
138 -230 124 0
-23 -437 171 0
-318 -63 322 0
295 51 318 0
-401 -164 -300 0
381 -397 319 0
-387 428 393 0
-345 -228 364 0
-463 442 106 0
-247 -388 133 0
276 -187 391 0
-256 -334 -356 0
-96 -25 89 0
-313 242 -97 0
-72 -409 -266 0
134 -40 -316 0
-124 254 33 0
210 -183 -115 0
113 294 -83 0
-29 211 315 0
373 -260 197 0
121 346 86 0
49 171 -13 0
375 31 -116 0
64 -334 -1 0
-229 292 482 0
265 -464 393 0
351 487 -337 0
-426 177 -91 0
86 13 128 0
372 -373 391 0
-55 -387 -86 0
491 -130 -207 0
-160 23 201 0
-397 382 -112 0
-380 125 10 0
324 36 -320 0
-464 -471 -485 0
-473 407 75 0
11 163 188 0
489 -99 50 0
-60 -495 88 0
-233 -154 -110 0
-25 -314 77 0
381 343 94 0
216 -323 158 0
-319 -276 -174 0
-198 239 389 0
-23 -238 69 0
-272 -73 200 0
-490 221 496 0
-356 -397 308 0
-13 342 -285 0
81 -362 -392 0
-381 -386 -122 0
116 -91 -269 0
318 300 341 0
487 -73 200 0
-362 373 -164 0
-496 499 203 0
104 101 70 0
154 183 -461 0
-369 -211 214 0
294 -312 67 0
-177 285 84 0
-38 96 -146 0
382 -2 -15 0
-389 -146 285 0
429 -115 49 0
192 -420 -115 0
244 24 -182 0
-365 -174 411 0
129 241 306 0
393 233 -330 0
1 -445 -35 0
165 -452 -375 0
-457 352 227 0
-63 -444 -231 0
408 -193 -196 0
291 -442 -145 0
-400 -149 -397 0
246 283 -169 0
-394 -186 -447 0
-345 -402 216 0
-213 233 -230 0
12 43 -392 0
230 -160 -51 0
283 -267 418 0
-149 120 -433 0
-204 -320 -248 0
203 60 -357 0
-465 -18 -271 0
419 -36 -18 0
-185 218 144 0
384 -210 451 0
89 123 -465 0
-353 -194 449 0
345 335 -266 0
60 106 -395 0
144 -278 -274 0
93 118 194 0
-337 352 -226 0
-310 498 380 0
219 95 69 0
107 -357 314 0
211 -102 78 0
-78 -193 15 0
-221 424 -415 0
348 146 123 0
374 -321 434 0
-291 -196 -206 0
169 414 263 0
-344 -263 -89 0
263 -405 404 0
-492 237 -498 0
432 398 337 0
185 -196 399 0
-346 293 -4 0
-368 -59 -78 0
-435 -90 48 0
6 483 -259 0
-106 236 358 0
-55 362 -3 0
-476 -244 269 0
-249 -67 -39 0
-154 -22 53 0
391 25 -465 0
210 -496 32 0
124 -483 -184 0
5 9 308 0
479 -274 -65 0
-116 -56 -79 0
-283 -34 456 0
274 492 -286 0
-264 470 401 0
-65 434 257 0
62 -490 485 0
-333 -95 -81 0
-102 190 -298 0
-76 -248 33 0
-317 451 -46 0
-42 -235 474 0
338 330 462 0
118 135 -232 0
429 -354 -362 0
180 449 -124 0
-326 -62 283 0
233 321 -224 0
275 -138 380 0
233 -133 -60 0
147 87 -211 0
-202 -381 178 0
295 177 23 0
234 -315 -159 0
-77 491 380 0
-392 -32 -199 0
399 246 -340 0
89 460 -36 0
420 -353 -14 0
371 -299 -120 0
58 282 -75 0
168 4 -406 0
-376 322 -94 0
465 211 -389 0
179 -255 -244 0
-120 -428 -66 0
-18 186 201 0
-312 182 -462 0
482 287 -301 0
-207 -142 -165 0
83 -270 474 0
141 331 -271 0
-47 443 -275 0
-308 125 -292 0
-195 -410 135 0
-218 -476 -280 0
-434 326 -476 0
447 -492 5 0
-332 191 -126 0
-37 -244 -415 0
114 400 -399 0
393 433 -269 0
-445 -219 -236 0
23 -472 56 0
334 -93 -185 0
-57 -199 79 0
480 199 -268 0
33 -425 -396 0
317 -198 70 0
326 122 426 0
-161 -336 153 0
330 258 -421 0
-426 -401 -324 0
-210 -69 -497 0
-229 -416 83 0
-372 172 -53 0
-248 407 -122 0
-267 27 123 0
312 -331 -433 0
353 -376 58 0
227 -302 -478 0
-220 14 -260 0
-243 159 200 0
148 -153 112 0
294 -354 -366 0
230 -279 126 0
-374 160 -278 0
297 -39 -398 0
-241 234 -414 0
-255 331 -344 0
324 -40 356 0
109 291 167 0
-171 280 -217 0
433 331 85 0
-175 489 127 0
139 388 -402 0
460 -218 340 0
-86 333 -32 0
92 -410 374 0
-484 -94 -70 0
483 363 -440 0
-447 -461 -64 0
-312 380 484 0
-305 155 340 0
-91 404 -107 0
-420 326 76 0
264 -469 -131 0
-374 474 -306 0
-127 277 103 0
473 440 146 0
-114 189 -99 0
-403 66 298 0
349 -125 -476 0
463 -94 3 0
389 -429 -366 0
-24 -130 374 0
-214 263 26 0
-411 274 -65 0
428 206 -450 0
242 246 -90 0
312 -180 -51 0
401 -89 226 0
178 217 -88 0
-399 -389 -22 0
397 -85 -476 0
464 100 -337 0
152 -67 116 0
190 -379 480 0
181 -410 -347 0
60 288 -400 0
-471 -434 453 0
462 35 -362 0
-286 441 463 0
67 -94 338 0
59 -198 -33 0
-474 469 -323 0
11 -355 -91 0
-150 335 225 0
382 -231 179 0
-466 441 -211 0
-249 -371 403 0
50 -404 138 0
69 -442 -163 0
-448 -339 -261 0
492 241 -21 0
-182 -266 201 0
-287 402 -331 0
45 -436 -108 0
404 436 -348 0
-321 -130 -443 0
-229 394 -273 0
143 -445 454 0
500 -329 -458 0
-425 -13 -223 0
-468 84 -107 0
23 397 -385 0
270 -192 135 0
415 354 85 0
-403 -382 148 0
99 -366 11 0
-163 171 445 0
-159 294 145 0
336 205 -202 0
153 402 -347 0
-412 -312 -300 0
20 33 -343 0
-96 -359 -492 0
295 291 160 0
98 -207 253 0
245 -213 -183 0
-169 357 186 0
90 -6 -126 0
-366 497 -448 0
324 -11 -329 0
-433 -126 -464 0
-386 316 419 0
-452 -418 -356 0
-19 440 -396 0
86 225 407 0
137 -407 -212 0
-348 -114 281 0
-265 79 -36 0
-440 -14 320 0
53 312 -147 0
126 -424 -97 0
-454 -58 124 0
-47 290 -458 0
-146 477 12 0
272 -150 49 0
-90 -278 2 0
-122 157 383 0
-170 -175 106 0
-448 -65 -356 0
-434 83 428 0
-183 240 -460 0
108 257 -217 0
370 -15 -127 0
-262 108 -463 0
-226 184 -241 0
-43 247 -107 0
-455 -63 -401 0
140 65 -72 0
-383 -308 218 0
42 -64 -54 0
269 448 -496 0
63 -463 -35 0
-27 283 421 0
-363 -473 -306 0
-391 151 481 0
-15 -300 -38 0
-433 -416 469 0
-324 120 -170 0
479 -5 -245 0
-145 -207 -91 0
-472 -257 284 0
87 -151 400 0
-370 142 2 0
-171 20 -476 0
269 -429 465 0
461 -79 313 0
458 -80 399 0
343 -270 88 0
-365 444 -219 0
-456 -151 396 0
-307 487 474 0
-99 -383 -101 0
84 398 148 0
-232 -250 163 0
66 424 447 0
369 40 -181 0
104 464 -434 0
-365 -396 362 0
-281 -225 119 0
197 325 -110 0
261 76 -336 0
-238 251 76 0
-306 294 -261 0
-278 -107 242 0
-122 -219 81 0
-144 -397 453 0
120 -19 -268 0
-205 -224 303 0
403 156 238 0
178 -260 -411 0
144 -253 -202 0
78 444 156 0
-70 -101 -184 0
323 109 33 0
-201 -382 -242 0
-263 106 -432 0
338 -433 232 0
77 138 -359 0
304 -40 -284 0
115 362 -500 0
245 286 285 0
133 498 -23 0
267 -100 -427 0
-492 255 -439 0
-59 -396 -258 0
-363 410 257 0
-240 -47 262 0
-416 171 452 0
-168 -180 219 0
445 -487 -299 0
101 -365 -148 0
499 -56 462 0
-18 426 -191 0
-59 19 390 0
-120 368 -87 0
-403 63 -141 0
431 429 -386 0
469 18 335 0
-97 -78 -61 0
-255 -358 -350 0
345 84 284 0
-411 95 -132 0
252 -444 93 0
-200 378 418 0
59 -118 -231 0
176 65 -475 0
411 229 -423 0
321 278 -284 0
-312 454 55 0
267 421 337 0
-424 -304 -207 0
-439 90 132 0
-417 101 343 0
-363 -263 51 0
-437 -198 121 0
-133 -193 312 0
70 113 361 0
54 412 -439 0
245 -394 438 0
69 -102 329 0
135 108 44 0
247 237 -260 0
-223 -316 150 0
-292 204 468 0
399 394 -14 0
-109 240 300 0
252 472 416 0
382 -464 -443 0
12 376 -299 0
400 -455 -471 0
356 -307 426 0
-268 -83 -409 0
-468 -184 292 0
-52 344 -225 0
-91 171 333 0
336 20 -441 0
383 -213 134 0
-350 -432 -70 0
9 -312 -436 0
-386 -128 390 0
-236 429 32 0
270 -167 117 0
84 -226 -55 0
-13 111 -315 0
-332 -173 407 0
-174 -244 84 0
140 240 383 0
-216 -365 110 0
-153 154 213 0
-356 227 -286 0
-383 185 415 0
221 -500 -176 0
437 -221 -428 0
-481 -330 451 0
473 113 -235 0
-429 372 336 0
-203 456 -345 0
-20 -466 -278 0
44 323 -125 0
167 363 87 0
421 56 41 0
188 371 -61 0
-329 94 128 0
385 444 2 0
-208 -467 -41 0
-473 382 -59 0
499 409 -46 0
-332 -116 -310 0
-472 222 375 0
-118 178 100 0
-317 -369 422 0
442 -232 -48 0
445 196 -156 0
-461 -31 302 0
471 -202 260 0
381 -171 66 0
-166 -136 268 0
432 94 -416 0
-358 -7 -167 0
-213 70 25 0
167 14 89 0
-232 -137 463 0
-407 -336 -351 0
317 280 -238 0
393 -437 258 0
-293 414 -298 0
-403 61 -188 0
-387 22 -7 0
313 332 -320 0
-278 456 -299 0
28 -331 -195 0
-43 197 -496 0
-99 -360 231 0
59 63 -228 0
209 -17 -21 0
326 100 -216 0
3 -52 44 0
414 148 -242 0
61 -177 -437 0
-121 -486 -478 0
4 31 76 0
-327 178 -308 0
129 -132 88 0
-426 -72 -40 0
481 182 -336 0
134 45 -233 0
-430 -491 -287 0
449 67 -193 0
445 12 126 0
-349 -178 105 0
49 485 -69 0
-272 -186 -47 0
-381 -79 -340 0
-252 -314 -125 0
-38 -125 -99 0
390 151 204 0
492 305 373 0
335 46 -363 0
-193 49 100 0
-412 84 364 0
-290 49 2 0
-246 -424 -82 0
-183 24 326 0
267 299 133 0
-398 304 -422 0
124 214 187 0
219 -406 466 0
441 259 328 0
-204 155 -22 0
23 454 433 0
58 336 350 0
56 -246 292 0
-484 -160 132 0
-91 -411 -418 0
277 351 52 0
-473 -151 -309 0
-410 293 -395 0
393 115 -253 0
163 57 -330 0
133 376 -351 0
-63 150 359 0
5 -27 -252 0
-387 87 240 0
-203 484 305 0
350 83 -107 0
-434 -98 -186 0
233 78 143 0
496 268 -158 0
-425 479 167 0
474 424 -195 0
-470 293 464 0
222 -153 46 0
198 306 -466 0
430 473 500 0
175 -164 32 0
-116 365 233 0
39 253 -74 0
-419 188 172 0
87 -317 -391 0
297 -328 -466 0
6 163 458 0
395 337 -20 0
-439 203 -89 0
-480 -456 477 0
-394 -123 33 0
12 -156 -301 0
-407 56 110 0
-456 -495 -431 0
359 163 -35 0
-205 -73 194 0
365 -167 -354 0
55 435 -276 0
46 -496 -445 0
-84 88 -64 0
492 495 149 0
-22 66 -94 0
-488 -435 108 0
304 422 466 0
445 -413 -117 0
204 86 -288 0
-359 248 154 0
-373 -461 25 0
-301 187 -308 0
-272 -470 -459 0
-414 -93 -201 0
289 -40 -253 0
-303 -361 -14 0
-452 181 -5 0
-80 27 394 0
-3 495 411 0
-97 -473 88 0
-337 -419 -84 0
352 -413 -315 0
-22 -137 336 0
-429 -304 -102 0
-166 76 438 0
261 98 -77 0
416 -328 52 0
97 -124 326 0
386 448 -168 0
-67 185 345 0
211 -293 -331 0
-61 280 -352 0
-266 -252 -242 0
-144 -457 146 0
322 357 443 0
382 -200 -142 0
-365 -286 -478 0
-401 63 145 0
-442 -129 443 0
-418 -89 -48 0
-309 458 423 0
-183 199 85 0
-447 84 -449 0
-221 441 433 0
-173 -392 -316 0
68 289 -359 0
-84 -127 -105 0
328 408 457 0
-471 -25 -265 0
360 448 78 0
-127 454 -368 0
24 26 183 0
301 -228 -188 0
-273 -153 274 0
-258 -354 -477 0
140 229 302 0
-15 489 133 0
-352 -26 88 0
-126 -242 108 0
-156 -463 223 0
71 219 122 0
-213 166 337 0
463 319 31 0
164 104 -456 0
-174 137 -23 0
-206 57 -412 0
-273 -215 227 0
-161 399 -395 0
80 300 333 0
-320 -28 303 0
326 -474 -331 0
484 -474 293 0
42 207 147 0
470 48 -340 0
351 -468 305 0
-124 -144 -74 0
-80 328 -298 0
159 -194 -314 0
105 61 -138 0
-336 -323 125 0
-418 -299 224 0
-282 417 34 0
-324 -135 -424 0
32 -255 116 0
244 -21 249 0
79 -178 75 0
-13 117 146 0
370 -334 -372 0
270 -294 -174 0
204 139 301 0
-478 -187 134 0
14 359 -72 0
-89 -368 -500 0
-355 480 347 0
111 -67 -464 0
-66 -479 272 0
394 271 108 0
-326 290 129 0
-336 278 52 0
479 -346 377 0
-348 -188 -136 0
-200 -250 -498 0
-371 -332 305 0
259 238 -203 0
-208 236 -386 0
116 395 28 0
-71 -452 112 0
-277 -216 -284 0
443 73 467 0
-94 -134 339 0
-113 53 108 0
474 -257 -322 0
-314 -46 13 0
362 -72 29 0
-103 397 -325 0
-46 -202 -360 0
192 399 372 0
-228 301 499 0
192 100 -107 0
311 323 93 0
493 139 -5 0
474 51 119 0
-42 376 443 0
61 -97 -131 0
-349 460 -439 0
482 -386 -479 0
229 -93 181 0
-119 360 -13 0
231 180 -158 0
-202 68 -448 0
-84 -87 -31 0
-198 389 -312 0
-171 -191 -406 0
423 167 -163 0
451 -242 -258 0
96 51 -321 0
377 500 480 0
307 -196 -379 0
438 -340 -498 0
247 -221 123 0
-281 -469 -153 0
430 139 -149 0
-174 30 -156 0
351 471 406 0
-108 -309 435 0
458 291 250 0
-4 1 -9 0
223 -377 264 0
463 -384 -284 0
-198 -194 -403 0
428 -278 -453 0
36 -99 418 0
50 -452 -121 0
-385 -82 368 0
-499 -341 226 0
-430 492 85 0
278 -257 40 0
-430 87 -385 0
158 -36 109 0
73 -426 52 0
424 -471 391 0
401 -290 172 0
317 -313 102 0
116 -63 -468 0
407 -218 467 0
-280 -343 -389 0
-332 -102 419 0
-379 -3 320 0
339 90 225 0
21 441 -284 0
-166 445 -437 0
-467 -486 -360 0
-362 -231 313 0
-156 263 -162 0
-286 261 189 0
113 63 96 0
-226 312 -404 0
242 204 -262 0
-51 -388 113 0
-380 -377 -302 0
-454 51 -271 0
-129 -375 -328 0
396 179 -395 0
-275 126 -419 0
35 168 124 0
471 -211 -258 0
144 -207 -427 0
-493 -281 -51 0
106 -104 -360 0
297 278 417 0
96 31 -456 0
-194 500 -45 0
452 242 -405 0
-417 -274 440 0
78 487 253 0
-493 -290 436 0
-451 271 269 0
96 -445 -342 0
432 275 32 0
111 50 475 0
-270 -149 440 0
388 449 -50 0
-440 44 483 0
311 -419 -157 0
-456 -41 -258 0
-81 -46 278 0
-432 -194 17 0
213 472 -463 0
-163 325 -177 0
344 96 -186 0
395 -405 -5 0
440 72 -1 0
328 -351 -6 0
-263 41 178 0
435 -107 -491 0
-361 199 34 0
146 235 -435 0
-262 -183 -421 0
334 17 -437 0
-454 -232 -346 0
-485 220 -110 0
474 -2 377 0
473 -102 -87 0
-190 -283 459 0
494 166 -484 0
-132 120 -404 0
-170 -472 -227 0
-175 140 -38 0
-243 -69 -236 0
306 500 423 0
-29 -95 199 0
-418 155 -309 0
475 142 230 0
-60 155 172 0
-490 -443 -393 0
411 -212 391 0
-195 431 -389 0
-333 -121 117 0
230 -71 113 0
-35 -143 -391 0
355 255 -391 0
-376 94 -342 0
-433 49 196 0
234 231 388 0
72 -312 308 0
472 368 -422 0
-336 110 -374 0
-312 -287 328 0
-50 139 -120 0
112 230 -250 0
416 -70 262 0
361 -492 -308 0
363 208 387 0
-475 -204 77 0
-443 159 178 0
-198 -325 -16 0
-99 -231 256 0
-407 -349 -403 0
211 322 354 0
130 -309 41 0
-98 195 483 0
-364 157 233 0
-103 53 386 0
-360 313 -439 0
451 -152 -493 0
48 -120 -124 0
390 -367 -203 0
-304 -375 321 0
-342 -374 -335 0
-435 -247 -393 0
43 312 472 0
160 9 -83 0
201 342 -14 0
-35 -2 -162 0
-253 448 43 0
215 -477 -262 0
-220 -429 -49 0
-228 5 -22 0
-124 -342 497 0
-487 -424 89 0
35 -27 84 0
289 -7 432 0
-431 -135 381 0
-464 237 413 0
389 119 194 0
-14 418 -489 0
-388 -24 429 0
-251 -407 354 0
142 189 -197 0
121 304 -372 0
-321 -361 -57 0
-157 -153 289 0
319 6 350 0
-485 17 82 0
409 316 -310 0
340 -421 -126 0
191 38 -70 0
-86 443 420 0
-48 333 461 0
325 -161 355 0
402 -181 -442 0
435 463 -369 0
-278 -23 359 0
-92 27 8 0
128 -275 -435 0
63 -288 -331 0
435 85 -235 0
-316 -315 255 0
317 118 -119 0
-204 78 51 0
476 400 -238 0
268 352 -71 0
302 220 274 0
-20 -286 7 0
-101 -484 -157 0
23 -482 -259 0
-278 82 -359 0
68 -413 -427 0
-209 239 -204 0
153 -83 -289 0
-66 322 122 0
300 327 305 0
-470 77 318 0
130 306 63 0
-259 -83 -157 0
493 480 133 0
-263 293 465 0
-317 -183 314 0
81 -489 -488 0
-315 400 -196 0
326 5 404 0
-374 -466 -483 0
116 -263 13 0
492 271 -160 0
-425 324 393 0
495 441 -249 0
210 -446 -57 0
-168 42 95 0
-166 297 416 0
-143 -249 -287 0
492 -9 252 0
-380 -147 483 0
-293 -13 390 0
-95 460 5 0
426 384 -175 0
124 -360 -150 0
-94 -180 -458 0
448 -222 424 0
-175 -438 378 0
295 473 -83 0
311 -165 138 0
-368 -52 -204 0
485 -318 84 0
-86 414 202 0
-320 -302 -287 0
-496 27 309 0
-65 -101 -76 0
2 183 229 0
-132 370 34 0
-398 -171 -170 0
379 -350 -167 0
79 132 -413 0
52 234 83 0
-410 292 320 0
494 466 146 0
-231 -352 20 0
-348 8 -310 0
-311 122 187 0
184 295 127 0
-376 67 -59 0
-313 -18 9 0
-203 341 466 0
-234 14 483 0
-335 -162 -59 0
446 -377 155 0
-279 29 -338 0
288 -53 -376 0
-348 242 303 0
477 -110 -167 0
352 338 133 0
267 -239 51 0
147 476 -157 0
468 268 -136 0
-463 383 -369 0
-464 -256 -408 0
-378 425 -200 0
-158 57 311 0
63 -203 84 0
340 -228 1 0
-6 -335 167 0
-412 477 471 0
-375 261 -330 0
327 377 225 0
-158 -413 -399 0
-478 -116 214 0
-199 -496 -3 0
-191 394 272 0
335 -87 -395 0
295 -474 60 0
277 -145 367 0
-470 50 80 0
-90 32 69 0
-21 -257 231 0
-248 -386 -407 0
115 257 73 0
-467 450 243 0
76 219 -278 0
-276 242 -3 0
295 -327 447 0
-77 186 -370 0
-328 -178 -311 0
386 -7 469 0
401 -348 -425 0
445 -80 -64 0
181 -213 345 0
329 -132 -291 0
155 455 117 0
-78 -251 -287 0
-454 -145 298 0
379 -410 -180 0
379 132 -203 0
-480 -28 -278 0
-183 121 -377 0
-310 -24 424 0
-181 225 -202 0
-421 316 393 0
-128 -152 -422 0
259 410 -364 0
-14 415 -251 0
-135 225 -427 0
44 -182 154 0
-195 -355 36 0
387 -198 483 0
-17 188 488 0
97 -113 381 0
-376 271 -58 0
-128 -393 -96 0
-355 -36 200 0
139 63 392 0
407 472 259 0
-267 264 -162 0
-230 32 182 0
324 -247 111 0
-345 -475 -89 0
-423 477 159 0
-76 373 386 0
-395 -180 22 0
-422 -89 -11 0
-181 -242 228 0
87 237 -45 0
292 341 -49 0
311 -13 226 0
-242 123 -171 0
488 -266 146 0
-466 369 -49 0
369 -378 -201 0
26 -35 357 0
-230 416 -420 0
-381 -174 452 0
496 -118 108 0
-214 148 -235 0
-44 -190 209 0
238 113 -99 0
122 51 -204 0
-445 456 -390 0
9 -221 -266 0
-343 -60 -475 0
-202 -446 -425 0
244 -404 -468 0
47 470 -152 0
403 -70 -12 0
460 -188 484 0
-220 -266 -65 0
-207 333 24 0
177 -194 -236 0
194 366 500 0
-333 -492 -68 0
59 61 7 0
42 -45 286 0
405 271 -71 0
271 245 254 0
277 328 56 0
127 -428 49 0
-408 -456 363 0
266 276 -39 0
-311 226 146 0
109 427 -259 0
-252 272 101 0
-166 -214 353 0
92 183 10 0
-235 172 -256 0
-389 -280 406 0
-414 -477 221 0
48 7 239 0
-426 -485 -60 0
166 -338 177 0
351 -275 -203 0
-254 -76 349 0
-95 389 -397 0
-219 -460 -491 0
204 -224 -313 0
364 401 -383 0
-258 485 392 0
-161 427 -383 0
-77 24 55 0
-118 -291 -86 0
-265 -36 139 0
-136 -33 -306 0
192 166 341 0
-104 213 -299 0
341 94 101 0
470 388 -404 0
-300 -239 -405 0
-391 252 -417 0
423 -404 327 0
477 500 -437 0
-82 -336 331 0
43 272 -54 0
122 182 -262 0
364 380 -293 0
474 -193 463 0
168 461 442 0
-241 457 -209 0
183 74 86 0
2 -89 -39 0
-387 100 -91 0
289 48 282 0
91 175 -343 0
-61 53 297 0
354 -484 -394 0
54 159 478 0
-228 121 165 0
-56 -384 -282 0
251 -357 -263 0
398 -394 332 0
-124 -460 -328 0
83 230 180 0
295 197 174 0
413 161 311 0
-260 -342 -60 0
251 -79 396 0
-274 60 205 0
111 188 -81 0
314 -297 168 0
302 -410 483 0
-260 463 58 0
-412 66 -428 0
189 -286 186 0
-263 406 -211 0
-74 285 -324 0
353 351 137 0
254 -16 328 0
-262 129 134 0
-242 -283 -477 0
-29 -237 -417 0
-190 -68 -491 0
-500 232 -376 0
-399 231 -473 0
220 -417 278 0
-430 346 -318 0
26 -463 306 0
345 -243 -221 0
378 104 314 0
-322 434 331 0
473 6 204 0
-464 -212 94 0
-93 -4 -229 0
-495 -399 -486 0
-350 -187 452 0
-55 106 411 0
321 165 370 0
123 -225 443 0
350 -193 -334 0
-176 -102 -393 0
20 -315 -494 0
-20 -14 -313 0
-238 129 253 0
476 -247 -325 0
312 -7 45 0
-439 -174 -80 0
429 -309 -18 0
-418 42 129 0
115 -199 -185 0
427 187 -173 0
406 14 306 0
-176 -55 -355 0
-84 465 386 0
-307 -432 107 0
-354 -461 -169 0
206 365 148 0
-377 -152 -136 0
438 -420 249 0
-129 41 67 0
252 128 486 0
210 -209 -188 0
-387 168 -396 0
-392 52 47 0
254 -383 354 0
-140 254 200 0
-5 -387 -423 0
-477 -372 -31 0
-53 -6 4 0
351 -138 -46 0
100 360 -283 0
-450 -137 351 0
243 357 -452 0
439 -184 -102 0
-244 107 371 0
139 480 -201 0
-285 57 387 0
-60 -230 315 0
-101 -20 -59 0
-267 140 18 0
-493 -125 79 0
188 -43 -176 0
415 -62 493 0
54 242 157 0
224 262 -151 0
311 -197 -70 0
-249 24 -449 0
-42 274 231 0
448 -164 201 0
-364 -313 275 0
237 459 -347 0
358 -166 34 0
-410 416 306 0
378 443 -486 0
42 335 -392 0
-392 124 -212 0
-214 375 -83 0
310 121 117 0
-224 -250 23 0
-55 -147 -402 0
-224 45 315 0
-214 -73 -383 0
-96 -284 348 0
-44 401 244 0
182 -318 -80 0
172 -320 -89 0
433 -290 -130 0
-337 422 -456 0
375 -455 -68 0
243 190 -273 0
46 420 -165 0
-217 279 271 0
278 -226 -10 0
-311 65 105 0
350 -376 -462 0
-137 -167 -262 0
-314 -15 377 0
328 -339 140 0
428 295 253 0
121 -194 306 0
311 103 -131 0
-167 -366 -118 0
-122 70 -301 0
-246 150 -278 0
-255 -301 52 0
-43 -48 9 0
448 -210 408 0
234 -449 -3 0
236 230 216 0
-313 40 213 0
-111 114 -378 0
-225 -220 -280 0
184 447 95 0
