p cnf 200 680
133 -131 -11 0
-38 -109 -120 0
-41 117 111 0
111 -48 188 0
59 182 25 0
-106 -65 -186 0
86 -182 -129 0
114 -29 -77 0
172 25 -166 0
154 -25 110 0
102 49 5 0
-124 -14 -162 0
108 -165 172 0
-160 -144 -113 0
169 -50 195 0
-67 2 46 0
188 81 -78 0
-97 151 35 0
-142 33 130 0
88 185 -15 0
24 -197 158 0
195 19 -101 0
185 -128 3 0
76 -145 183 0
-200 -142 -121 0
193 186 199 0
67 -121 -162 0
-172 109 -133 0
59 93 30 0
-102 -63 -129 0
144 91 -120 0
-53 -113 98 0
106 -108 -3 0
161 46 -32 0
-197 -78 90 0
-57 -12 46 0
-16 4 -183 0
-51 -14 -69 0
-160 152 -161 0
-24 -165 -22 0
79 -77 -115 0
15 -139 3 0
191 -117 -105 0
-106 -199 54 0
-56 116 -13 0
72 125 -40 0
149 -88 4 0
125 -92 -18 0
74 102 150 0
-187 188 -157 0
167 92 39 0
26 180 160 0
-149 -43 89 0
-62 105 -18 0
153 174 -9 0
-174 -192 113 0
171 62 -158 0
-8 -75 -13 0
-29 -138 109 0
-61 -126 125 0
-8 -136 -170 0
174 47 155 0
21 -176 -123 0
-123 -134 -55 0
-192 102 49 0
-78 -33 120 0
130 -31 -187 0
-49 41 118 0
-47 -172 -106 0
-165 -30 -155 0
-148 -118 -157 0
-29 59 133 0
139 50 -29 0
-194 -155 81 0
186 -128 -103 0
25 48 -198 0
46 165 -21 0
-18 -123 -94 0
156 -111 138 0
48 47 -164 0
-141 175 -168 0
69 -193 -152 0
-144 17 -52 0
-59 98 87 0
107 29 -64 0
-83 137 187 0
-157 52 133 0
92 -176 140 0
63 193 94 0
-5 13 -148 0
13 -128 109 0
-24 -125 -46 0
-178 113 -48 0
47 -177 -84 0
-104 79 107 0
-71 142 152 0
-88 69 -167 0
-187 110 -115 0
-89 179 -160 0
-151 -65 36 0
-130 -81 -84 0
-109 85 -146 0
23 -17 -124 0
120 163 -1 0
1 139 -38 0
179 120 -127 0
-196 -156 161 0
-91 192 -180 0
132 -1 -146 0
77 -159 -167 0
132 -170 -11 0
111 -176 120 0
-73 -35 -137 0
140 -53 133 0
13 145 -190 0
108 -143 -80 0
-13 78 -94 0
95 87 -104 0
-107 -110 22 0
-183 89 -63 0
13 108 -88 0
-154 -151 -131 0
-124 146 -149 0
-60 147 -38 0
20 -122 7 0
-185 -124 -77 0
-89 -16 102 0
-124 -73 -154 0
185 -181 176 0
71 -183 176 0
105 195 194 0
174 12 29 0
90 121 104 0
182 -14 -130 0
-154 -90 -150 0
-49 123 -50 0
-111 163 -40 0
49 -187 -26 0
-3 -10 31 0
-14 2 -3 0
13 4 194 0
-106 40 146 0
-75 93 59 0
-32 -25 -46 0
136 110 89 0
126 53 26 0
50 14 -110 0
-156 67 -126 0
40 46 111 0
-139 -76 31 0
36 148 18 0
-92 10 -75 0
107 141 79 0
51 -24 76 0
121 -31 -115 0
17 -133 -99 0
187 -14 -136 0
-82 -50 19 0
-164 -148 136 0
-10 61 121 0
28 124 -151 0
-166 -121 48 0
-96 -159 91 0
121 86 -106 0
-188 104 -77 0
17 -19 7 0
-87 -123 -119 0
-43 53 80 0
-19 -38 102 0
55 28 136 0
-139 -61 132 0
-198 -43 -37 0
-175 56 128 0
-38 -102 140 0
-40 -153 -36 0
-56 29 95 0
-106 155 -107 0
-158 145 140 0
-15 -166 16 0
154 -182 -52 0
-32 -53 -132 0
-157 115 194 0
-10 78 33 0
157 -148 -32 0
190 21 114 0
-163 -61 -195 0
-141 -150 -101 0
41 168 -53 0
-166 -70 34 0
-164 -74 172 0
-93 179 -37 0
123 179 139 0
-101 131 161 0
-41 -107 -124 0
120 -30 137 0
78 136 -182 0
163 80 -167 0
-103 36 -170 0
-19 -34 -80 0
-196 12 -72 0
188 124 -72 0
-4 154 20 0
134 81 36 0
-184 69 -143 0
-108 -9 -178 0
-109 164 5 0
-98 -135 106 0
-87 125 84 0
-102 -127 -11 0
-163 78 -157 0
-133 -174 -104 0
95 92 64 0
123 -60 -120 0
197 -23 -97 0
-113 135 163 0
-122 195 30 0
-94 -124 199 0
21 -44 -179 0
-122 -166 -147 0
58 -1 149 0
-194 -56 63 0
136 -107 173 0
4 192 83 0
-193 -80 -135 0
1 -36 78 0
13 -30 -60 0
-199 144 -181 0
-38 150 -44 0
-76 -12 -119 0
131 -13 -26 0
1 -49 -6 0
-73 41 145 0
-34 -51 165 0
-178 170 -186 0
-182 121 -20 0
-120 -142 57 0
34 30 20 0
-75 -183 -196 0
32 -60 55 0
20 -167 66 0
7 -148 -183 0
10 37 -9 0
199 -125 131 0
-138 -15 -35 0
-52 -196 22 0
-176 -182 39 0
19 111 -18 0
87 59 48 0
129 -29 -167 0
123 141 -132 0
173 -32 56 0
132 -140 193 0
141 65 -193 0
148 120 164 0
-174 -73 76 0
90 -30 133 0
184 198 -169 0
71 -61 -19 0
-130 -31 -109 0
-130 -32 -170 0
-60 32 -17 0
117 38 -5 0
95 -175 75 0
28 -64 169 0
7 -179 -69 0
-143 -17 55 0
-173 -13 -82 0
-198 -152 39 0
173 67 -187 0
100 -157 48 0
-87 183 -46 0
-50 -70 65 0
-110 25 59 0
-184 117 -56 0
-29 30 157 0
75 -162 171 0
142 -89 20 0
-89 -38 -16 0
-172 -11 49 0
-148 173 124 0
-50 44 78 0
143 94 -91 0
81 -94 102 0
-191 -99 -155 0
-148 -141 -43 0
56 153 -125 0
37 -124 -47 0
11 -119 -143 0
85 -88 92 0
115 49 -146 0
12 -65 -7 0
22 49 147 0
-19 33 185 0
-150 -10 -66 0
-195 -91 115 0
-99 168 93 0
-98 22 174 0
3 -111 160 0
176 14 -91 0
-73 144 91 0
1 -9 47 0
100 -4 33 0
184 19 126 0
4 74 33 0
-27 -125 -95 0
157 127 -142 0
-89 174 -168 0
147 154 -136 0
-26 9 94 0
47 -96 -121 0
57 -92 144 0
-78 -20 98 0
175 144 195 0
-113 -114 2 0
96 22 -107 0
105 172 -98 0
-80 190 146 0
-90 95 153 0
-1 114 -196 0
-70 -12 153 0
38 135 128 0
49 33 -69 0
-119 -179 -20 0
-41 -164 -45 0
-113 -134 -71 0
-175 177 -121 0
-123 26 55 0
-88 -51 82 0
-131 82 69 0
4 -48 -73 0
18 -127 -148 0
2 -30 9 0
79 -21 -154 0
77 -34 17 0
-26 80 -178 0
-135 27 -36 0
-9 -125 74 0
-10 -43 -44 0
-123 152 176 0
158 -115 157 0
-171 75 175 0
-45 110 -149 0
-186 67 -138 0
111 17 139 0
64 -14 -42 0
-37 106 -68 0
-187 -83 127 0
105 131 -156 0
-159 133 97 0
45 194 177 0
150 -105 -157 0
-40 91 2 0
3 125 176 0
-17 -102 134 0
-42 -97 -125 0
185 90 135 0
108 51 -111 0
-52 -20 -44 0
142 162 112 0
86 -3 61 0
163 162 27 0
-38 148 -190 0
164 115 -198 0
73 -182 -121 0
156 136 -171 0
-129 152 33 0
-90 -48 115 0
-106 -48 90 0
-72 38 -142 0
118 -177 -54 0
-31 -118 153 0
-200 -20 48 0
105 -142 -194 0
167 -23 -152 0
-32 166 165 0
132 -116 92 0
154 164 -11 0
92 -86 -49 0
116 -63 -183 0
74 43 -146 0
107 -126 100 0
-65 -160 -31 0
-94 177 -101 0
145 -122 -200 0
41 -105 -139 0
-6 133 -156 0
44 99 191 0
75 152 -3 0
-75 -46 182 0
148 18 30 0
-114 -115 59 0
-194 -12 -30 0
118 80 110 0
111 92 -37 0
54 119 -92 0
-200 -132 -152 0
66 -8 -155 0
176 -190 107 0
-177 139 30 0
93 38 -7 0
55 101 -174 0
-142 17 -182 0
167 21 -170 0
128 29 7 0
58 -173 117 0
174 -148 83 0
-81 -198 66 0
-134 142 34 0
-71 164 78 0
-38 -109 -161 0
-99 -8 149 0
12 -84 -10 0
77 68 128 0
159 147 105 0
-107 145 -131 0
189 -59 -71 0
70 34 11 0
-45 -131 55 0
-78 -89 80 0
-186 -25 146 0
-142 -33 -63 0
-171 194 -97 0
42 149 -49 0
115 198 -15 0
51 -140 -177 0
69 -46 -185 0
-79 42 -93 0
89 -196 86 0
167 2 57 0
145 -28 -131 0
199 200 197 0
-138 160 122 0
84 -28 -163 0
-50 -74 114 0
-56 59 -178 0
76 175 101 0
-121 26 96 0
-153 172 -18 0
-90 -134 111 0
-101 -106 -135 0
-128 19 -74 0
191 -66 193 0
-154 -28 -24 0
18 -101 -58 0
200 47 -103 0
-131 -37 -19 0
50 -61 -110 0
-153 16 -86 0
-68 -134 -170 0
-49 -181 -64 0
69 -70 113 0
80 -198 -135 0
-173 -49 -171 0
128 -74 181 0
44 -2 72 0
59 100 126 0
4 -184 45 0
147 143 -26 0
83 -98 -72 0
188 29 -39 0
-121 -192 82 0
-159 -139 152 0
185 129 -92 0
99 170 7 0
-20 51 -99 0
-73 192 -186 0
-118 156 -60 0
73 180 100 0
-128 -78 51 0
-137 62 159 0
-1 192 -119 0
-133 -195 148 0
173 145 -184 0
37 -43 52 0
-147 148 151 0
-151 95 -107 0
-177 133 -38 0
-145 139 29 0
-166 -71 93 0
25 23 170 0
-14 -44 -93 0
-129 195 -98 0
47 14 199 0
139 -12 -183 0
-112 -79 -10 0
-195 106 70 0
5 186 -2 0
182 175 -191 0
-106 174 -44 0
-17 -71 -182 0
-2 33 -184 0
96 90 -153 0
85 -83 182 0
122 -180 116 0
32 49 1 0
-140 166 99 0
191 155 22 0
-171 189 44 0
-167 197 185 0
-105 47 -30 0
88 -20 135 0
-22 -98 38 0
179 78 98 0
95 -70 -18 0
-139 146 103 0
-152 91 158 0
-143 163 17 0
194 -168 189 0
200 -107 76 0
-181 119 -160 0
84 14 54 0
-39 -57 -193 0
58 -79 175 0
-68 148 -134 0
-168 -156 -192 0
174 16 44 0
-134 -135 -33 0
19 29 -108 0
-177 165 -54 0
-130 178 125 0
-15 -50 101 0
-56 198 24 0
-20 -151 -3 0
22 -12 174 0
27 -157 -152 0
39 174 -91 0
118 12 -93 0
31 190 149 0
106 40 -39 0
27 63 -123 0
90 -69 -127 0
35 24 -36 0
64 11 105 0
-162 -11 -23 0
-105 -141 189 0
-176 130 -133 0
124 49 1 0
-182 -196 92 0
135 -125 -159 0
-123 11 110 0
106 9 142 0
173 106 -174 0
-107 119 34 0
73 185 152 0
107 171 127 0
-48 -36 -10 0
-1 36 -43 0
49 -170 -31 0
23 -154 134 0
-168 -187 72 0
-108 71 -176 0
160 -197 20 0
-176 154 41 0
173 -90 -2 0
-18 -66 -142 0
-87 44 169 0
-147 -46 95 0
53 -91 -196 0
-18 -150 -86 0
18 -87 -66 0
-190 -116 -4 0
-47 -8 -52 0
108 -117 91 0
92 48 164 0
116 63 -111 0
10 -77 -106 0
-26 -2 29 0
-122 -157 34 0
-90 199 185 0
183 12 174 0
101 -143 147 0
151 -198 29 0
26 -119 49 0
-52 66 -9 0
-171 86 122 0
143 172 -95 0
-93 189 -165 0
154 -193 71 0
83 132 -196 0
15 147 -96 0
-78 -25 -67 0
132 -198 -154 0
-117 149 -132 0
-183 -96 80 0
-27 -194 -123 0
-167 6 -86 0
-199 -61 127 0
-197 52 135 0
65 16 -56 0
-4 45 16 0
-173 -142 18 0
-17 -46 -107 0
-119 -19 -163 0
61 -63 -163 0
-130 -68 5 0
-114 -121 -44 0
43 -137 125 0
-142 -170 163 0
-150 174 117 0
-106 53 -109 0
71 -142 -75 0
13 157 63 0
72 -9 -7 0
-58 -166 67 0
-179 26 -123 0
159 -138 -94 0
-167 -121 117 0
183 93 -42 0
106 -149 -53 0
12 198 -54 0
-52 1 105 0
-124 17 -166 0
-27 -3 98 0
-136 -94 -155 0
-180 -97 63 0
17 -10 -67 0
17 96 125 0
126 131 9 0
-29 161 -128 0
198 43 190 0
-167 -69 150 0
-129 81 26 0
-8 64 -168 0
-189 -97 17 0
69 54 178 0
-55 113 -65 0
-105 -5 -85 0
-182 67 -56 0
66 86 -40 0
86 123 -167 0
26 120 76 0
-199 33 52 0
-3 173 44 0
-174 187 -28 0
-148 180 51 0
-86 147 132 0
-92 -108 163 0
-128 -114 49 0
-95 135 74 0
-8 25 -100 0
-187 -131 174 0
172 -174 162 0
-73 38 193 0
-151 40 30 0
-30 83 190 0
-39 -95 -104 0
69 -143 29 0
136 -134 -3 0
188 49 -26 0
-130 17 -191 0
151 164 -30 0
86 119 -6 0
-74 11 -27 0
128 -8 98 0
62 114 148 0
-196 129 -163 0
144 -78 -49 0
101 189 58 0
76 -194 112 0
-149 -121 -7 0
36 108 -189 0
-191 124 157 0
49 156 18 0
-103 -135 141 0
-170 59 41 0
-78 -144 102 0
79 -85 149 0
-93 -151 -169 0
182 -8 93 0
131 62 31 0
-81 158 162 0
-72 119 32 0
114 -66 -176 0
31 -144 180 0
147 -64 -192 0
-21 128 -87 0
133 -20 -173 0
-24 -70 -148 0
-94 85 140 0
-157 144 74 0
