p cnf 200 680
-164 158 -15 0
-29 -104 123 0
-120 -103 55 0
197 117 -148 0
56 59 80 0
74 -23 145 0
157 -177 36 0
154 -101 -102 0
154 173 31 0
124 145 -32 0
168 142 -20 0
105 -30 74 0
-1 8 -93 0
76 -195 196 0
-131 -108 -80 0
-139 -25 -99 0
-84 105 -108 0
-69 161 -19 0
-179 -90 -113 0
115 15 126 0
128 4 61 0
110 -4 153 0
-142 116 -105 0
-51 127 -85 0
157 50 -118 0
-3 -128 96 0
46 -145 -159 0
183 -100 33 0
-77 -143 117 0
-50 120 150 0
87 -112 21 0
162 -134 -47 0
157 -169 151 0
-147 -110 199 0
-23 24 -136 0
-28 72 96 0
-81 9 154 0
14 187 -98 0
-156 128 -21 0
-136 101 -187 0
1 151 193 0
171 -38 -157 0
-109 178 124 0
137 -194 56 0
-196 -54 -131 0
122 -82 105 0
34 118 159 0
53 159 -170 0
-22 98 162 0
-50 -7 111 0
-189 -132 -144 0
61 -16 5 0
-120 -89 197 0
196 1 -174 0
110 163 137 0
-172 -91 -154 0
156 121 -8 0
104 -74 106 0
10 163 -73 0
94 -27 -19 0
-12 167 -147 0
-56 -198 101 0
-20 178 -68 0
-137 110 78 0
154 12 -120 0
-60 -129 13 0
66 131 179 0
-182 -74 199 0
-185 142 7 0
9 -81 131 0
-104 -51 161 0
21 61 51 0
128 -44 194 0
-186 51 44 0
-122 85 -78 0
-141 -13 53 0
-179 -23 -94 0
9 147 183 0
-80 140 158 0
88 -117 187 0
157 149 40 0
-133 -169 73 0
60 -200 -45 0
-135 65 189 0
-51 6 -73 0
-15 154 -115 0
2 111 157 0
16 -7 150 0
-43 163 165 0
-40 192 -59 0
197 -61 36 0
-76 186 -64 0
14 -20 -57 0
16 -5 69 0
20 145 63 0
88 4 181 0
-49 103 -122 0
-90 131 -151 0
-164 -147 131 0
112 -11 -26 0
132 200 101 0
128 -110 -58 0
-45 190 -46 0
-85 -133 -115 0
72 -176 -15 0
-48 -97 -131 0
-90 123 -118 0
-165 96 4 0
179 33 -100 0
62 -76 175 0
-161 185 -199 0
97 -196 183 0
100 -74 -30 0
80 156 -112 0
-35 77 -157 0
-4 -22 -157 0
-64 -51 11 0
3 122 47 0
185 173 127 0
-182 -116 56 0
184 -74 -172 0
-49 -56 -193 0
-101 -136 7 0
51 1 -135 0
109 3 144 0
168 129 70 0
-23 73 -146 0
41 -77 72 0
157 -101 38 0
-90 145 112 0
-164 141 -162 0
-136 2 167 0
54 -83 120 0
59 -173 168 0
21 143 -98 0
-153 9 -11 0
-129 124 -164 0
161 -87 -17 0
57 -31 -6 0
166 -105 114 0
-34 -136 -40 0
90 -94 197 0
-11 -188 66 0
190 127 -180 0
-6 189 -98 0
-120 -186 19 0
-189 -125 114 0
-130 32 71 0
-113 145 183 0
-139 91 -47 0
-191 -117 -174 0
-166 -66 -107 0
-86 -112 121 0
-183 87 72 0
-75 196 92 0
151 96 -58 0
-88 -98 130 0
-179 -91 72 0
-48 120 -33 0
-27 -112 -50 0
-35 66 -109 0
-127 -121 -104 0
-58 51 -100 0
167 -81 113 0
27 -60 -127 0
5 57 -187 0
-21 -90 55 0
-8 118 -162 0
-37 10 -41 0
-160 11 85 0
-161 -154 -54 0
36 -132 -92 0
-161 77 -24 0
-23 -24 -200 0
140 92 -141 0
131 -140 177 0
122 43 -119 0
20 198 160 0
40 -52 -157 0
76 -127 -5 0
12 -177 84 0
112 -104 -41 0
139 113 44 0
44 7 -159 0
79 134 16 0
-157 117 34 0
107 -34 -173 0
-125 92 -149 0
80 -197 -13 0
-197 115 -134 0
-9 -52 152 0
-133 -126 87 0
-158 -12 189 0
5 105 76 0
89 -53 55 0
33 97 -147 0
178 94 73 0
70 -21 -40 0
-115 -175 -92 0
-127 133 -64 0
58 22 45 0
-96 -16 128 0
64 -76 -114 0
-99 80 -87 0
-165 -188 -22 0
-149 -132 163 0
60 -147 -191 0
-194 -22 -37 0
-123 -125 -193 0
68 -74 89 0
185 46 22 0
-87 179 -99 0
27 -65 -184 0
21 -148 -75 0
193 -189 27 0
180 -46 167 0
-134 -164 180 0
49 -17 -93 0
61 -82 78 0
-138 157 -36 0
55 137 -109 0
1 -117 -185 0
-72 131 17 0
165 -43 123 0
-61 122 175 0
139 177 -176 0
12 137 154 0
120 -110 60 0
-20 -191 98 0
167 -130 -6 0
-72 -159 -129 0
-94 -124 -115 0
-58 -168 -56 0
133 -28 -179 0
-70 -45 -178 0
-148 -180 -80 0
-71 89 -12 0
113 65 -28 0
-179 63 -122 0
-38 -94 51 0
89 -138 176 0
148 -89 -97 0
87 172 181 0
188 -195 175 0
-155 84 39 0
-33 93 159 0
30 -53 126 0
-125 51 170 0
75 -66 95 0
-194 143 180 0
-151 119 42 0
-180 -140 82 0
-9 4 -151 0
-107 8 -158 0
-84 126 -154 0
-167 -29 -127 0
-16 160 -47 0
-28 200 88 0
200 -94 -122 0
-95 -28 112 0
139 -187 -22 0
163 -23 -34 0
-174 47 65 0
157 -37 -198 0
16 185 81 0
69 -148 -101 0
-71 66 119 0
-123 -137 161 0
178 -106 -182 0
196 -143 -163 0
12 -112 177 0
-120 135 96 0
-38 -76 -175 0
82 176 -162 0
-40 67 71 0
-158 -128 129 0
176 -180 102 0
38 161 12 0
-162 -187 151 0
-45 -85 17 0
-17 -106 7 0
-56 -38 96 0
47 151 196 0
-40 -98 18 0
101 39 175 0
133 -172 -120 0
-177 97 -180 0
-200 90 -93 0
126 -78 -19 0
31 50 36 0
-104 155 48 0
-79 128 -158 0
-166 -21 -183 0
9 165 40 0
136 -72 -154 0
-34 -128 -185 0
103 52 -77 0
158 -120 101 0
130 200 -85 0
-66 -101 -132 0
-57 -21 -191 0
-165 -57 116 0
-13 -159 -71 0
-50 130 178 0
159 -51 -149 0
85 17 98 0
147 130 10 0
-14 114 -32 0
61 -20 -153 0
-177 45 -79 0
42 1 -184 0
137 -27 125 0
78 -46 107 0
-137 -88 146 0
-182 -163 -27 0
90 148 80 0
-26 173 32 0
21 -66 -54 0
134 -162 24 0
-159 -137 5 0
88 193 -176 0
92 7 -83 0
-4 81 -77 0
-12 -197 -191 0
5 -169 118 0
-23 -43 -14 0
17 148 196 0
-55 -122 -164 0
-47 29 168 0
90 38 114 0
-108 -161 -109 0
-75 -22 -61 0
-99 -167 -142 0
124 -159 68 0
-97 153 198 0
-23 -40 -30 0
-109 -142 33 0
6 91 -182 0
-56 190 -200 0
-184 79 1 0
-6 -38 -2 0
20 100 43 0
177 -156 60 0
-163 -120 63 0
20 -21 -132 0
-83 -160 58 0
-38 -172 11 0
-152 -51 -91 0
125 40 -77 0
179 -197 -73 0
151 -83 -174 0
-117 -139 21 0
-13 -198 -174 0
87 80 78 0
28 -22 107 0
78 -118 104 0
-174 117 58 0
-188 103 100 0
-69 -195 28 0
73 157 133 0
-183 -173 -87 0
-66 -81 -17 0
-86 68 166 0
-113 19 -117 0
80 -130 -8 0
131 -35 160 0
26 82 -184 0
-158 -33 80 0
97 47 -1 0
-47 -172 -133 0
-84 -173 -57 0
-5 -17 -109 0
27 20 80 0
20 -129 -25 0
121 199 162 0
-109 132 -145 0
-80 115 121 0
71 -20 87 0
-86 -62 -88 0
166 171 31 0
185 -48 53 0
-58 43 -124 0
81 -121 -113 0
135 -69 131 0
199 59 -82 0
57 -181 -186 0
-52 117 -17 0
22 104 28 0
140 83 -19 0
-55 21 198 0
117 -92 55 0
-35 103 11 0
-71 184 -152 0
-95 -179 -112 0
24 84 41 0
-5 -92 47 0
9 -188 124 0
27 20 152 0
-119 -113 105 0
54 -65 178 0
144 -94 -177 0
-145 115 -129 0
35 -90 96 0
90 -71 -147 0
-8 130 -43 0
31 -104 -2 0
47 -25 12 0
-90 -70 135 0
158 152 70 0
97 14 -140 0
48 -143 -131 0
-113 -161 61 0
115 -163 192 0
9 68 -107 0
-177 154 194 0
-102 -38 -44 0
164 -81 125 0
107 14 161 0
-128 -3 41 0
-73 -64 77 0
-12 -40 93 0
-86 -74 147 0
26 148 -167 0
-146 155 -122 0
-143 4 -33 0
-122 53 -134 0
1 -30 10 0
-180 43 193 0
-81 -37 -18 0
-89 142 -26 0
-145 182 -152 0
-54 46 170 0
-31 -64 152 0
73 -40 -30 0
174 102 90 0
-23 -161 -131 0
178 98 -183 0
-135 -126 -103 0
-91 22 34 0
67 -192 22 0
-85 -131 191 0
106 9 -162 0
188 -111 164 0
-17 55 42 0
-128 112 -134 0
143 -13 40 0
96 -74 -22 0
113 -127 -106 0
-170 164 -7 0
-121 -51 116 0
-106 -166 -105 0
10 -112 -167 0
13 -115 54 0
-93 -192 27 0
141 -169 88 0
-78 -177 162 0
164 -168 199 0
161 22 -3 0
158 29 -168 0
-97 56 160 0
191 19 -108 0
107 -118 6 0
180 -150 145 0
163 -154 -134 0
173 192 -140 0
-78 152 -103 0
9 161 86 0
-52 -4 59 0
-87 174 -145 0
-45 92 37 0
-194 -155 -83 0
35 106 -66 0
-43 35 -49 0
-165 116 173 0
7 -91 -93 0
-167 -14 23 0
-30 103 -171 0
195 81 -126 0
-153 99 -127 0
-62 -25 -171 0
78 -163 122 0
-85 -142 -23 0
-193 77 -161 0
187 -195 133 0
-36 -125 -32 0
76 -21 -115 0
-167 4 -79 0
-148 184 -65 0
45 96 84 0
-180 -152 -46 0
200 73 -71 0
108 -192 16 0
115 111 -197 0
121 18 -82 0
-81 -29 86 0
15 114 27 0
99 48 -152 0
72 -49 -63 0
175 -72 199 0
192 124 -23 0
195 28 -53 0
-138 -190 -58 0
127 85 43 0
40 -101 6 0
-74 -135 -119 0
199 -123 89 0
-190 -157 -60 0
90 12 70 0
186 -141 200 0
-122 -24 -71 0
185 -144 59 0
-184 -193 -200 0
-39 4 139 0
-23 172 170 0
8 -189 83 0
-47 -120 -190 0
-195 184 122 0
-159 -88 72 0
124 106 -17 0
102 -1 141 0
-49 4 5 0
112 -103 -182 0
80 -200 -70 0
8 -139 -189 0
158 74 112 0
100 -178 -62 0
-177 -147 -169 0
-51 -113 42 0
-103 45 -132 0
141 -175 5 0
21 -172 67 0
-69 -43 52 0
160 -6 41 0
143 -82 -66 0
-143 -84 54 0
-16 193 -116 0
191 -133 2 0
-192 -116 111 0
115 -1 -34 0
174 52 163 0
107 -140 -193 0
48 -15 146 0
-184 61 133 0
-17 126 -31 0
140 91 -129 0
20 119 -28 0
173 106 -137 0
-74 -183 77 0
46 8 -106 0
-181 -66 147 0
-49 64 181 0
9 194 -182 0
-132 -161 22 0
-77 -184 166 0
100 -96 -47 0
-178 -175 21 0
-139 -116 -1 0
23 134 18 0
134 -124 -160 0
-199 91 -96 0
-22 162 -126 0
-67 -131 28 0
-140 -171 17 0
34 -144 -59 0
50 92 -9 0
139 -36 127 0
198 69 -10 0
126 -129 7 0
128 -51 142 0
85 169 -72 0
-92 -184 69 0
156 105 -124 0
110 -90 52 0
-4 -63 62 0
198 127 15 0
37 -115 -76 0
-134 7 -146 0
-53 182 72 0
-140 92 -156 0
-59 159 161 0
31 42 -163 0
16 -115 97 0
-113 131 41 0
135 -116 161 0
-172 -18 -190 0
73 109 -52 0
-173 -62 25 0
-41 171 -73 0
-55 -129 160 0
-187 16 -96 0
-78 -91 -10 0
173 100 -187 0
-143 -70 -110 0
171 -64 86 0
-45 178 -60 0
-198 56 24 0
-191 166 112 0
41 -81 173 0
147 93 66 0
-192 39 -70 0
-155 -112 -65 0
3 -59 -73 0
55 -88 -15 0
143 -17 -121 0
113 -20 -185 0
160 -9 -118 0
-76 188 -137 0
-160 -77 155 0
-107 -161 97 0
68 11 -34 0
-12 -187 -154 0
-158 199 12 0
-29 -47 -91 0
-110 122 -26 0
108 -72 -146 0
-166 -91 79 0
61 68 -176 0
18 8 168 0
194 103 -162 0
-36 -152 33 0
22 71 -143 0
184 -153 63 0
-190 -73 146 0
-125 159 96 0
22 -127 -122 0
-179 -28 98 0
-10 123 -122 0
-52 113 173 0
33 166 100 0
104 -23 -2 0
83 -183 -111 0
182 -2 17 0
65 -154 -46 0
-167 -63 -76 0
82 -184 -18 0
-164 -120 26 0
40 -113 150 0
40 -47 -20 0
101 -170 -62 0
102 -199 -115 0
141 106 59 0
-147 13 49 0
-44 -177 2 0
154 -143 173 0
15 -196 1 0
161 91 173 0
149 -196 132 0
-24 87 -186 0
159 134 -44 0
-195 101 -2 0
92 54 20 0
47 -194 -114 0
-75 -42 -71 0
-19 -149 160 0
109 161 -36 0
-75 -36 149 0
52 110 -36 0
38 -30 197 0
70 194 137 0
-135 -177 -98 0
-147 -36 27 0
161 -122 116 0
-193 20 55 0
54 42 158 0
-22 -121 -74 0
34 -134 -74 0
-119 -1 21 0
168 101 106 0
143 -150 52 0
93 57 95 0
-59 -47 -113 0
85 43 137 0
-44 -111 139 0
177 -183 118 0
-32 94 -34 0
3 154 157 0
156 -62 110 0
-146 -109 160 0
-193 4 -82 0
47 -8 188 0
