c Modularity-based k-CNF Generator (V2.0). J. Giraldez-Cru and J. Levy
c   value n = 500
c   value m = 2450
c   value k = 3
c   value Q = 0.9
c   value c = 10
c   value seed = 98
p cnf 500 2450
-376 -394 -388 0
-87 88 -97 0
486 460 -499 0
-51 93 92 0
274 -264 -292 0
-364 -387 -391 0
460 486 -453 0
156 185 182 0
-171 190 -193 0
-456 474 455 0
20 23 -47 0
-234 -227 -213 0
-372 -385 375 0
119 -132 -117 0
-252 272 277 0
-136 104 -116 0
-149 -112 126 0
202 232 -203 0
-342 337 343 0
-75 -85 -95 0
-282 296 -257 0
52 -96 98 0
350 -317 -325 0
-276 296 281 0
74 -77 96 0
22 -26 37 0
-119 112 -120 0
123 125 102 0
152 160 -163 0
191 -154 170 0
173 -194 -169 0
-240 213 201 0
271 -267 -295 0
19 -23 -9 0
-168 -151 194 0
263 252 -285 0
155 -193 -188 0
290 -252 -281 0
-477 -459 -490 0
114 -105 -121 0
-223 -240 218 0
-330 329 348 0
273 -279 262 0
252 -270 -268 0
-46 22 32 0
196 198 -176 0
100 75 91 0
72 -92 -69 0
494 -460 455 0
-206 201 -214 0
11 40 -22 0
-267 251 273 0
123 -127 115 0
487 -480 471 0
14 -35 20 0
266 276 -279 0
-289 -284 279 0
448 -442 403 0
275 -278 -281 0
369 -394 -398 0
163 180 -173 0
240 -205 -210 0
-17 8 -34 0
-14 44 -16 0
93 73 -92 0
62 100 51 0
213 -234 229 0
368 351 -389 0
7 44 -34 0
-199 197 -187 0
-48 8 -13 0
-164 -152 -163 0
-367 378 -391 0
-70 -62 -72 0
-372 -366 393 0
-436 407 417 0
57 74 -80 0
245 -235 -218 0
28 26 -18 0
40 -34 -22 0
-195 167 -176 0
314 309 303 0
9 -11 -12 0
-306 317 347 0
324 -341 -346 0
149 -132 -148 0
133 -117 -149 0
-35 24 -30 0
12 47 -23 0
302 332 -343 0
-311 323 -337 0
201 -206 249 0
-481 483 -496 0
-116 -115 147 0
-358 351 352 0
303 316 -321 0
83 -74 100 0
-50 -48 39 0
-319 333 -324 0
-242 217 -240 0
-417 -448 421 0
-48 -23 -46 0
209 -203 -250 0
-240 -209 -244 0
473 500 492 0
-467 -489 466 0
436 427 428 0
310 306 -319 0
-245 216 229 0
-173 188 184 0
-393 -391 367 0
367 355 -379 0
59 -68 -88 0
286 -295 281 0
-55 53 -68 0
-443 -408 437 0
-354 373 370 0
410 438 413 0
-474 498 -489 0
116 -149 129 0
333 302 310 0
-308 -344 347 0
-124 -149 145 0
-3 -8 17 0
443 439 -417 0
-132 -106 101 0
-233 -231 224 0
433 -429 415 0
-89 -77 98 0
-401 438 -407 0
437 411 419 0
291 -287 -274 0
-388 376 -398 0
418 445 440 0
143 123 -102 0
252 -290 295 0
-423 447 -419 0
-87 -81 90 0
107 -101 -148 0
109 124 -148 0
-90 80 85 0
236 -221 -229 0
-3 42 1 0
-137 127 -132 0
441 402 449 0
-257 -269 275 0
258 297 255 0
341 329 -347 0
179 -173 -165 0
-409 418 445 0
396 383 371 0
387 352 399 0
-324 320 305 0
31 21 -39 0
65 58 66 0
335 -340 -305 0
174 -166 -194 0
-230 -220 243 0
369 -361 -382 0
115 -119 114 0
-78 51 60 0
151 194 -192 0
-318 -349 312 0
294 -258 -288 0
-306 -348 321 0
85 -75 78 0
178 -165 174 0
374 360 -372 0
-391 -358 390 0
-133 -137 143 0
-298 268 296 0
480 -474 -457 0
386 -384 363 0
136 -112 145 0
-253 281 -256 0
-144 -149 133 0
-401 -416 -404 0
-335 -315 -303 0
-189 188 -166 0
4 -36 48 0
152 175 171 0
316 -309 322 0
-422 -402 -412 0
48 29 -3 0
-243 240 -250 0
-453 -489 478 0
-141 104 -108 0
-196 -178 -173 0
-181 -190 -168 0
-168 194 -183 0
-267 286 268 0
223 -241 204 0
296 -278 -285 0
182 -186 -166 0
-48 -40 -20 0
-189 -188 -178 0
246 -229 220 0
47 37 24 0
-49 46 41 0
-134 -116 -140 0
-293 300 258 0
153 155 -183 0
-317 327 347 0
-27 35 28 0
-188 -200 -179 0
-284 -263 -252 0
219 -217 215 0
110 -128 137 0
405 410 -435 0
-376 379 382 0
-16 -42 32 0
68 81 -86 0
-251 289 274 0
-306 326 -344 0
305 348 328 0
376 368 -377 0
59 -72 -64 0
-487 -457 500 0
-305 326 -316 0
84 -86 -67 0
-485 483 -477 0
177 -188 -191 0
-263 -261 -268 0
-87 66 -59 0
437 -443 417 0
-108 137 110 0
-289 -263 -298 0
323 -344 316 0
362 380 -360 0
-311 319 324 0
264 260 -298 0
122 -138 -150 0
267 272 280 0
-407 439 -434 0
183 -185 -192 0
-5 -33 14 0
427 436 438 0
-410 446 450 0
16 14 42 0
-248 219 -238 0
73 58 56 0
246 220 209 0
-347 -336 -332 0
82 -96 89 0
351 -396 353 0
407 442 -447 0
221 219 -222 0
-96 -72 54 0
-500 -453 467 0
10 15 -36 0
-225 -248 243 0
-71 86 83 0
-97 -89 -100 0
-334 318 -338 0
-169 -188 -176 0
-467 497 -484 0
231 -244 -223 0
-245 219 -213 0
204 230 237 0
104 109 -101 0
440 404 416 0
63 97 -76 0
-308 304 301 0
-45 15 9 0
126 115 -123 0
-187 -165 194 0
122 -129 146 0
68 -100 89 0
-465 454 463 0
53 64 86 0
-229 239 203 0
191 166 -167 0
-389 361 -353 0
72 79 -90 0
-357 -369 -400 0
55 89 78 0
158 156 -152 0
-326 -350 -322 0
81 84 -92 0
45 7 -39 0
178 -193 195 0
386 -384 358 0
-121 -120 -108 0
-14 2 33 0
214 217 231 0
-41 1 -7 0
333 -309 331 0
500 -462 475 0
327 330 348 0
-179 -199 -155 0
-202 -224 203 0
-454 476 482 0
-319 -344 -318 0
-57 51 -84 0
362 360 389 0
-193 189 194 0
431 -402 -424 0
-205 -236 -211 0
469 -457 -493 0
317 -345 309 0
368 363 -387 0
-32 -49 -10 0
-410 408 403 0
489 492 478 0
377 370 -386 0
345 337 303 0
-380 -371 -400 0
-423 402 429 0
-427 445 436 0
-476 470 -472 0
-351 381 389 0
46 -33 40 0
-327 330 309 0
387 -353 -399 0
380 394 -382 0
-164 -192 193 0
263 289 -276 0
-329 346 311 0
-198 -196 -173 0
-272 -293 280 0
417 -401 402 0
376 -364 -359 0
57 80 90 0
-17 -12 28 0
-21 -26 -29 0
156 168 178 0
-486 -452 -492 0
-59 65 -67 0
-68 78 64 0
-44 -26 25 0
157 -194 -182 0
467 493 460 0
-399 381 392 0
103 134 101 0
271 251 281 0
-24 7 37 0
94 -91 -93 0
-109 -122 142 0
42 -35 32 0
-164 -185 190 0
457 -486 460 0
-221 212 223 0
335 302 -350 0
-82 90 55 0
-106 116 129 0
-383 -352 -385 0
-344 330 305 0
271 278 277 0
285 -278 -288 0
-271 -267 -295 0
40 -32 8 0
-456 452 -471 0
-240 -237 204 0
-169 -166 171 0
-407 432 438 0
346 318 336 0
-176 181 -184 0
-241 -250 -218 0
209 -222 230 0
-299 271 288 0
96 -78 -69 0
-214 208 232 0
-57 -86 79 0
-173 -184 -186 0
412 402 443 0
210 -241 -226 0
-357 393 367 0
113 -141 143 0
-394 353 -383 0
-269 -296 -280 0
-500 -467 -491 0
448 -401 402 0
-489 -481 -492 0
-426 420 401 0
148 -113 117 0
263 253 -284 0
375 -393 376 0
-334 -312 -339 0
-288 -275 268 0
-77 59 53 0
367 377 -391 0
-428 446 -411 0
420 437 433 0
-69 -80 -65 0
-303 349 343 0
476 -498 490 0
317 347 303 0
-461 -487 -475 0
415 -442 438 0
391 368 369 0
-335 -309 -325 0
-6 -5 30 0
206 214 231 0
-60 -68 -58 0
-59 100 -83 0
272 -286 -263 0
91 -75 53 0
285 -273 -261 0
497 470 483 0
-304 338 -347 0
-138 -122 -123 0
446 -406 -432 0
424 413 -401 0
-385 -364 380 0
226 220 -217 0
372 -389 -394 0
-134 108 128 0
-133 138 -139 0
-1 -34 2 0
17 50 -21 0
242 -217 229 0
-467 485 -475 0
384 367 -375 0
29 -44 8 0
-319 -313 -320 0
-236 -240 207 0
-298 256 294 0
213 222 -219 0
-403 410 -415 0
-44 -9 -38 0
358 383 352 0
-136 116 114 0
129 -141 -108 0
-353 -385 352 0
-390 -377 389 0
-69 52 53 0
-240 218 247 0
321 328 -312 0
17 -13 26 0
80 -71 93 0
485 -481 -488 0
-209 -242 -227 0
268 -286 255 0
-175 -187 198 0
-414 423 421 0
-412 421 -429 0
130 141 -105 0
-29 -27 -24 0
-331 -324 335 0
118 -112 121 0
-79 80 -94 0
-2 -13 41 0
415 413 -409 0
-41 -50 10 0
-356 398 384 0
218 210 248 0
-269 -256 264 0
267 -282 268 0
-82 62 -52 0
-153 -169 163 0
-296 252 -263 0
-403 439 -417 0
182 193 -171 0
290 -297 -277 0
490 -474 454 0
-406 413 -441 0
388 -370 382 0
-80 -55 -70 0
365 -380 372 0
497 -474 478 0
-288 264 272 0
-300 -298 -268 0
-297 279 -287 0
470 460 486 0
365 -354 389 0
-18 -32 -16 0
264 285 -269 0
326 -334 -343 0
142 105 -129 0
-199 180 172 0
336 -345 328 0
-345 305 -303 0
18 28 31 0
-157 187 -180 0
-122 -142 -117 0
102 103 -142 0
-81 -59 88 0
-75 -54 -86 0
398 -396 -375 0
431 437 -435 0
-347 333 -331 0
245 218 -237 0
-30 -18 -1 0
334 -344 333 0
-180 169 156 0
436 -433 -403 0
-1 30 3 0
-297 284 255 0
-284 -254 -276 0
-109 -148 -115 0
46 -48 -41 0
-259 289 280 0
202 -213 -214 0
-30 -1 -15 0
-340 319 343 0
-175 -178 -171 0
-444 -436 -406 0
353 397 -376 0
-411 -434 424 0
454 -455 -490 0
-479 -460 -459 0
434 -447 408 0
417 -449 426 0
-313 327 333 0
391 -351 -393 0
-282 270 -283 0
424 404 -448 0
178 167 -172 0
-110 -102 123 0
209 249 -201 0
-411 -432 441 0
319 339 316 0
55 76 -65 0
-490 -482 476 0
-448 424 422 0
-396 381 358 0
-97 -61 -53 0
301 307 305 0
-416 423 435 0
294 -273 259 0
-327 319 310 0
19 46 21 0
292 275 -256 0
-122 -147 -120 0
-228 246 237 0
-362 357 352 0
-289 299 -294 0
436 419 444 0
-239 248 221 0
133 -119 141 0
-305 334 -343 0
-322 305 304 0
331 -313 -325 0
-123 111 -131 0
277 -256 -263 0
108 -129 124 0
-220 205 218 0
314 337 -301 0
79 -97 76 0
-88 78 -82 0
-298 253 -262 0
-369 375 381 0
402 425 -426 0
-39 4 24 0
202 -204 243 0
382 -385 361 0
60 -99 -84 0
-241 242 -219 0
79 75 86 0
-57 96 95 0
112 -133 -109 0
488 -485 -476 0
-357 358 389 0
433 435 422 0
-334 -331 321 0
-77 -81 -67 0
280 -293 296 0
183 169 161 0
319 339 -345 0
429 444 -441 0
26 13 -31 0
355 375 -380 0
167 -200 178 0
163 196 154 0
-260 -291 -264 0
-33 -34 46 0
-196 -200 178 0
-225 -233 221 0
-205 225 206 0
341 -345 -332 0
-409 -404 -410 0
-12 9 -45 0
-110 107 134 0
230 -214 219 0
-73 -55 99 0
387 370 -384 0
105 -129 -118 0
-229 -227 213 0
347 -336 343 0
229 -209 -241 0
-14 21 17 0
-455 -498 471 0
-384 -394 398 0
2 33 39 0
426 412 447 0
-21 -47 -1 0
-212 229 218 0
-67 86 -90 0
259 -273 -271 0
-232 209 210 0
168 197 185 0
227 237 -213 0
9 -40 29 0
471 495 -455 0
-82 -70 56 0
332 338 -335 0
410 -409 406 0
172 -170 -160 0
-361 394 -390 0
461 464 467 0
301 -343 -302 0
35 44 -5 0
66 -86 -57 0
-28 -30 -21 0
483 -457 -469 0
381 386 -391 0
-337 349 302 0
122 -124 -146 0
50 44 38 0
249 -236 -234 0
465 453 458 0
235 215 -210 0
-169 -163 162 0
167 -193 -178 0
30 13 17 0
21 16 8 0
-257 271 288 0
-212 201 -220 0
-383 394 392 0
246 212 -207 0
-280 -254 288 0
-108 -118 -138 0
-123 -124 -143 0
500 -474 -490 0
419 -403 442 0
-356 -360 -364 0
245 -235 224 0
384 361 397 0
-170 -173 -178 0
-77 56 -54 0
-172 151 197 0
-402 439 -410 0
-496 -462 -455 0
264 254 -266 0
-51 81 -76 0
190 159 -169 0
375 -366 358 0
458 475 490 0
60 -64 -55 0
212 229 -238 0
-391 -380 371 0
84 -58 -71 0
-78 -69 -85 0
495 -473 -460 0
-269 -277 -272 0
136 114 102 0
-143 146 -123 0
358 -370 -378 0
107 139 143 0
-313 337 -311 0
-478 494 -452 0
-487 492 -491 0
185 -196 169 0
226 218 234 0
490 -476 485 0
-197 -169 -177 0
456 465 497 0
-136 -145 -134 0
329 -313 345 0
-99 -73 79 0
21 24 -36 0
252 253 277 0
-196 185 -188 0
182 180 -188 0
387 395 373 0
-84 -79 66 0
126 134 -137 0
394 365 -390 0
-163 168 178 0
71 83 -91 0
401 447 444 0
-335 -308 307 0
22 -25 -5 0
394 353 354 0
147 -148 142 0
453 -495 484 0
233 245 203 0
-429 -410 -426 0
49 9 -37 0
277 298 -268 0
-142 -127 -131 0
-132 137 149 0
456 499 476 0
195 -187 185 0
197 170 -182 0
-199 162 -172 0
6 12 19 0
271 269 283 0
264 275 284 0
60 -83 70 0
-243 -241 -224 0
300 -276 -287 0
279 -276 -257 0
154 -168 184 0
319 -349 313 0
-395 -362 372 0
-326 -309 349 0
-274 -251 -262 0
109 141 150 0
-363 -368 357 0
296 267 -254 0
-443 404 -432 0
491 -492 -478 0
215 -213 -245 0
169 186 166 0
-53 83 72 0
427 407 -446 0
-266 -275 270 0
-39 -40 34 0
-479 -482 -492 0
-468 -494 -495 0
-197 -188 196 0
27 46 -7 0
-322 341 303 0
-493 -481 479 0
-7 32 4 0
-121 128 -137 0
-35 -45 39 0
215 -249 203 0
276 -278 -267 0
-149 -150 -101 0
-459 -480 466 0
188 -171 -160 0
-147 141 -101 0
217 -201 239 0
365 384 -357 0
131 -102 133 0
193 162 181 0
218 208 247 0
-493 453 -473 0
-489 -496 -478 0
244 228 -234 0
466 459 -483 0
-448 -441 403 0
-387 -396 385 0
457 -477 -462 0
-101 119 -120 0
-147 -124 142 0
-71 97 -60 0
250 -205 238 0
215 241 232 0
-241 -206 204 0
278 257 256 0
-319 -345 312 0
363 -383 375 0
471 -474 496 0
330 -323 -317 0
-192 153 181 0
318 324 -313 0
51 -91 -67 0
-144 127 137 0
-476 -491 -473 0
-500 453 -472 0
-247 211 218 0
326 346 330 0
-402 440 411 0
-13 15 29 0
229 228 227 0
26 4 3 0
67 -96 -82 0
-239 -209 -220 0
390 -371 389 0
-90 65 -57 0
293 298 -269 0
246 204 247 0
-214 -243 -209 0
-449 -410 -440 0
-430 -441 -448 0
-89 -96 -90 0
134 108 -102 0
100 -61 51 0
366 -388 398 0
398 -375 -365 0
-407 435 412 0
209 232 -222 0
431 419 448 0
361 384 364 0
-401 447 415 0
191 160 -176 0
412 401 -409 0
442 420 432 0
-362 -376 358 0
118 -129 108 0
461 463 -494 0
-284 280 267 0
435 425 -419 0
29 37 -30 0
-139 124 -118 0
-13 15 2 0
-31 32 -43 0
-100 61 -81 0
151 153 199 0
361 -400 -384 0
78 -80 -85 0
-356 362 394 0
125 -139 115 0
-166 171 176 0
450 -449 -441 0
90 -58 -71 0
-432 403 430 0
459 475 461 0
143 -127 123 0
238 225 217 0
105 -113 123 0
94 87 -69 0
-69 -97 64 0
-313 309 341 0
-24 17 39 0
185 186 198 0
-420 -406 413 0
124 -138 -140 0
103 -112 102 0
18 -28 21 0
-81 83 -68 0
43 6 -16 0
316 -311 314 0
-317 -301 -344 0
298 262 -257 0
-319 -316 306 0
259 274 -258 0
240 221 -250 0
458 472 -473 0
-429 -439 401 0
396 -371 -359 0
-85 75 89 0
-264 300 -289 0
-383 363 -398 0
459 -491 -481 0
-461 454 492 0
-88 -57 62 0
499 467 -468 0
84 92 -73 0
-407 -419 418 0
-476 485 -481 0
372 371 354 0
-305 302 315 0
244 -216 211 0
395 396 -399 0
69 75 -73 0
-312 -311 -302 0
1 -15 -42 0
-498 460 481 0
-375 357 -395 0
404 432 -415 0
468 472 474 0
-341 304 -320 0
-340 -344 314 0
-493 482 -459 0
238 -250 -201 0
-320 338 336 0
403 413 442 0
484 498 491 0
182 -171 159 0
-451 -496 -480 0
-118 127 -143 0
214 241 234 0
52 54 95 0
366 -377 -395 0
-240 237 227 0
148 -101 -149 0
-391 -397 356 0
470 -499 -490 0
-422 406 404 0
401 433 -427 0
383 389 -374 0
-427 -407 441 0
-269 -282 -274 0
146 -103 125 0
198 -154 -157 0
160 197 182 0
164 -194 -159 0
87 82 -73 0
-343 -333 -301 0
385 363 -392 0
47 -6 -16 0
471 465 468 0
453 -465 466 0
-497 -498 473 0
-139 115 -147 0
136 128 -145 0
-257 -274 294 0
415 444 -443 0
-215 -235 212 0
353 -378 398 0
12 15 -8 0
446 -433 -423 0
-198 -163 178 0
471 -473 464 0
-448 429 -418 0
-48 -45 7 0
371 -364 367 0
212 -210 -234 0
-134 -146 -140 0
313 -336 340 0
240 -208 -244 0
493 483 -496 0
-466 458 -456 0
-68 57 -83 0
497 488 -486 0
14 -1 39 0
65 93 91 0
-430 -403 -411 0
252 294 -253 0
-426 446 410 0
-207 -218 -222 0
-36 49 -9 0
475 -481 -470 0
1 38 -23 0
-174 170 -186 0
414 -410 406 0
-90 -81 61 0
-331 -349 327 0
406 -415 -421 0
33 27 38 0
-121 -130 125 0
-133 -122 124 0
-265 279 278 0
-308 342 334 0
-89 67 -52 0
-334 344 -305 0
327 -319 -321 0
-155 -158 -157 0
-274 -272 286 0
292 -260 -257 0
-89 -66 -79 0
147 128 -126 0
324 -330 338 0
-271 -300 276 0
233 -204 219 0
284 259 268 0
-279 282 -251 0
185 156 -151 0
-367 386 389 0
-5 -26 -33 0
329 314 312 0
-18 -30 -39 0
-74 -65 55 0
-278 -260 -281 0
90 -99 59 0
191 -183 -182 0
190 -152 -177 0
359 -368 380 0
153 -173 -171 0
-496 487 462 0
285 267 -266 0
222 233 229 0
394 -359 372 0
380 364 -387 0
441 -401 -439 0
-486 463 453 0
-469 -489 476 0
55 -94 -79 0
-339 -320 332 0
-445 437 -427 0
329 306 326 0
61 93 -56 0
487 -482 480 0
-101 119 -118 0
-256 -271 287 0
438 -434 407 0
-33 45 -6 0
249 221 -217 0
-158 -193 167 0
341 -340 325 0
143 115 145 0
165 -166 189 0
-89 56 -76 0
152 -195 186 0
-20 -28 45 0
302 329 308 0
-280 270 253 0
406 -441 -416 0
199 184 169 0
434 427 425 0
-325 -338 -326 0
294 273 -254 0
-491 -483 -470 0
420 450 401 0
-214 236 228 0
9 -15 38 0
286 260 275 0
-50 6 -3 0
-352 398 -390 0
-100 -92 53 0
-266 -264 300 0
66 63 56 0
365 -376 -360 0
-315 349 -332 0
131 -114 -125 0
-269 -263 -268 0
435 414 -434 0
-350 -302 344 0
9 -27 -11 0
-277 254 289 0
269 267 -280 0
100 55 51 0
-235 213 220 0
58 72 -55 0
-105 -109 -102 0
159 196 -167 0
-272 -265 264 0
-295 255 -260 0
166 -182 167 0
170 -192 175 0
149 -130 -103 0
418 -408 -444 0
-291 -257 -270 0
-78 -51 66 0
469 -455 -481 0
36 6 35 0
429 -408 -411 0
-459 -499 469 0
175 196 193 0
-54 -73 55 0
154 189 170 0
-260 271 281 0
462 474 489 0
-248 -232 -205 0
340 343 -332 0
386 387 -363 0
228 -243 246 0
-471 458 500 0
-179 -164 177 0
333 -317 -320 0
208 -227 242 0
277 297 280 0
107 -110 -148 0
420 -411 440 0
270 288 292 0
225 206 246 0
454 -489 -468 0
36 23 -47 0
451 -472 -499 0
-289 270 -288 0
-53 -97 -80 0
156 171 192 0
-131 106 124 0
-474 486 -472 0
-461 474 -473 0
-151 194 190 0
345 -326 318 0
-73 -61 -53 0
235 231 -218 0
143 -120 -104 0
-67 90 -96 0
148 -130 -106 0
445 434 437 0
-198 -185 186 0
480 486 492 0
24 42 30 0
248 -247 213 0
-10 7 19 0
263 -282 -252 0
301 310 342 0
-422 -437 413 0
-436 -412 403 0
-17 -12 19 0
-480 493 496 0
-111 -110 127 0
-233 -214 245 0
215 -248 -204 0
464 -463 483 0
-404 435 -443 0
-232 -203 209 0
-52 92 63 0
248 -212 -221 0
387 356 -390 0
-354 -397 -391 0
-346 -305 -319 0
-52 -74 -80 0
333 -324 340 0
-487 474 -500 0
139 135 -150 0
409 435 -415 0
294 296 262 0
333 318 -340 0
468 497 -473 0
304 345 332 0
-194 -159 -195 0
-304 -308 -344 0
-237 -250 226 0
-259 -267 257 0
-374 -369 -390 0
346 327 310 0
6 -44 11 0
389 355 -375 0
441 -420 410 0
-75 -77 -90 0
-8 -6 21 0
400 396 -365 0
267 264 -289 0
-157 -165 170 0
-428 426 -420 0
193 -163 -170 0
-220 -242 -203 0
-92 91 -88 0
485 476 -463 0
-78 -82 -69 0
-269 -277 293 0
286 -283 280 0
327 -326 -310 0
353 -372 -358 0
59 77 57 0
-59 51 85 0
452 499 -477 0
394 -380 -370 0
-338 -349 314 0
-431 -402 403 0
134 -149 121 0
-72 -100 -73 0
474 460 478 0
-266 295 -285 0
373 377 368 0
-247 -219 228 0
-21 34 -10 0
133 117 125 0
-154 181 -183 0
-88 -99 -77 0
346 349 315 0
-240 -211 206 0
-16 -39 46 0
-69 -60 -98 0
373 -398 -356 0
-495 -481 458 0
-453 470 484 0
275 -278 -261 0
479 482 486 0
206 -216 -212 0
187 199 -181 0
-62 -88 -69 0
123 130 -117 0
-241 219 -246 0
-374 -366 395 0
-500 498 -494 0
-30 -50 -13 0
27 12 -44 0
-477 470 451 0
436 -437 429 0
138 108 133 0
434 436 414 0
295 -284 -281 0
-257 281 261 0
89 74 53 0
-188 -172 -162 0
-200 -177 -183 0
-203 217 -201 0
-18 13 -36 0
53 58 62 0
113 -102 136 0
-420 404 -410 0
-105 134 -101 0
318 343 334 0
-34 -37 24 0
-405 -424 446 0
408 430 443 0
231 -215 -248 0
-323 -346 -331 0
299 -292 278 0
39 18 -50 0
440 418 414 0
203 -243 -214 0
360 -375 -352 0
-300 -282 -263 0
-398 -381 -400 0
-162 -163 181 0
271 -252 293 0
327 -337 -331 0
-118 102 109 0
26 -22 44 0
-252 287 288 0
-1 16 26 0
-401 -402 -432 0
370 372 -374 0
158 -169 -166 0
28 43 15 0
-470 475 468 0
331 -309 -342 0
-72 58 -96 0
-33 -25 -9 0
-366 397 -355 0
485 -476 -454 0
-375 382 -383 0
-243 -201 212 0
220 234 -230 0
256 -296 276 0
294 -281 292 0
476 -454 475 0
101 114 140 0
-144 -127 126 0
-250 -227 -248 0
366 388 -396 0
83 86 -52 0
-173 -200 170 0
82 99 98 0
-120 117 111 0
-176 198 -200 0
-399 -390 368 0
-139 -128 120 0
184 166 155 0
188 -184 -162 0
346 -307 323 0
-146 -133 103 0
482 -497 -499 0
-233 -237 -222 0
477 488 495 0
-458 -469 475 0
-231 -216 213 0
-166 -200 158 0
367 351 397 0
491 -500 488 0
-168 -191 -162 0
-72 93 -57 0
389 -360 -394 0
345 342 -346 0
-447 441 -426 0
27 -35 44 0
-184 -173 168 0
-339 301 -313 0
353 395 -360 0
438 443 -421 0
331 -332 -327 0
-7 34 -15 0
271 288 -289 0
-295 278 296 0
46 13 6 0
-34 -42 3 0
-339 -336 -310 0
142 125 -127 0
294 279 263 0
-258 -278 293 0
-353 351 -358 0
44 -48 15 0
305 337 338 0
30 -45 -7 0
53 66 -85 0
44 16 -23 0
-127 149 -105 0
-117 -130 103 0
-479 -485 -466 0
-347 -345 303 0
175 -157 199 0
-229 -202 210 0
14 32 1 0
-354 -387 399 0
-478 -486 456 0
-113 144 150 0
483 491 459 0
3 12 5 0
207 -225 -246 0
215 212 234 0
303 -340 -304 0
-307 -322 -330 0
-430 -440 431 0
132 142 135 0
101 144 129 0
-474 462 -457 0
461 -465 486 0
-192 -183 151 0
-190 162 153 0
144 149 -130 0
-423 -425 446 0
-457 -486 458 0
-318 -346 302 0
45 30 -34 0
49 -35 -23 0
-417 -445 -447 0
-145 123 -119 0
320 348 -332 0
401 446 -426 0
-177 197 164 0
-24 -10 -27 0
27 -17 -8 0
202 -219 -237 0
486 491 459 0
-337 319 314 0
47 43 -17 0
-159 -186 165 0
228 -214 203 0
419 438 409 0
-319 343 349 0
-15 16 30 0
-500 476 474 0
379 378 375 0
-209 -220 231 0
269 282 -293 0
-401 447 431 0
192 -165 191 0
172 -170 195 0
423 -416 433 0
143 137 113 0
-181 -188 -187 0
289 256 259 0
-450 -404 421 0
492 493 471 0
29 10 48 0
280 -253 -262 0
-6 -22 50 0
127 -132 138 0
18 36 -27 0
-326 329 -349 0
281 276 275 0
300 260 -290 0
52 69 -75 0
-57 -78 95 0
168 -161 200 0
-456 -471 -478 0
-393 389 -367 0
469 479 -471 0
-73 100 -56 0
15 4 7 0
374 373 -367 0
-74 -89 52 0
-394 -371 -400 0
431 433 -417 0
-198 -176 163 0
75 72 -56 0
25 7 -3 0
227 -216 228 0
123 -120 125 0
455 469 479 0
-76 85 -94 0
320 -304 -342 0
-216 -207 -239 0
117 -125 148 0
-171 -167 -195 0
107 101 -122 0
405 412 443 0
-229 -218 250 0
486 489 478 0
-361 393 -373 0
-348 -330 305 0
259 251 -277 0
237 248 229 0
60 -54 94 0
-279 -270 -253 0
315 350 341 0
-289 256 292 0
-100 -85 -60 0
-46 -18 26 0
85 59 57 0
-185 -187 189 0
203 243 -246 0
-386 385 371 0
-270 -256 -277 0
374 372 397 0
310 -334 -336 0
21 3 39 0
-293 -262 288 0
467 477 -474 0
-391 -356 355 0
-32 -42 -29 0
-438 -426 -444 0
366 358 375 0
488 490 -500 0
-276 -253 -292 0
-249 230 -214 0
57 93 -92 0
-31 26 -46 0
-111 145 -120 0
-330 -324 -336 0
143 108 107 0
-101 -135 -113 0
-226 -223 -237 0
-139 101 -149 0
-403 449 433 0
-230 206 -209 0
263 262 295 0
-328 321 333 0
-328 -317 311 0
-333 307 -337 0
-75 -86 -90 0
77 91 67 0
-302 -349 320 0
-417 425 439 0
277 -278 -284 0
272 252 -259 0
-135 141 146 0
36 -18 -47 0
47 14 19 0
493 -453 -481 0
460 -494 468 0
289 -256 -276 0
12 35 37 0
-347 -343 -304 0
327 -341 303 0
334 -337 -309 0
-340 -324 -343 0
460 498 -486 0
488 498 -475 0
213 222 250 0
288 -294 -258 0
-364 -374 -377 0
-425 -414 419 0
178 172 181 0
-68 62 -88 0
352 -364 367 0
-5 15 40 0
-153 -169 -180 0
457 -491 -473 0
-216 -203 -237 0
-400 -365 379 0
447 -440 -422 0
454 -469 -474 0
-228 -245 -235 0
-144 -115 -119 0
86 96 -68 0
-119 150 -142 0
440 450 432 0
436 -423 435 0
414 425 -422 0
-39 -13 -30 0
277 -263 -259 0
111 -130 -141 0
42 50 25 0
-247 237 215 0
-489 -461 473 0
13 1 21 0
-347 320 -309 0
444 417 440 0
-211 228 237 0
473 -483 -466 0
17 -25 -31 0
114 -102 -134 0
482 -465 470 0
-213 -205 -214 0
76 78 80 0
302 -344 324 0
190 165 197 0
-360 381 -391 0
-252 277 292 0
-216 -236 -221 0
-264 -257 -263 0
371 -395 364 0
229 -233 249 0
-76 86 -93 0
20 21 -7 0
173 -178 181 0
-366 -359 -380 0
252 299 -295 0
329 -332 304 0
439 434 429 0
-149 -125 -115 0
444 424 404 0
-169 -170 158 0
7 4 -17 0
-45 -22 36 0
124 120 -111 0
-211 -219 -239 0
-483 -478 -463 0
418 406 440 0
-461 -481 465 0
97 76 -95 0
79 -56 83 0
457 -452 470 0
389 -380 -385 0
305 320 -322 0
-233 207 227 0
-248 -244 212 0
-373 -383 -356 0
-162 -167 -153 0
194 190 -160 0
267 -266 280 0
64 -67 88 0
138 -107 -115 0
-289 256 270 0
-3 10 -37 0
-362 -400 -358 0
-265 290 263 0
-474 460 -468 0
72 -98 80 0
15 -27 -37 0
-57 88 83 0
-201 -207 246 0
93 76 -71 0
72 80 -81 0
-2 13 -40 0
-471 498 478 0
52 67 -69 0
65 86 71 0
202 -203 223 0
-494 496 -489 0
331 329 -349 0
500 -493 -458 0
141 129 119 0
-81 -76 -98 0
394 354 392 0
-351 -361 376 0
362 -372 367 0
178 161 188 0
-390 377 -366 0
380 -391 365 0
-102 122 148 0
-476 -496 452 0
340 314 310 0
-204 233 -235 0
475 485 -496 0
235 -221 237 0
431 402 -421 0
312 305 344 0
-330 302 -320 0
-346 -344 342 0
-311 -307 -321 0
467 -493 473 0
-121 -133 -145 0
93 -54 67 0
-423 417 -420 0
329 342 -301 0
-189 -182 -161 0
79 -83 -54 0
-376 365 374 0
-266 -274 -292 0
167 169 -164 0
-242 204 227 0
-465 496 -461 0
-294 -255 271 0
-348 327 301 0
327 -338 322 0
466 486 460 0
384 -372 -352 0
283 277 -293 0
389 -360 -388 0
337 315 349 0
-25 -46 35 0
350 332 -346 0
482 453 -483 0
-465 470 472 0
-239 -247 -235 0
-283 -265 -300 0
-163 -158 -171 0
160 198 185 0
316 338 -329 0
420 414 -449 0
125 131 121 0
-406 445 -424 0
-399 -372 387 0
490 -480 467 0
-343 342 -324 0
-405 -442 -432 0
-412 -447 -440 0
-234 248 -214 0
287 299 268 0
-398 -372 -364 0
-255 261 -288 0
331 -349 -321 0
-302 -325 326 0
432 428 446 0
43 33 -39 0
-379 360 361 0
-226 250 207 0
174 -195 -194 0
47 -34 48 0
129 119 130 0
23 -7 -49 0
-279 -292 258 0
-383 373 -394 0
-417 445 415 0
-85 61 88 0
72 -63 70 0
480 -473 -496 0
-344 311 -350 0
189 -186 -157 0
277 251 281 0
-132 127 126 0
27 42 26 0
115 127 -117 0
-276 -255 -266 0
-400 366 395 0
380 384 -398 0
-163 194 -200 0
-161 166 -156 0
-50 2 -37 0
144 145 -118 0
77 61 87 0
-384 -400 353 0
-76 -97 55 0
268 -289 -251 0
263 -274 -277 0
-190 195 188 0
159 187 166 0
335 330 -308 0
-219 -214 -211 0
99 93 -81 0
308 314 343 0
186 -176 158 0
263 284 -272 0
-380 -362 360 0
474 460 -463 0
57 -84 76 0
243 246 -248 0
-61 -70 -57 0
-194 183 -177 0
-7 48 24 0
324 341 346 0
279 294 -260 0
96 -97 78 0
-109 -105 104 0
-247 213 -208 0
470 484 -477 0
-413 -416 441 0
266 -289 -299 0
133 -122 -141 0
275 270 273 0
349 326 -350 0
31 27 36 0
486 -472 -487 0
44 -42 21 0
465 -475 -492 0
259 281 255 0
394 -380 -384 0
-336 325 -314 0
-35 9 4 0
237 -217 228 0
47 -22 37 0
-372 399 361 0
-418 421 410 0
-147 141 -137 0
-170 -198 -172 0
58 61 -88 0
400 -382 -391 0
20 -7 -19 0
250 -205 209 0
457 494 -458 0
329 -317 -331 0
-438 -414 -428 0
-128 108 -123 0
395 -372 399 0
398 375 -364 0
-335 -313 322 0
81 -73 -51 0
-391 -400 -392 0
276 299 283 0
-161 -195 187 0
496 -456 -495 0
123 146 127 0
461 476 464 0
-292 253 -288 0
-63 -60 73 0
-486 458 456 0
-376 369 -373 0
337 -344 324 0
-413 -424 -415 0
-252 -270 290 0
-261 -254 -265 0
-27 -20 -8 0
-125 -109 113 0
492 487 -475 0
466 480 -475 0
362 383 379 0
184 164 179 0
-379 -376 370 0
464 470 477 0
468 -498 -476 0
-491 -461 476 0
488 -455 498 0
481 -451 -458 0
438 408 420 0
333 -338 -337 0
-38 -26 50 0
-499 -456 472 0
442 414 435 0
-14 -20 4 0
54 60 59 0
-176 -155 173 0
-273 253 293 0
302 -323 324 0
-403 -415 -412 0
115 -103 -124 0
227 221 237 0
122 113 149 0
-264 269 280 0
46 -8 16 0
-114 -124 149 0
154 -192 -166 0
-443 -404 431 0
-23 2 3 0
280 -287 -265 0
-207 -204 224 0
440 450 437 0
190 160 181 0
375 -372 400 0
-72 57 66 0
195 184 -168 0
377 358 -384 0
-122 -139 134 0
-347 -348 316 0
-283 254 -289 0
-402 -405 -415 0
-118 113 -136 0
-216 224 201 0
-372 356 392 0
90 80 -78 0
312 323 -335 0
38 2 47 0
166 168 192 0
-157 170 158 0
215 230 -240 0
453 -496 492 0
188 194 -186 0
418 412 442 0
-396 382 385 0
-169 195 -154 0
-140 -142 132 0
493 485 497 0
212 222 210 0
300 -267 257 0
124 -136 114 0
199 179 170 0
272 -293 299 0
-248 -246 -210 0
26 -6 2 0
-347 336 -323 0
257 -277 264 0
339 -319 317 0
-172 180 -167 0
243 220 -230 0
262 279 273 0
229 -210 250 0
-226 210 -244 0
432 429 449 0
-323 322 -317 0
-51 -83 64 0
329 -343 317 0
-382 379 370 0
-34 -8 40 0
-369 -361 -377 0
15 -41 32 0
-124 135 118 0
-254 267 -261 0
320 -303 -345 0
-275 -295 267 0
-235 -213 223 0
-237 -246 207 0
382 356 397 0
152 186 -184 0
-53 78 98 0
224 218 -210 0
456 476 485 0
-9 -16 28 0
307 -346 -343 0
-316 305 302 0
355 358 -352 0
-76 -65 83 0
-338 -343 -321 0
231 235 202 0
-8 -43 -15 0
82 -68 63 0
-318 -339 304 0
-376 398 355 0
241 250 209 0
-283 -293 -300 0
-473 -493 -485 0
-296 -271 275 0
-271 -277 -294 0
384 -352 397 0
-111 -128 112 0
-478 -453 484 0
376 -353 383 0
-188 157 166 0
271 -284 -293 0
-492 -498 -463 0
228 -201 -214 0
-5 18 26 0
-413 -401 -445 0
-284 -280 261 0
282 -283 290 0
183 -195 159 0
-36 22 46 0
-250 -244 220 0
-82 -54 -94 0
-440 414 -409 0
106 133 147 0
-390 -377 -374 0
356 387 372 0
116 -150 -106 0
-49 18 46 0
374 385 -362 0
326 339 -319 0
-249 213 224 0
30 -49 34 0
49 32 18 0
68 52 -67 0
492 498 -461 0
-186 164 155 0
-403 421 -411 0
223 207 -234 0
346 -304 -318 0
-391 383 -390 0
191 -200 -192 0
327 340 341 0
-389 -383 -368 0
-3 -24 -17 0
5 -33 37 0
-374 -364 -381 0
176 157 169 0
96 98 -92 0
-232 211 -215 0
19 10 -39 0
496 -490 -476 0
-452 -483 472 0
-397 -375 -383 0
237 213 -233 0
379 364 -398 0
-370 363 -357 0
498 456 462 0
-151 -177 158 0
-266 -270 -300 0
238 -249 239 0
-317 331 -336 0
358 376 -386 0
285 -273 257 0
359 -386 -356 0
-73 -51 -53 0
459 -462 -488 0
-26 -16 11 0
440 -421 404 0
-399 361 -362 0
-9 15 8 0
-289 290 -297 0
188 -152 177 0
7 5 18 0
-396 358 390 0
179 -200 -194 0
266 -300 273 0
-368 -362 -357 0
-322 -303 311 0
63 56 86 0
-153 -175 181 0
-214 -220 226 0
34 -25 -12 0
381 375 -362 0
20 11 -45 0
-26 -42 16 0
-140 -115 149 0
-374 -386 379 0
-339 -334 323 0
23 33 -16 0
58 55 83 0
-243 -230 -228 0
-51 -99 59 0
16 -24 -8 0
306 335 -310 0
303 -350 322 0
243 227 242 0
478 -469 461 0
-403 -407 429 0
351 378 383 0
59 65 71 0
-323 344 318 0
-11 20 22 0
449 408 -410 0
-264 -262 266 0
17 -3 26 0
191 187 184 0
-106 128 -101 0
363 368 -379 0
379 -356 -377 0
142 147 -109 0
327 -322 321 0
484 492 -486 0
-268 -274 -254 0
163 -182 -191 0
-109 -122 -140 0
335 -329 303 0
321 -319 -320 0
71 -75 -64 0
-189 -176 -167 0
-341 -307 331 0
465 493 -473 0
-480 -488 460 0
-56 55 -52 0
-274 -298 272 0
-265 279 -283 0
231 -226 -211 0
-75 53 56 0
87 70 -91 0
-98 -75 55 0
80 77 95 0
-60 99 66 0
146 -122 -103 0
-36 -33 35 0
-116 130 135 0
-486 458 -476 0
199 172 -160 0
-443 404 -437 0
-459 -456 -471 0
154 -200 198 0
113 106 -122 0
-123 -132 122 0
208 -248 246 0
-485 -462 496 0
145 -134 -128 0
-393 -369 400 0
-392 355 -363 0
-28 -39 34 0
358 -356 387 0
228 -240 -238 0
-160 168 199 0
-147 134 -103 0
262 -289 -280 0
232 -204 -243 0
-182 175 162 0
388 397 369 0
-482 -486 -487 0
-321 -329 313 0
-288 266 270 0
-451 -467 464 0
147 142 134 0
21 -12 39 0
122 134 -119 0
-141 -132 125 0
414 405 424 0
-393 386 -385 0
-107 104 144 0
-414 -412 -431 0
-363 375 393 0
405 426 -410 0
121 -143 -147 0
316 -337 312 0
-164 160 -198 0
18 -22 -12 0
-221 -213 -250 0
-378 -368 375 0
-417 -409 443 0
-219 233 -241 0
186 -196 194 0
-244 203 228 0
-53 80 66 0
-113 133 -138 0
-106 134 107 0
-375 -355 380 0
365 -355 383 0
-27 -2 -38 0
-142 115 -119 0
-483 -479 474 0
-186 -180 187 0
-174 -168 -158 0
-347 319 333 0
-393 360 371 0
226 -209 246 0
480 453 493 0
280 283 -292 0
267 -291 -295 0
-443 439 401 0
345 -333 329 0
404 -403 -438 0
309 -329 302 0
-281 -264 279 0
-45 46 47 0
-189 -153 -164 0
-8 -47 -40 0
295 -290 -265 0
-273 -274 -296 0
-331 -307 322 0
72 -55 57 0
-20 8 25 0
-86 94 71 0
398 373 369 0
286 288 -291 0
-197 -163 172 0
-233 241 -229 0
451 -460 468 0
-189 -163 -187 0
-16 -8 -13 0
-31 -22 -9 0
224 222 -219 0
-44 29 -32 0
-441 427 430 0
75 -99 -66 0
408 -428 419 0
291 252 -288 0
244 224 -246 0
-486 -457 498 0
-116 -110 -109 0
-412 -419 429 0
386 -361 398 0
288 259 -265 0
-108 -112 130 0
67 82 81 0
-197 174 -193 0
-214 -234 215 0
-150 108 -110 0
199 167 200 0
410 401 430 0
96 64 -81 0
-477 453 -455 0
470 479 454 0
106 -123 -102 0
-400 380 -357 0
468 489 459 0
-54 -64 85 0
147 -113 -101 0
272 -286 -290 0
-395 -360 -381 0
-433 -437 428 0
295 261 276 0
-79 -60 -66 0
-162 182 -200 0
-436 -435 427 0
106 -123 134 0
53 -71 -70 0
-137 124 105 0
-486 -492 -479 0
434 417 -440 0
480 -471 -467 0
441 -412 423 0
-54 76 -72 0
-216 -211 231 0
200 157 -165 0
-425 414 427 0
309 -346 -319 0
-117 -115 116 0
367 394 366 0
-370 -355 380 0
253 252 -282 0
93 96 95 0
94 77 59 0
11 -31 -17 0
-7 -43 -15 0
134 -143 139 0
215 -216 -246 0
-327 340 333 0
-444 416 -435 0
388 364 360 0
-480 -462 485 0
219 -230 207 0
171 -160 169 0
408 431 421 0
287 253 279 0
492 475 -495 0
-159 -168 152 0
-281 -274 -292 0
415 -436 -419 0
169 192 -164 0
391 376 -360 0
1 -11 15 0
-168 -155 163 0
100 -51 -75 0
326 307 315 0
-448 415 -431 0
-190 -154 -179 0
121 -101 135 0
430 404 -442 0
-241 -225 -231 0
-156 192 168 0
467 -466 -462 0
3 36 -49 0
-469 -455 -494 0
175 -158 -159 0
-165 -158 161 0
64 55 -83 0
265 299 -273 0
-443 -431 416 0
-225 -213 -242 0
447 -444 -426 0
-10 -21 20 0
411 435 423 0
330 310 315 0
345 346 -319 0
-456 486 -452 0
-220 245 250 0
10 -9 23 0
-491 -490 -464 0
232 245 246 0
334 -341 344 0
84 -60 88 0
-392 -357 354 0
-254 253 -264 0
95 -68 -73 0
-109 -141 -128 0
376 -389 380 0
132 -102 104 0
-411 -412 447 0
-202 -219 -208 0
-291 -261 266 0
-98 -75 -62 0
451 -452 -470 0
115 -112 -124 0
64 81 95 0
-300 263 267 0
-412 -401 441 0
-312 329 343 0
224 -226 -209 0
-281 -257 -269 0
-302 -320 -307 0
4 -47 -44 0
324 334 -307 0
75 78 -90 0
-147 140 130 0
237 -241 207 0
-408 415 -425 0
-279 254 -291 0
466 483 469 0
-243 210 236 0
-182 -151 -193 0
231 -226 -228 0
-496 486 473 0
3 5 -23 0
-239 -235 -233 0
27 31 16 0
200 191 188 0
218 -215 204 0
252 251 -271 0
-104 -126 -107 0
423 418 -413 0
-393 384 -368 0
114 -110 113 0
390 -369 364 0
151 -194 177 0
-429 446 437 0
210 -224 239 0
-132 -149 144 0
-203 -234 246 0
116 118 -139 0
117 141 132 0
427 434 -401 0
-490 -458 464 0
445 418 -430 0
-465 -485 473 0
490 459 -458 0
350 -302 303 0
36 -45 -31 0
-272 288 -259 0
-253 263 -277 0
193 -178 -157 0
448 -442 -419 0
127 -105 -116 0
-246 -215 221 0
-166 152 -181 0
378 -380 -360 0
196 199 -153 0
-82 -99 -74 0
-288 280 -262 0
388 353 374 0
18 25 -32 0
-79 78 -81 0
6 -36 31 0
-413 -442 -439 0
-246 227 -224 0
33 46 7 0
-224 229 -247 0
-477 -500 463 0
118 -106 115 0
-277 271 287 0
-232 242 -240 0
-123 138 -107 0
124 -104 -121 0
353 -398 380 0
414 -432 -424 0
72 -55 -82 0
499 491 -462 0
-136 -112 121 0
-63 -67 97 0
-375 -387 388 0
106 119 -135 0
298 -252 -279 0
79 52 -85 0
-172 -180 -154 0
168 186 -170 0
146 -141 -110 0
167 -169 -180 0
329 301 318 0
91 88 63 0
296 300 287 0
-310 319 -302 0
126 -127 -114 0
-459 -454 -498 0
-114 -118 -104 0
-265 274 -263 0
20 24 -50 0
218 244 -219 0
297 -278 281 0
-339 -306 -330 0
99 97 -55 0
130 141 132 0
-182 169 -189 0
-282 -270 287 0
-364 380 -351 0
-389 379 400 0
-98 -78 58 0
-488 -467 482 0
-446 402 447 0
-132 -117 124 0
241 -233 -244 0
-264 -281 -285 0
-136 114 -142 0
484 -483 -456 0
-134 112 -105 0
309 -313 332 0
-472 467 475 0
140 -144 109 0
396 368 352 0
-335 -323 314 0
399 363 -382 0
442 424 423 0
246 -243 229 0
319 304 325 0
170 -189 -165 0
-301 335 310 0
58 65 95 0
186 -181 199 0
353 -400 -381 0
251 -267 292 0
62 -63 -96 0
-498 458 471 0
479 467 -464 0
452 -497 490 0
-242 -214 206 0
374 -375 396 0
427 -426 -413 0
424 -421 -407 0
128 125 139 0
30 44 -38 0
244 212 -218 0
247 224 -211 0
-411 419 -416 0
117 -149 115 0
-237 -250 -219 0
-60 56 -86 0
-190 -192 187 0
-72 -55 -66 0
-406 447 -418 0
62 89 -72 0
119 115 -112 0
-6 48 -47 0
-272 284 -289 0
183 182 200 0
349 -305 313 0
336 329 318 0
180 178 170 0
-161 -199 164 0
111 -130 -126 0
-469 -482 -471 0
140 118 -137 0
215 -238 -213 0
-319 -312 -324 0
-339 -350 -305 0
399 365 -390 0
281 296 299 0
231 243 233 0
-167 183 182 0
-50 -28 6 0
197 191 -190 0
490 -464 491 0
22 -10 29 0
159 -167 158 0
77 -60 97 0
-277 259 -255 0
440 -429 -439 0
-489 470 496 0
276 -252 -295 0
-370 -363 396 0
60 56 53 0
-128 134 -121 0
-269 -273 -296 0
128 -150 124 0
459 498 484 0
-61 -74 -67 0
-108 118 -110 0
-89 -56 94 0
165 -196 171 0
-498 475 -473 0
283 270 -289 0
2 12 39 0
248 -227 -224 0
48 -47 -6 0
481 -455 -467 0
468 -451 -454 0
112 124 142 0
-462 -451 -472 0
-88 100 63 0
-360 357 -396 0
428 -407 447 0
-415 -432 444 0
255 282 297 0
10 -7 -14 0
3 14 -8 0
-98 -77 80 0
-408 -422 -438 0
228 221 -236 0
-391 -376 359 0
52 -98 -90 0
-60 70 75 0
348 319 -313 0
-144 -135 136 0
40 10 13 0
490 469 457 0
340 302 307 0
368 391 -387 0
475 -489 -478 0
242 233 -201 0
-243 219 -224 0
255 297 264 0
-221 203 248 0
65 96 75 0
-334 328 -327 0
-343 -305 -349 0
165 190 153 0
-248 245 243 0
389 385 360 0
44 -50 8 0
146 103 133 0
299 267 273 0
-56 -62 -51 0
-97 -57 -96 0
-453 -477 456 0
69 57 64 0
168 172 -177 0
-144 149 -109 0
372 -374 -359 0
112 121 142 0
63 -88 68 0
86 -83 67 0
434 -433 -437 0
332 -338 350 0
-423 -439 -433 0
106 -148 111 0
74 56 -80 0
317 -334 -323 0
159 -162 182 0
14 -25 -28 0
-238 -235 -245 0
-147 -128 -141 0
254 -283 251 0
-158 -200 169 0
413 -440 443 0
133 -107 109 0
415 401 -405 0
-148 -108 102 0
347 -343 301 0
384 -357 379 0
-457 -465 482 0
-464 -483 -467 0
-187 189 -195 0
-469 493 -458 0
176 169 178 0
-355 362 -374 0
166 -192 180 0
-90 62 77 0
272 -296 -275 0
26 -37 -33 0
-416 411 429 0
347 -350 -348 0
214 237 -228 0
-121 -134 -145 0
132 -121 141 0
-381 384 -376 0
-386 383 378 0
366 363 380 0
-164 -179 171 0
-103 115 -109 0
153 181 186 0
-373 376 -371 0
-39 38 25 0
153 -184 166 0
-450 447 -429 0
-403 -424 405 0
-218 -216 -205 0
494 -478 -485 0
-477 -455 -467 0
73 -54 57 0
307 339 -333 0
-473 -490 486 0
60 -97 -69 0
-29 9 -30 0
211 244 -229 0
-203 202 -250 0
438 -418 -428 0
189 -194 -195 0
-99 83 -70 0
-373 399 359 0
183 -165 159 0
-153 168 197 0
387 -391 397 0
53 55 -57 0
-380 -397 -361 0
360 -374 366 0
431 -401 -443 0
-188 -193 183 0
-360 373 390 0
353 361 392 0
420 441 408 0
75 91 -67 0
-445 423 411 0
-24 -29 6 0
203 -217 -237 0
-224 -245 -235 0
296 287 253 0
-427 408 407 0
253 -290 -276 0
-101 -123 108 0
-410 -427 404 0
51 90 69 0
-205 -203 239 0
117 -132 -149 0
-401 426 427 0
379 -369 -385 0
-446 -415 -435 0
438 -450 -408 0
-344 313 311 0
303 -348 320 0
168 -153 -159 0
438 425 419 0
-127 -119 129 0
-497 451 -471 0
329 -350 321 0
157 -191 183 0
-116 -144 148 0
-446 -413 417 0
-343 -307 305 0
-352 -358 -399 0
-277 261 286 0
-193 -158 179 0
146 115 -150 0
-197 -186 -168 0
-195 160 182 0
309 -302 -324 0
141 -136 124 0
219 -220 214 0
-466 493 456 0
261 266 -251 0
476 -475 -489 0
-205 -216 -229 0
-191 172 161 0
-465 485 -469 0
10 -46 25 0
240 -226 -230 0
261 -268 282 0
209 -206 -242 0
367 381 361 0
310 344 -331 0
163 190 -170 0
-234 -227 -233 0
440 427 439 0
265 282 -284 0
-473 474 -500 0
-46 45 -28 0
-391 364 389 0
24 -6 -3 0
344 317 -315 0
81 -96 -77 0
-301 -309 -317 0
-64 -80 58 0
-175 186 -167 0
-237 239 -220 0
448 -435 445 0
38 -42 -49 0
-415 -417 -440 0
153 -199 -183 0
188 -184 -179 0
-43 40 -14 0
