p cnf 200 969
-33 175 -177 0
-60 115 79 0
-56 -140 182 0
36 168 -45 0
-53 -102 -158 0
30 4 -5 0
84 -166 -178 0
127 91 16 0
182 -151 -79 0
-161 -57 -52 0
-16 43 -84 0
-117 -141 -159 0
-155 -65 109 0
-28 -98 120 0
178 -25 -122 0
5 36 161 0
181 103 -131 0
48 130 -37 0
-24 -129 -73 0
-159 10 170 0
120 -157 3 0
21 39 84 0
-170 -160 -81 0
-36 150 31 0
-63 10 75 0
-56 -114 146 0
-122 -8 -175 0
-114 -180 -5 0
143 103 45 0
77 -151 -146 0
-101 -72 -84 0
122 -32 -37 0
-102 84 -14 0
-143 -14 -104 0
178 -200 187 0
163 156 94 0
-161 193 -188 0
183 -93 -154 0
167 -90 122 0
5 14 -129 0
94 -98 -100 0
-139 -187 -114 0
20 -57 170 0
94 64 -193 0
114 185 -199 0
37 -91 170 0
-189 94 -53 0
-72 -177 -96 0
199 -121 86 0
-21 176 -114 0
-25 58 26 0
128 -44 -93 0
-30 166 -179 0
52 126 37 0
107 154 -56 0
111 -152 28 0
-46 25 -84 0
-12 -143 -119 0
-112 -74 184 0
30 37 -8 0
159 59 44 0
-70 18 -115 0
66 100 117 0
-99 -38 82 0
57 -115 -125 0
-52 181 152 0
-135 -67 -146 0
141 -77 -176 0
150 75 -31 0
166 -115 -29 0
-81 -128 -199 0
-26 -103 28 0
166 146 -131 0
-49 -2 72 0
-148 -107 83 0
43 178 73 0
193 12 10 0
-190 140 -73 0
17 -193 163 0
133 -65 77 0
-45 -159 99 0
-37 -122 -36 0
148 61 -168 0
-133 -190 -184 0
-126 60 -66 0
196 95 5 0
115 177 61 0
-170 114 193 0
-54 -192 153 0
119 160 -190 0
-20 122 153 0
145 10 146 0
-116 22 57 0
-70 -165 80 0
161 158 -8 0
139 -113 -135 0
171 178 37 0
118 126 98 0
95 161 -176 0
-137 -125 -155 0
-103 -81 -53 0
-151 182 95 0
2 -25 -175 0
-25 -117 163 0
-39 -36 -170 0
-46 143 13 0
78 18 3 0
23 -14 -158 0
165 -123 125 0
155 -86 105 0
-134 56 168 0
151 52 -89 0
170 45 191 0
193 -69 56 0
121 163 -143 0
69 156 199 0
13 44 135 0
-24 21 124 0
112 -44 156 0
54 5 147 0
-73 160 36 0
-64 44 -80 0
-128 151 -143 0
-73 -198 -143 0
-145 18 42 0
-20 -116 -25 0
-30 -41 118 0
150 182 -155 0
141 64 -99 0
198 60 162 0
-76 145 -175 0
-49 137 -17 0
183 -147 -191 0
193 -129 185 0
-92 -200 -19 0
2 -25 77 0
-134 -188 118 0
-75 -7 -141 0
-39 -180 -68 0
-176 -183 -121 0
26 134 55 0
57 4 54 0
168 -180 162 0
-100 -39 189 0
-146 57 -178 0
23 87 62 0
86 100 189 0
-34 128 -199 0
-185 181 150 0
135 -142 -69 0
-11 -22 -94 0
158 50 -48 0
-64 -185 11 0
-187 -62 -164 0
60 -61 28 0
100 101 -35 0
171 -103 -143 0
-85 -48 -9 0
88 26 184 0
-140 73 166 0
18 -20 -80 0
-8 -65 -87 0
-186 21 -170 0
98 62 -96 0
174 72 128 0
128 186 -25 0
-59 18 -29 0
160 151 29 0
149 -58 56 0
-200 5 -1 0
177 54 -93 0
45 -99 105 0
50 -110 -46 0
-108 195 198 0
-168 -46 6 0
-112 -4 135 0
101 97 -9 0
-3 85 58 0
112 -184 -32 0
-92 106 132 0
50 -173 -106 0
160 119 37 0
148 -191 35 0
-79 -60 159 0
61 88 -58 0
-71 -58 -182 0
-104 -110 -20 0
-181 -79 -123 0
-190 -38 88 0
-126 107 20 0
-180 -166 20 0
67 140 143 0
-43 144 -168 0
134 92 -193 0
13 70 -156 0
188 5 136 0
29 50 -56 0
20 -85 49 0
-180 -60 -8 0
180 47 127 0
-95 53 130 0
12 -164 -92 0
-93 -120 -50 0
170 -141 178 0
-152 -142 176 0
-44 -90 113 0
-168 -16 183 0
-196 -146 64 0
180 126 -53 0
-42 -4 15 0
135 -87 -59 0
100 -7 -102 0
167 82 -187 0
21 -83 133 0
-163 -125 108 0
-41 -2 -26 0
-189 200 123 0
-85 -3 -4 0
12 79 -194 0
180 -20 64 0
-132 -79 -140 0
54 181 -197 0
76 -146 -157 0
3 -173 20 0
8 -87 -9 0
-151 34 -182 0
145 18 140 0
-192 -176 -88 0
-118 -43 -28 0
32 172 -71 0
-57 117 -28 0
130 143 -14 0
-95 130 48 0
37 41 -138 0
142 130 -8 0
-120 118 -149 0
98 156 4 0
172 -101 -194 0
79 111 -114 0
-111 141 79 0
123 -169 87 0
69 132 -159 0
122 -192 -92 0
37 -150 179 0
-148 -15 -141 0
67 108 69 0
-124 174 -138 0
-182 10 -48 0
-70 -160 -187 0
-85 105 -194 0
172 164 3 0
5 126 -119 0
190 -151 -14 0
150 -85 -44 0
-197 190 -82 0
-197 27 -107 0
-124 41 120 0
23 157 -131 0
48 14 133 0
112 168 56 0
91 -171 -154 0
117 -24 70 0
180 -190 77 0
-186 133 -41 0
-24 41 84 0
120 173 58 0
-200 6 -70 0
132 -26 188 0
173 34 49 0
-167 -105 -63 0
16 -158 -172 0
-22 -30 -194 0
134 -191 64 0
150 -199 140 0
-177 87 -90 0
18 -36 -47 0
157 118 194 0
3 127 2 0
147 24 -10 0
-18 153 195 0
143 -194 131 0
39 -55 73 0
-174 -63 -5 0
-200 -57 -76 0
90 -63 185 0
69 116 -150 0
-79 117 -58 0
-70 50 -159 0
75 135 -101 0
22 -38 -53 0
57 -142 81 0
-200 -178 70 0
111 150 146 0
-141 -16 -115 0
-87 188 4 0
-178 -136 90 0
133 -45 -14 0
54 -125 34 0
-14 167 10 0
-120 9 -143 0
162 -129 -26 0
-71 -143 69 0
92 -179 19 0
113 62 4 0
157 -122 -161 0
-84 -171 81 0
125 19 178 0
-109 1 164 0
156 140 180 0
15 -98 -100 0
-151 -107 -20 0
40 -88 -79 0
-86 -125 122 0
-146 -48 -53 0
198 -141 -117 0
54 -13 -177 0
-108 -132 -103 0
5 -122 155 0
71 76 -7 0
-53 -70 30 0
76 178 141 0
-27 -118 21 0
9 149 -95 0
-3 -165 -158 0
145 44 150 0
-25 165 -86 0
-158 124 35 0
-121 166 197 0
64 25 -42 0
181 87 186 0
-85 13 92 0
-164 -151 -135 0
-32 195 41 0
-99 -21 -164 0
-83 37 -187 0
-143 58 -44 0
-184 140 1 0
-166 -89 -41 0
53 186 68 0
200 11 -116 0
-5 125 79 0
39 117 -165 0
144 -63 -158 0
-158 184 105 0
2 21 141 0
-149 40 84 0
-198 175 -159 0
50 78 -147 0
125 75 -93 0
-171 -77 141 0
-4 37 195 0
138 -118 59 0
115 -192 -180 0
178 -112 21 0
-166 -49 -132 0
154 -177 27 0
16 63 -150 0
120 -18 -139 0
-185 -13 9 0
174 199 -94 0
-79 195 136 0
-37 -162 185 0
-124 113 -146 0
-67 -116 -147 0
-96 -74 -141 0
140 125 -113 0
-118 -109 -194 0
-124 5 -164 0
-75 -113 -197 0
61 -6 -32 0
-18 43 165 0
-38 -134 -70 0
27 -134 47 0
60 -25 10 0
103 1 123 0
192 -141 76 0
-190 79 -37 0
-197 100 -175 0
135 37 -2 0
-139 -200 -28 0
45 -96 -21 0
173 -51 6 0
28 174 149 0
85 -198 108 0
106 -66 199 0
-52 -186 -162 0
-174 176 53 0
-48 -12 -41 0
-22 169 -113 0
-22 119 -38 0
34 40 -166 0
14 -134 -161 0
137 134 -200 0
20 28 -110 0
-25 36 -89 0
160 92 108 0
-167 -126 53 0
106 175 -59 0
96 -66 92 0
40 81 -146 0
-6 129 49 0
125 169 -74 0
173 32 152 0
117 178 -38 0
32 131 -195 0
15 -8 85 0
140 -31 144 0
-146 199 32 0
104 -2 -114 0
-145 -190 85 0
194 110 -67 0
41 108 37 0
135 71 -68 0
103 50 196 0
-49 188 -68 0
110 23 58 0
97 -52 9 0
145 70 19 0
81 106 26 0
18 -108 -57 0
-197 115 -82 0
29 -173 -136 0
35 -37 91 0
-3 38 184 0
-10 -183 127 0
-125 -155 -66 0
41 -76 -129 0
21 89 -106 0
67 155 -17 0
108 -156 169 0
83 -68 -115 0
79 -94 -47 0
-120 -165 -181 0
170 -132 -127 0
-141 116 149 0
-6 23 33 0
124 -88 -91 0
161 -95 -140 0
-62 50 57 0
-19 133 -158 0
-124 43 45 0
109 -42 144 0
-12 151 -88 0
12 -197 -96 0
83 152 -109 0
-32 66 198 0
136 -7 31 0
-181 22 -152 0
37 18 -86 0
186 -195 23 0
72 182 -198 0
-85 -90 -164 0
-51 -136 22 0
-44 169 -54 0
-165 -66 161 0
-12 169 136 0
139 6 159 0
-173 28 99 0
160 187 8 0
67 96 79 0
85 195 173 0
138 107 190 0
39 146 -27 0
-126 140 80 0
-105 -155 168 0
83 33 -6 0
31 -82 32 0
95 112 44 0
188 18 -120 0
154 125 -166 0
-122 89 177 0
-164 55 126 0
-170 -180 -112 0
-149 -107 -152 0
108 113 78 0
-171 130 169 0
65 -155 -164 0
-149 -89 -161 0
-62 -197 169 0
-17 -43 -185 0
-66 -122 154 0
-14 -200 -145 0
-164 -58 95 0
-133 182 92 0
158 -139 12 0
119 132 -9 0
171 119 -29 0
9 164 -165 0
-158 185 151 0
-189 181 127 0
73 46 -192 0
-186 89 196 0
65 -100 -77 0
156 -154 172 0
-52 -11 39 0
65 -63 107 0
128 -191 35 0
-150 190 198 0
-67 -189 -6 0
-129 -100 131 0
188 -107 -133 0
-76 87 165 0
-147 -100 10 0
109 3 -82 0
182 -136 -190 0
-182 -98 193 0
59 -46 -76 0
7 -51 -169 0
-83 -117 168 0
69 140 31 0
157 49 119 0
30 -144 -86 0
-190 139 -143 0
157 11 17 0
-152 122 -101 0
-88 144 120 0
162 -58 -36 0
-133 70 -185 0
-12 111 -110 0
-172 130 11 0
33 48 -177 0
-56 170 -118 0
-65 157 33 0
149 -187 173 0
167 -186 66 0
122 21 195 0
153 97 182 0
-48 70 -91 0
154 -94 32 0
74 -2 -126 0
19 -92 159 0
-108 60 -119 0
185 -188 -197 0
2 35 -96 0
-137 -72 -96 0
156 -39 -182 0
-130 192 114 0
-168 13 156 0
-5 -119 -20 0
1 105 -9 0
162 111 -49 0
-147 65 101 0
-182 19 185 0
34 -143 199 0
-116 155 -38 0
150 -129 -83 0
-87 160 62 0
64 187 12 0
24 -67 -72 0
99 -21 -128 0
36 -9 189 0
-83 -153 -193 0
102 23 71 0
-38 -111 -47 0
27 151 12 0
143 187 -96 0
43 -29 183 0
-76 170 46 0
25 113 -59 0
-29 20 28 0
135 112 -81 0
164 35 -104 0
120 -89 196 0
-1 148 159 0
55 97 199 0
192 76 18 0
19 52 148 0
71 -145 -156 0
58 -35 -142 0
16 -2 148 0
-93 90 -57 0
-116 -152 50 0
-180 -91 -103 0
-50 60 137 0
-28 -97 -128 0
185 -78 -127 0
-164 -28 132 0
-165 -200 -112 0
89 17 -199 0
15 6 -14 0
53 5 111 0
-150 170 116 0
-121 -33 -102 0
-189 -59 -155 0
18 -54 73 0
199 104 21 0
-50 -179 -168 0
-107 -173 40 0
-61 121 -145 0
139 81 -70 0
181 -41 95 0
199 179 -103 0
-141 153 -110 0
-57 69 -32 0
-144 -121 -152 0
-84 98 92 0
-76 133 -168 0
127 41 -92 0
117 -120 64 0
98 -135 64 0
-52 40 -184 0
-154 189 -64 0
182 -193 -135 0
-36 29 155 0
129 72 178 0
-67 192 -81 0
145 144 27 0
-45 86 -113 0
141 196 34 0
-135 -55 -68 0
170 165 112 0
-14 7 13 0
-106 -116 -193 0
-18 153 4 0
-107 -98 -104 0
35 -115 -48 0
-190 -24 -87 0
-111 82 44 0
-77 -149 194 0
145 134 -37 0
-109 44 149 0
-196 100 188 0
140 194 56 0
127 -116 113 0
132 -36 -58 0
-153 -103 -46 0
8 -143 199 0
-152 93 -158 0
126 199 -179 0
-15 -126 116 0
5 -123 -17 0
170 28 -199 0
61 138 37 0
-64 34 117 0
71 41 184 0
64 197 42 0
84 89 -4 0
96 -171 146 0
-177 95 -127 0
135 -136 -25 0
-135 90 -45 0
-147 -47 69 0
-138 -165 130 0
-154 148 -27 0
-142 -111 199 0
136 28 21 0
31 -51 -60 0
-101 -94 93 0
-111 -107 137 0
54 198 -35 0
-2 -146 65 0
165 -183 -193 0
-178 124 143 0
116 -7 -61 0
200 -56 50 0
-95 200 -109 0
-99 140 -100 0
41 -13 -145 0
187 14 -177 0
92 -143 39 0
-38 173 -58 0
157 -132 10 0
-123 -21 92 0
140 -90 -159 0
165 -70 -166 0
177 -145 -24 0
-114 -183 -193 0
-2 -108 180 0
-146 62 134 0
-152 -78 -80 0
-67 114 94 0
64 73 104 0
53 144 183 0
18 127 16 0
-174 85 111 0
-171 77 -194 0
-23 161 -87 0
-75 -170 198 0
110 -182 -179 0
155 -24 -32 0
187 88 89 0
25 115 193 0
-2 -129 -6 0
93 108 -97 0
-88 167 36 0
-22 1 -151 0
-43 -135 -159 0
-133 -64 154 0
-3 192 65 0
-26 76 -164 0
-183 -155 -6 0
-36 -29 125 0
70 16 143 0
185 95 -136 0
184 174 153 0
-101 166 -1 0
-168 61 190 0
-135 -38 141 0
58 56 -26 0
78 -132 146 0
110 173 -112 0
158 132 138 0
-25 119 3 0
-102 160 -180 0
-180 -125 176 0
177 -137 119 0
154 -23 116 0
112 189 4 0
55 37 19 0
151 -182 -159 0
182 95 -24 0
-9 200 -95 0
135 78 -52 0
-119 -10 106 0
25 -37 -86 0
-78 2 -88 0
-95 -180 129 0
-35 69 -112 0
60 -122 87 0
-139 65 7 0
43 32 -78 0
165 81 82 0
82 179 -120 0
194 -97 33 0
-65 80 174 0
190 -64 196 0
-5 -165 -195 0
39 -136 -159 0
94 73 -51 0
-195 188 -162 0
88 97 -193 0
-21 113 175 0
-16 157 -42 0
174 -161 -1 0
67 42 -53 0
23 -51 -14 0
42 139 72 0
53 -31 170 0
140 54 86 0
69 88 -117 0
-152 -95 81 0
127 -70 -181 0
-109 127 51 0
-36 -106 -5 0
-58 -177 188 0
-183 120 -145 0
4 -76 111 0
112 -8 156 0
-123 -6 -181 0
-61 153 130 0
-150 -111 -89 0
-48 -8 -195 0
173 174 130 0
18 108 -48 0
121 62 -114 0
-114 169 139 0
183 -62 138 0
-96 -137 -168 0
-110 -125 -50 0
116 94 -174 0
85 -175 111 0
-7 188 -116 0
-49 -3 -9 0
-64 -112 60 0
155 -60 -179 0
-81 -107 -198 0
183 -115 129 0
92 174 143 0
-88 -73 15 0
-97 176 185 0
198 96 -184 0
-58 -150 114 0
144 76 -24 0
-169 88 1 0
13 132 -41 0
158 116 147 0
-151 -170 23 0
-66 122 189 0
-109 68 -66 0
103 78 -49 0
-155 54 -12 0
-49 99 70 0
72 107 -83 0
-183 -128 125 0
-165 -154 -136 0
19 194 157 0
144 -88 -28 0
189 19 -186 0
17 -128 26 0
53 -49 -82 0
-60 -123 17 0
-136 -185 -61 0
33 -108 -144 0
142 -98 51 0
-9 85 80 0
-99 -199 148 0
-131 110 124 0
125 164 -55 0
-53 147 192 0
152 3 -168 0
111 -195 -2 0
119 -18 120 0
160 43 77 0
-37 38 121 0
-98 99 -53 0
-95 -191 158 0
81 16 106 0
120 43 195 0
148 -51 -62 0
99 84 -62 0
-14 84 -55 0
-15 -11 -168 0
56 11 -20 0
88 182 -61 0
85 191 -133 0
-186 34 87 0
44 -38 -95 0
61 125 -59 0
55 -105 -131 0
192 41 -22 0
129 -69 3 0
-47 141 -90 0
-51 -200 -163 0
39 174 153 0
-25 -64 -161 0
196 197 107 0
147 23 74 0
-58 161 159 0
86 -171 -29 0
181 -198 -37 0
159 96 -58 0
19 -88 -129 0
190 144 -114 0
110 25 -172 0
154 -72 -14 0
-137 110 32 0
-110 -111 -154 0
-176 -135 -162 0
-128 19 -179 0
144 91 -168 0
191 -36 156 0
111 -13 58 0
-199 -137 154 0
-35 -92 -39 0
10 -190 71 0
-53 15 184 0
65 34 -94 0
-55 -175 -8 0
-60 -18 34 0
48 -120 196 0
121 -10 165 0
52 -149 -84 0
-21 119 49 0
-22 194 61 0
-109 10 54 0
157 93 99 0
-177 -8 -94 0
56 -126 -104 0
-45 135 173 0
164 -89 16 0
-102 -12 -15 0
-115 146 -123 0
148 150 -31 0
133 106 -31 0
78 -141 98 0
146 171 103 0
-3 37 -1 0
-194 151 -47 0
188 186 42 0
142 -5 127 0
-139 -30 126 0
-62 -76 48 0
-147 80 -12 0
-61 89 131 0
-144 103 29 0
-142 43 58 0
-196 -77 114 0
50 111 106 0
-54 177 -16 0
-38 75 -25 0
-16 22 -75 0
-148 -139 162 0
-70 -177 -120 0
-127 -139 -60 0
-20 -169 -15 0
-186 -43 -36 0
56 -133 -189 0
-187 47 -200 0
68 124 -184 0
-114 68 35 0
-24 93 86 0
-61 137 -7 0
185 184 115 0
123 -17 -97 0
-85 -102 59 0
179 -191 -168 0
-140 -14 160 0
-189 30 16 0
-179 17 24 0
55 -126 127 0
73 -175 105 0
5 -6 -53 0
-159 -153 165 0
-35 -119 150 0
78 149 168 0
155 34 183 0
65 200 -33 0
-181 -91 -82 0
-3 52 -163 0
-77 167 -36 0
-78 -113 -26 0
134 -100 -14 0
4 -72 36 0
86 -88 34 0
-4 -193 -176 0
-29 13 110 0
137 96 104 0
72 166 149 0
63 -122 187 0
-195 -120 192 0
-130 51 131 0
-92 145 160 0
-5 -59 -58 0
141 70 -27 0
128 154 195 0
-113 149 150 0
-34 -13 -172 0
196 -33 -142 0
-132 -27 -31 0
-142 123 -67 0
177 -40 -95 0
114 128 133 0
-51 76 -164 0
110 -180 70 0
59 -131 -68 0
-112 39 -155 0
-135 -89 -59 0
22 -131 30 0
13 200 31 0
-158 -40 52 0
179 12 41 0
29 192 154 0
-197 57 -128 0
127 -22 -63 0
-93 -33 19 0
171 -187 -130 0
45 -193 146 0
20 141 -112 0
-173 -72 198 0
-168 -115 -191 0
85 -66 80 0
-53 -164 38 0
-163 -40 -75 0
-51 -45 125 0
-165 115 -180 0
-107 100 37 0
178 180 142 0
-109 31 170 0
-177 17 -127 0
-40 -125 -55 0
128 4 -50 0
106 -26 -59 0
176 -153 -68 0
151 -52 67 0
-91 -184 75 0
-112 154 132 0
-145 -41 -55 0
-121 -103 -130 0
-11 70 -200 0
