p cnf 200 969
136 14 -71 0
-77 -55 -124 0
-89 67 21 0
120 -157 115 0
162 -21 -39 0
121 -5 200 0
-128 -44 -169 0
-146 200 -133 0
37 123 -64 0
-81 -142 130 0
-177 164 -198 0
-68 -102 148 0
-130 -111 172 0
-100 -185 22 0
155 -182 -54 0
-112 -98 114 0
-10 78 -15 0
-127 12 53 0
-20 185 152 0
-98 -2 162 0
188 42 126 0
169 24 110 0
51 165 -189 0
66 163 -6 0
54 -141 94 0
7 -123 -30 0
-80 33 -174 0
125 -58 101 0
25 -34 172 0
71 -185 -110 0
114 97 81 0
-77 9 53 0
-184 157 159 0
-15 92 -31 0
-71 -81 -72 0
24 191 5 0
-174 -116 -192 0
-48 -161 132 0
163 -58 -4 0
-114 -50 107 0
-89 19 -32 0
11 -138 195 0
-72 49 -107 0
124 111 -77 0
-80 -82 -175 0
-184 -53 -27 0
103 6 172 0
174 -57 -129 0
-98 -134 34 0
-80 35 13 0
-67 -154 -36 0
111 -117 126 0
85 5 19 0
-173 -119 -80 0
46 -74 -151 0
28 42 -22 0
162 -190 -124 0
-146 51 -94 0
146 200 12 0
52 165 56 0
199 -138 158 0
-164 149 88 0
3 -137 -178 0
109 16 61 0
-159 125 144 0
55 -98 48 0
1 159 158 0
139 -112 -11 0
-163 -137 -91 0
-165 -32 -54 0
55 -97 -70 0
64 -99 162 0
162 139 -176 0
122 -129 -2 0
35 159 25 0
-110 72 -172 0
-182 -21 42 0
171 123 -72 0
19 179 -3 0
-97 -81 125 0
-137 135 -3 0
10 -2 67 0
-82 195 36 0
-89 53 -151 0
-33 123 62 0
72 200 -85 0
-156 -25 9 0
-73 185 -126 0
-5 -138 128 0
-13 26 -58 0
-175 -138 -163 0
-101 186 153 0
92 -79 -39 0
139 -163 -23 0
-108 -168 -189 0
53 94 -78 0
-126 68 -23 0
41 -32 -8 0
132 63 -42 0
99 -194 -142 0
-3 48 -155 0
29 -121 -103 0
-166 -40 -182 0
-13 -176 -190 0
46 152 50 0
194 78 135 0
115 15 -41 0
45 12 51 0
135 51 83 0
-36 -143 -111 0
189 -55 -136 0
178 112 -41 0
78 -97 -103 0
-114 162 27 0
165 -173 -146 0
-103 -185 -29 0
-125 -144 56 0
90 -134 93 0
108 -46 -180 0
-48 -33 -69 0
-71 -167 160 0
99 -52 74 0
-129 -48 86 0
86 131 -8 0
-80 64 -121 0
-198 -199 158 0
-33 -95 -68 0
98 -82 -193 0
16 174 122 0
-120 -12 -38 0
-192 -162 -129 0
103 -7 30 0
103 76 -186 0
-181 198 194 0
-164 199 -134 0
-99 147 -24 0
41 82 -38 0
180 29 107 0
38 136 -147 0
-109 -134 -159 0
-67 18 122 0
-155 24 71 0
-6 -133 -120 0
181 -184 73 0
-56 -105 5 0
5 28 102 0
131 -88 63 0
-199 13 -105 0
31 24 59 0
173 -198 157 0
-145 184 -111 0
108 23 -159 0
-23 176 181 0
17 73 162 0
145 -69 91 0
118 -40 60 0
99 -184 135 0
-59 -121 161 0
36 -35 -51 0
18 174 -162 0
36 -40 37 0
-68 -186 151 0
-3 -83 14 0
-6 13 14 0
32 -100 135 0
-181 -42 -155 0
5 -139 82 0
38 10 -23 0
29 5 -144 0
134 -70 117 0
58 137 -117 0
71 -55 -44 0
-105 -194 -76 0
33 -43 71 0
177 -61 -170 0
-173 -150 -148 0
-73 -115 119 0
164 -58 -43 0
-142 189 -131 0
52 -29 -180 0
115 123 82 0
-93 91 -169 0
-89 179 -180 0
-178 179 8 0
-48 -55 -167 0
1 90 -198 0
40 -68 -134 0
160 63 -187 0
-103 187 -123 0
85 14 -7 0
-65 -47 57 0
-67 -184 13 0
-82 169 188 0
177 73 -112 0
160 -193 -198 0
7 -88 -84 0
1 194 -53 0
-199 73 5 0
-139 -112 -100 0
148 64 40 0
-84 43 40 0
-122 -83 -97 0
198 118 -125 0
-94 55 51 0
-193 46 120 0
-166 -143 -138 0
-175 -94 -165 0
76 -49 -184 0
-153 -129 1 0
136 -123 171 0
-172 193 194 0
-145 -111 77 0
32 103 -4 0
-168 21 -128 0
-181 -68 -14 0
-146 1 70 0
-118 -104 4 0
-95 135 -27 0
25 -57 181 0
-91 -132 174 0
129 -187 112 0
158 105 157 0
8 145 -84 0
80 154 123 0
-42 -186 -30 0
-200 -145 -62 0
155 -32 -149 0
-59 111 -89 0
195 76 149 0
-32 94 -140 0
37 39 132 0
174 -165 89 0
-2 27 180 0
150 -181 5 0
7 130 -105 0
46 59 88 0
-145 91 43 0
14 -108 -21 0
34 72 132 0
64 -76 -45 0
-13 20 -12 0
71 -40 163 0
81 -54 86 0
-143 140 188 0
148 170 188 0
-141 -97 -148 0
-106 83 -161 0
-34 -170 28 0
71 74 -26 0
142 -19 79 0
-46 103 -132 0
101 187 -107 0
-172 110 115 0
-24 7 183 0
-180 109 46 0
-46 -149 115 0
-70 -185 -190 0
38 110 73 0
195 199 -25 0
59 -24 60 0
-126 -85 -69 0
36 63 172 0
-143 -69 83 0
66 -105 -76 0
60 173 129 0
185 -52 -137 0
-69 108 -162 0
124 -149 48 0
55 36 -76 0
168 -189 -147 0
-1 99 -143 0
-199 -82 30 0
29 128 -151 0
189 72 -156 0
-15 170 121 0
-64 125 -56 0
20 -66 88 0
-67 103 122 0
-12 -199 161 0
65 75 -92 0
-138 -184 61 0
97 16 -94 0
-146 -117 14 0
-116 100 -59 0
111 103 -1 0
56 131 192 0
-47 -132 -115 0
-174 134 -98 0
36 -84 -114 0
113 -58 108 0
-52 -31 -199 0
-182 -84 133 0
-70 -119 124 0
153 -25 55 0
121 -160 -139 0
-29 -98 33 0
120 -170 -133 0
166 -141 -140 0
37 -36 159 0
37 -198 151 0
-164 19 196 0
143 -63 -40 0
-29 21 122 0
-165 -116 83 0
-18 102 127 0
-43 65 -160 0
14 -12 -175 0
155 -36 27 0
185 -194 42 0
-99 -172 184 0
91 -51 -8 0
1 5 -196 0
92 -181 36 0
21 -23 49 0
-36 -199 82 0
-199 -57 -152 0
-163 25 -54 0
178 -53 65 0
-142 -164 -25 0
-21 134 109 0
92 85 83 0
135 131 9 0
-163 87 -124 0
-47 118 -33 0
119 79 -45 0
-155 -170 -73 0
154 -188 -35 0
-180 15 -40 0
58 -138 137 0
-142 -71 60 0
43 64 61 0
-123 53 -108 0
36 -29 116 0
116 64 185 0
69 -97 -174 0
-111 8 -198 0
135 -67 -140 0
152 -101 -95 0
-22 -114 99 0
-76 -10 122 0
56 115 42 0
-62 51 -140 0
-165 -103 167 0
73 30 -23 0
-68 136 -182 0
-180 -112 184 0
193 164 -182 0
75 -33 200 0
-174 121 142 0
62 -172 22 0
130 -170 75 0
142 88 -149 0
-59 82 -79 0
-59 110 35 0
-198 135 -14 0
-58 -141 13 0
95 -184 -152 0
128 -192 -89 0
170 137 60 0
22 -84 -42 0
-143 -176 175 0
-48 -138 173 0
106 73 -149 0
-117 84 -155 0
-163 85 -73 0
-145 68 -185 0
119 94 57 0
-59 -34 -85 0
-70 94 131 0
121 184 -56 0
137 146 -25 0
-63 96 64 0
42 47 -52 0
167 8 135 0
-176 -131 -34 0
-74 134 -110 0
-7 72 8 0
135 -158 93 0
-81 -39 22 0
44 -85 -128 0
-67 -44 -131 0
155 105 -5 0
94 -42 -51 0
-8 165 -28 0
-18 157 144 0
188 31 129 0
-70 16 -79 0
110 -195 106 0
2 194 51 0
80 42 -143 0
-65 127 137 0
90 -40 11 0
47 -157 -79 0
53 -116 167 0
89 -191 -115 0
183 -56 133 0
-65 -174 -22 0
14 180 80 0
-41 141 157 0
-19 115 -78 0
112 -118 8 0
60 -58 17 0
99 -79 -132 0
-183 119 -137 0
-102 44 60 0
-188 24 -5 0
-105 52 -153 0
-64 23 167 0
148 -73 194 0
-128 71 199 0
168 -102 -138 0
41 193 -100 0
-160 175 178 0
144 90 106 0
-127 112 -71 0
144 -8 -100 0
128 82 63 0
-152 171 98 0
-102 -148 -44 0
-133 38 -161 0
-152 -198 -183 0
105 -161 191 0
-38 -60 -186 0
-115 20 171 0
-152 114 199 0
-70 113 122 0
126 39 -94 0
174 -28 45 0
179 165 -146 0
49 -163 115 0
79 107 -185 0
-184 -76 -28 0
39 58 -88 0
196 38 -57 0
31 -167 93 0
129 -199 135 0
-68 84 -196 0
76 -118 134 0
-8 -58 -181 0
26 99 -3 0
-182 130 -120 0
-111 97 181 0
54 -50 -195 0
-124 158 -11 0
8 -92 51 0
-135 -108 39 0
40 197 27 0
77 152 121 0
59 36 155 0
40 -111 64 0
-165 138 -108 0
-128 59 70 0
-125 191 189 0
58 -7 -50 0
7 113 -145 0
-55 151 -197 0
177 -155 -126 0
-117 94 -124 0
121 189 -165 0
68 -140 126 0
119 -193 111 0
-145 -109 -146 0
78 -32 -188 0
90 152 -70 0
149 -60 50 0
-38 42 190 0
-1 67 -92 0
-9 -200 -81 0
101 6 172 0
16 67 183 0
8 -53 18 0
-37 -186 -34 0
-142 84 61 0
194 -37 189 0
134 8 196 0
-78 -35 138 0
-39 -41 137 0
86 -186 126 0
92 -28 168 0
-3 -137 -64 0
-15 175 -72 0
-113 88 -14 0
23 -70 -196 0
158 -37 176 0
-174 -75 146 0
-106 -141 151 0
44 -125 -140 0
-64 -26 -2 0
-124 -146 38 0
160 191 -148 0
-105 -80 188 0
-14 196 -33 0
26 87 65 0
-200 43 -161 0
130 93 -167 0
-51 183 -125 0
-147 -34 8 0
-44 -29 120 0
141 -184 197 0
40 -32 62 0
-148 -60 -5 0
95 87 190 0
-146 -50 -52 0
-61 -91 -42 0
-30 138 -133 0
177 68 14 0
73 26 -65 0
147 -55 25 0
11 129 -154 0
-108 5 10 0
6 24 8 0
-83 109 51 0
54 -102 197 0
66 -118 105 0
112 114 -87 0
137 -14 44 0
11 -63 -154 0
179 -9 159 0
49 101 62 0
-194 124 133 0
173 -145 166 0
-92 -112 -77 0
120 46 199 0
-80 56 54 0
40 -105 159 0
-171 36 167 0
-183 175 34 0
175 -55 138 0
-133 69 113 0
74 42 192 0
-66 -115 -124 0
-104 -26 125 0
-150 172 -69 0
177 -113 -116 0
-12 -133 18 0
119 155 26 0
-71 -199 -87 0
99 -123 -28 0
52 89 24 0
-159 -75 92 0
62 149 -45 0
194 -105 16 0
-13 -4 145 0
117 127 128 0
199 188 158 0
-96 14 34 0
-3 -173 -35 0
-152 -101 14 0
-54 47 -152 0
153 -46 14 0
78 -42 136 0
194 -4 78 0
19 157 -45 0
-145 -8 -1 0
-184 161 -27 0
-100 149 6 0
34 109 -171 0
-100 -59 -120 0
-24 -116 156 0
103 158 106 0
-174 -113 -172 0
63 -128 77 0
-8 100 55 0
4 154 -32 0
105 -4 196 0
-73 -12 -177 0
1 -81 193 0
-34 152 134 0
-43 77 -200 0
-168 4 -118 0
141 144 -166 0
-72 -165 -166 0
-5 -181 139 0
-2 141 -69 0
119 -162 152 0
55 -8 20 0
-175 -153 156 0
-131 126 -99 0
-121 -82 -28 0
-53 8 -172 0
166 -138 71 0
-117 -70 164 0
-118 -187 -156 0
-91 -65 -47 0
128 169 11 0
91 -82 -93 0
-131 17 25 0
161 -101 -118 0
-159 -132 17 0
-188 -92 -156 0
-125 -89 -57 0
185 66 -8 0
-152 97 -65 0
-23 -172 70 0
186 -102 -157 0
55 -105 -7 0
-162 185 -132 0
190 49 -102 0
-165 -36 99 0
-109 -144 -16 0
198 -20 63 0
47 139 14 0
-135 -96 -146 0
-77 135 -160 0
-32 -85 59 0
-145 -180 -93 0
2 66 188 0
-103 166 -156 0
115 -80 11 0
191 60 -117 0
-112 17 -127 0
146 -150 183 0
-61 -90 31 0
152 11 82 0
-12 38 -159 0
110 -9 155 0
-103 -136 87 0
-57 -65 -121 0
-198 156 -53 0
5 -2 55 0
60 -190 126 0
-36 -2 -37 0
129 -63 141 0
-133 -3 -155 0
-78 -33 57 0
-12 -86 -91 0
63 120 89 0
72 109 -65 0
76 -195 26 0
-95 -42 -176 0
-50 -81 -107 0
69 -175 -111 0
51 -180 -40 0
-95 135 51 0
-74 -95 -4 0
-53 72 -97 0
-102 79 124 0
-80 -90 181 0
199 -178 -167 0
146 -46 -185 0
-19 96 108 0
-120 135 104 0
-140 47 191 0
-106 142 -117 0
173 14 -127 0
-167 -28 -138 0
64 160 79 0
181 -39 -131 0
5 68 195 0
104 -54 -89 0
-190 133 -112 0
-43 -64 -47 0
-127 -70 -199 0
83 -184 -29 0
-149 -80 -92 0
98 10 186 0
-133 -31 -96 0
-151 169 -44 0
-62 120 -176 0
191 132 137 0
32 -70 -200 0
-62 82 -179 0
-145 -68 -62 0
59 -108 166 0
90 198 148 0
62 114 20 0
186 -151 160 0
32 61 104 0
-97 187 166 0
30 98 -197 0
183 162 -150 0
48 -58 -50 0
183 6 55 0
-111 95 -48 0
-152 -194 134 0
-174 -14 193 0
152 107 -3 0
44 -29 81 0
67 72 -140 0
117 -4 -157 0
-53 -156 -100 0
58 166 -6 0
-81 -124 -173 0
184 116 194 0
-114 38 97 0
120 150 40 0
96 -136 -132 0
-27 -15 128 0
1 52 -37 0
-195 -171 179 0
-127 26 70 0
-127 137 -181 0
-59 -124 -19 0
137 99 -4 0
138 30 -142 0
-48 82 93 0
87 4 75 0
-139 57 129 0
95 60 -61 0
-123 53 -118 0
-190 -40 -180 0
57 -155 31 0
-88 -171 -144 0
-30 140 31 0
54 -105 -115 0
8 184 -107 0
-158 -186 -135 0
188 -79 -91 0
186 -61 78 0
156 -176 124 0
74 106 -179 0
-126 71 185 0
-174 -142 -95 0
-94 -183 34 0
-80 164 -127 0
37 155 199 0
16 100 35 0
-76 103 24 0
-26 -48 92 0
-163 62 197 0
-84 -95 199 0
60 -46 -126 0
24 187 -141 0
-146 183 -42 0
-38 -27 -82 0
-51 31 -65 0
-35 -43 -113 0
-90 136 200 0
139 -40 39 0
114 184 -147 0
64 10 -25 0
170 -112 -128 0
-24 -82 193 0
-30 50 -195 0
-126 76 133 0
181 9 31 0
144 161 -72 0
177 100 130 0
-122 -34 -126 0
-72 -107 177 0
126 66 -150 0
-75 -152 167 0
-78 107 -175 0
2 -96 -163 0
155 -173 -111 0
-108 -116 -40 0
133 -92 60 0
135 106 32 0
200 -184 -84 0
161 -167 -4 0
-121 18 -100 0
-111 112 -139 0
-73 -45 -7 0
-104 191 -32 0
-193 199 166 0
-83 61 -187 0
-14 -169 -97 0
182 10 -161 0
-86 -79 -60 0
-133 185 -151 0
-81 130 120 0
-54 -170 158 0
-26 120 -25 0
-83 168 -57 0
-41 -127 197 0
-37 -124 -35 0
159 135 123 0
-35 179 -20 0
-120 155 -84 0
-87 188 71 0
-43 73 173 0
-164 -168 46 0
-52 -48 94 0
25 -165 -56 0
97 -138 -125 0
-127 154 132 0
43 -180 66 0
152 22 -45 0
174 120 -131 0
-71 177 -116 0
-181 -47 -29 0
52 -101 -165 0
-29 -107 -65 0
189 -87 -142 0
-123 12 188 0
-126 -121 -170 0
-132 -136 -176 0
22 126 -110 0
-21 -142 -117 0
59 -104 -145 0
143 51 -184 0
53 -102 146 0
-112 -82 48 0
178 44 62 0
-152 -103 53 0
-35 171 10 0
-51 -4 -47 0
2 174 17 0
-82 105 125 0
115 165 185 0
79 6 -92 0
-72 -163 -167 0
195 122 180 0
-127 173 190 0
162 180 -52 0
-179 71 37 0
-113 52 141 0
-1 164 -100 0
74 -156 181 0
54 -15 93 0
-186 -63 -179 0
-70 132 -171 0
-62 59 -18 0
-147 -118 137 0
6 -179 123 0
-101 97 158 0
-161 -105 110 0
18 141 67 0
154 15 23 0
36 -131 30 0
107 16 152 0
-6 -36 193 0
-6 -102 158 0
-190 186 105 0
193 -38 114 0
-143 -105 90 0
-125 -148 -25 0
-100 -37 59 0
-10 106 14 0
5 -144 -53 0
-112 -171 -48 0
-9 -46 23 0
-55 -88 -105 0
1 33 -131 0
-40 -159 -150 0
59 42 193 0
-78 -190 -113 0
-4 -192 59 0
-111 59 -168 0
175 197 164 0
29 98 20 0
-74 1 131 0
168 119 138 0
-142 168 30 0
-73 -72 117 0
92 -150 162 0
189 -183 24 0
7 128 46 0
150 70 1 0
-189 -56 -34 0
46 11 64 0
135 -199 -42 0
-119 11 88 0
-89 111 142 0
156 -9 -165 0
90 74 -25 0
123 -82 138 0
-15 59 -29 0
-30 -122 -137 0
-176 -119 120 0
-75 -10 63 0
53 -127 43 0
-57 54 5 0
-176 -64 -139 0
-160 -34 -138 0
-78 117 76 0
-4 -132 127 0
-18 200 57 0
15 21 125 0
119 93 41 0
134 95 104 0
110 72 98 0
-132 -107 42 0
142 -51 -139 0
-108 -87 185 0
91 -184 147 0
-191 -180 -103 0
31 141 -21 0
-35 -91 -191 0
-51 -4 -23 0
93 -148 -28 0
-38 -33 200 0
198 27 -79 0
-11 102 -181 0
-178 -92 -26 0
177 37 150 0
50 -154 160 0
165 -51 128 0
-193 180 -21 0
-168 -101 133 0
56 148 131 0
150 71 8 0
-154 1 140 0
153 -15 -83 0
-181 159 103 0
119 -136 174 0
109 89 176 0
145 93 183 0
-39 -46 -36 0
-76 87 -107 0
-144 180 32 0
-3 171 15 0
-174 16 18 0
-29 -64 165 0
-66 75 -184 0
20 -71 48 0
-70 -44 35 0
58 53 119 0
40 3 132 0
-128 51 31 0
101 -142 79 0
-2 -68 93 0
32 -120 163 0
-19 -194 129 0
-6 175 11 0
-80 104 172 0
-11 -12 -70 0
10 6 185 0
-123 124 -43 0
3 178 -127 0
166 100 -181 0
109 -35 -22 0
-163 109 -161 0
-192 -2 -33 0
200 -175 96 0
153 -151 36 0
137 -163 191 0
-194 28 109 0
179 116 -169 0
-83 33 9 0
16 170 -167 0
-93 57 -15 0
151 106 6 0
148 -149 86 0
10 -73 47 0
12 -179 119 0
-160 122 2 0
99 37 44 0
51 106 -195 0
91 -59 -128 0
-26 -9 -38 0
-118 -130 -71 0
94 -39 150 0
-124 113 -105 0
-10 120 173 0
-68 -172 101 0
-81 -123 -190 0
-154 41 -58 0
-71 -17 106 0
-41 50 -180 0
-31 -169 -134 0
23 119 101 0
163 46 -161 0
-18 -81 133 0
99 -167 144 0
-190 144 -177 0
105 197 179 0
-140 -194 -184 0
48 -1 -29 0
179 74 -25 0
-59 155 85 0
-105 -14 44 0
-30 117 -118 0
60 -200 99 0
173 42 59 0
-174 65 164 0
123 2 140 0
22 186 -87 0
44 -122 -73 0
