p cnf 1000 2700
911 213 774 0
-6 -873 645 0
-684 -901 -623 0
-239 790 505 0
-166 142 870 0
149 114 428 0
-835 345 -668 0
-490 -468 -60 0
575 -231 332 0
724 -954 259 0
-205 825 -229 0
-543 -867 449 0
782 -875 872 0
534 -523 -611 0
195 -273 -737 0
-822 -845 923 0
-823 -574 603 0
-732 622 298 0
-519 247 193 0
-811 251 -332 0
-895 919 191 0
-600 -20 -495 0
72 801 -334 0
-203 603 481 0
-896 186 130 0
-260 530 548 0
49 682 -683 0
-618 629 -349 0
814 661 415 0
315 -535 -106 0
610 166 738 0
437 -626 146 0
380 -921 713 0
-298 238 46 0
641 -664 -367 0
396 840 616 0
506 -191 -520 0
21 292 -660 0
-17 475 -960 0
-870 778 398 0
966 -329 -750 0
-568 40 569 0
-303 -915 -654 0
-636 -243 -336 0
-730 575 414 0
-961 -384 237 0
-797 -218 -993 0
302 -343 -55 0
-122 228 878 0
-524 985 44 0
-60 -717 -193 0
932 733 2 0
461 661 -337 0
-316 115 -101 0
-931 -55 -440 0
-484 -335 176 0
549 406 -608 0
908 -699 -761 0
754 -570 172 0
-478 -34 -35 0
-619 -696 836 0
-268 -90 239 0
904 357 352 0
528 34 133 0
-250 742 -706 0
119 313 496 0
-702 264 874 0
422 -840 -192 0
-995 -435 240 0
-165 142 -250 0
-370 -429 -999 0
-41 -733 771 0
673 618 -657 0
-331 159 936 0
-355 -925 -1 0
58 -384 455 0
662 547 407 0
908 977 -612 0
-357 -636 77 0
987 -328 523 0
686 -889 -672 0
560 640 -34 0
-200 218 390 0
-410 752 524 0
-878 -796 -170 0
359 -290 960 0
209 -648 124 0
54 -924 391 0
902 951 642 0
-24 -354 -585 0
864 343 -949 0
-975 -886 846 0
459 420 -409 0
893 824 469 0
-391 335 635 0
119 754 -812 0
-798 -334 636 0
32 374 792 0
-909 874 443 0
118 -664 598 0
324 -640 614 0
102 -711 -616 0
-113 -203 136 0
277 -731 -739 0
-849 388 585 0
-165 362 308 0
-706 -139 -59 0
-438 -763 -240 0
-648 662 125 0
-416 -130 632 0
48 -528 -815 0
-166 388 908 0
-649 -642 346 0
323 -647 -203 0
473 -148 870 0
982 961 -817 0
692 -31 -406 0
-376 -883 -27 0
228 -771 895 0
-597 -297 706 0
343 720 -547 0
880 263 508 0
339 -436 -745 0
-497 875 678 0
-576 76 429 0
-799 -635 929 0
196 327 -477 0
164 -833 -611 0
466 695 42 0
712 162 774 0
532 641 -308 0
3 -314 825 0
605 6 -827 0
-175 413 948 0
248 -97 -632 0
-364 -788 298 0
803 912 116 0
712 774 836 0
749 438 -710 0
890 -336 -899 0
-725 945 -822 0
-419 76 -94 0
-424 -875 723 0
-833 393 700 0
771 -402 563 0
-1000 -282 -36 0
-602 448 66 0
819 -773 -895 0
-762 -822 -154 0
888 -716 -38 0
815 975 650 0
767 885 727 0
-504 -140 -148 0
342 -511 37 0
175 -92 893 0
97 -733 -820 0
-270 -227 26 0
-589 -80 347 0
-939 -271 -476 0
328 2 417 0
524 402 -851 0
982 -78 -546 0
721 123 670 0
-165 -317 -989 0
619 39 -759 0
-913 269 -249 0
-231 771 -452 0
-472 -792 24 0
496 276 -190 0
235 -900 512 0
-823 111 913 0
-555 -60 -190 0
-333 -980 620 0
782 -170 810 0
-476 -9 -469 0
723 330 -717 0
-946 -28 -14 0
836 -314 849 0
-837 -907 -908 0
799 -184 -55 0
386 -863 489 0
-359 -236 606 0
-196 457 123 0
-774 136 326 0
686 532 -869 0
-733 -950 318 0
912 406 942 0
-736 -198 643 0
822 341 19 0
947 269 -764 0
721 -404 -702 0
53 674 554 0
-143 -164 -299 0
861 425 970 0
-637 848 834 0
868 634 768 0
397 233 443 0
-630 3 -788 0
453 476 631 0
390 -267 -498 0
658 147 -114 0
380 181 592 0
832 545 110 0
849 -822 473 0
719 835 160 0
-376 -589 -264 0
-190 -331 -982 0
-969 186 829 0
-786 -774 -776 0
-137 558 -506 0
961 276 720 0
-63 -71 409 0
805 -551 -343 0
-844 821 -87 0
-352 -505 872 0
-894 -160 670 0
136 -528 -415 0
-395 -978 440 0
-833 848 -252 0
-455 969 961 0
932 -760 -153 0
811 -476 -329 0
-64 -347 144 0
271 -299 85 0
552 218 -449 0
798 457 753 0
-544 -113 382 0
181 -588 392 0
64 -767 -817 0
-532 -506 -267 0
-862 557 764 0
-925 -456 -434 0
-908 728 275 0
806 -666 512 0
444 684 -471 0
95 479 511 0
634 -527 -736 0
-675 788 815 0
-140 -410 886 0
723 616 531 0
459 585 -529 0
-587 -219 625 0
-982 -288 -706 0
609 240 -382 0
842 435 631 0
237 278 -17 0
82 -242 252 0
-303 589 289 0
-144 -822 843 0
-221 -788 -60 0
172 -761 802 0
666 -20 -786 0
437 -872 -955 0
612 931 910 0
637 -302 700 0
173 314 322 0
-541 -345 -816 0
-296 -782 -361 0
982 -878 -797 0
318 44 -565 0
480 375 -578 0
-282 993 -260 0
776 82 310 0
945 -787 388 0
-317 -803 293 0
586 535 -886 0
504 181 -480 0
-1000 598 -857 0
506 -35 -782 0
434 -532 146 0
-398 843 -787 0
209 791 9 0
-871 900 800 0
751 -785 151 0
-821 663 -943 0
464 480 -867 0
-1000 472 -534 0
53 -49 312 0
487 -346 -543 0
727 663 -583 0
-355 -972 -5 0
-61 35 174 0
-186 -566 -390 0
-866 -750 -540 0
496 890 -49 0
-979 443 -465 0
824 -296 294 0
717 -58 -384 0
838 392 6 0
-336 240 -86 0
794 803 -237 0
738 -310 154 0
373 -715 -20 0
621 -584 52 0
320 -684 -245 0
-173 845 452 0
-575 27 782 0
-216 -414 -66 0
269 -440 -261 0
476 884 941 0
-377 -97 -411 0
-68 263 362 0
-402 498 743 0
-71 956 465 0
-637 -662 135 0
26 243 -894 0
-580 -486 823 0
-856 251 742 0
-935 213 -905 0
-852 111 832 0
-213 -484 302 0
777 288 790 0
700 698 561 0
48 -867 -229 0
-9 546 -484 0
282 -718 -673 0
-966 -341 -126 0
416 669 160 0
-4 -599 516 0
301 644 202 0
-519 525 -765 0
471 -293 -143 0
-295 974 807 0
-338 498 -180 0
-920 -760 -623 0
-241 -213 -617 0
959 633 -847 0
976 -530 -142 0
-976 907 219 0
790 997 -684 0
-842 -580 431 0
301 -507 -594 0
-843 472 627 0
669 314 605 0
381 -762 949 0
-551 -582 759 0
-26 273 693 0
307 119 870 0
506 935 651 0
793 249 -752 0
-384 -226 128 0
-247 546 -830 0
-746 743 -57 0
-308 -148 -990 0
-861 -132 -412 0
967 -645 698 0
-498 -740 -872 0
-4 -223 296 0
495 -38 850 0
-510 -148 280 0
-487 159 856 0
-485 -721 -558 0
209 -198 -677 0
-624 572 -824 0
92 -909 -977 0
-166 627 -84 0
438 220 -505 0
209 -53 -939 0
515 170 627 0
510 938 -873 0
730 -73 -1 0
-815 -496 -355 0
-704 -293 798 0
-173 268 318 0
393 833 890 0
36 4 -54 0
-441 -576 -901 0
213 -7 -918 0
534 -253 11 0
374 -656 751 0
-237 677 352 0
81 625 -929 0
-861 406 305 0
654 674 211 0
436 -445 -686 0
-59 -979 -293 0
816 219 640 0
282 650 501 0
-383 830 -347 0
-775 -216 -693 0
966 21 177 0
313 -918 60 0
162 392 271 0
393 -924 317 0
809 -814 -956 0
980 -713 572 0
707 -199 -758 0
-391 -373 645 0
-242 250 634 0
-514 709 -694 0
-814 131 725 0
403 -121 -535 0
524 11 -286 0
980 844 -431 0
-36 -151 657 0
-67 872 41 0
723 167 168 0
-67 -363 -667 0
217 781 464 0
-476 674 -58 0
-509 -114 318 0
-136 414 -6 0
352 902 730 0
-199 -517 -267 0
160 765 838 0
-438 -373 860 0
342 -541 778 0
572 904 -833 0
430 914 -853 0
289 -961 337 0
464 479 200 0
835 -887 760 0
-720 217 708 0
-579 -984 -577 0
300 27 89 0
-859 373 -924 0
-186 -286 -273 0
-258 -364 803 0
800 -602 563 0
708 350 24 0
983 -160 -519 0
-951 669 -41 0
117 -20 424 0
658 835 -458 0
976 -803 510 0
-815 -326 -917 0
579 -49 24 0
-169 738 -549 0
625 -55 698 0
253 -358 -127 0
-489 257 757 0
-849 604 -181 0
762 -985 325 0
-11 -184 262 0
-368 386 394 0
-996 -207 106 0
-424 -715 518 0
104 -34 786 0
993 679 678 0
155 -513 -878 0
766 964 -811 0
-228 -470 -878 0
-17 -737 -924 0
-928 -908 481 0
87 105 -524 0
521 -557 913 0
-18 -130 739 0
-66 -784 -457 0
-202 186 590 0
-827 288 79 0
-262 466 -12 0
-664 -19 614 0
-796 -57 -514 0
877 -817 510 0
850 -49 -510 0
874 -145 678 0
189 124 161 0
-893 568 -781 0
-922 -967 -272 0
-944 -558 328 0
280 -738 -153 0
194 -568 -658 0
314 506 687 0
-26 -171 289 0
137 258 27 0
-524 -887 355 0
-301 -588 374 0
125 410 694 0
-677 -947 276 0
426 149 629 0
-985 958 -465 0
-501 -150 527 0
-608 -353 -320 0
-937 528 191 0
-472 -806 139 0
-351 -399 429 0
859 220 -24 0
-90 719 -837 0
902 822 695 0
471 -149 858 0
-691 -55 337 0
83 635 417 0
-432 554 130 0
-533 -698 -92 0
-212 553 557 0
472 297 6 0
-709 -888 -746 0
-134 -679 -227 0
-914 79 561 0
-966 419 585 0
-400 518 446 0
-943 624 -198 0
-892 970 844 0
-759 807 896 0
-905 -156 -213 0
-182 395 -892 0
951 -556 -808 0
639 837 831 0
197 -10 279 0
-573 466 -145 0
761 -603 -386 0
-603 922 -41 0
158 -12 -476 0
374 -357 315 0
848 -87 -709 0
-62 913 867 0
229 -405 -104 0
198 247 992 0
357 540 903 0
-161 -59 -853 0
980 -463 -321 0
952 -509 309 0
717 -344 -335 0
-325 443 496 0
-518 915 635 0
967 572 980 0
-308 546 262 0
-172 -713 919 0
263 -745 -579 0
829 -357 354 0
-678 -818 -686 0
917 689 852 0
72 -668 951 0
-737 -675 -235 0
-87 756 -466 0
-857 770 217 0
608 881 566 0
-496 992 -936 0
-580 569 -525 0
700 271 282 0
-550 533 121 0
569 -108 179 0
-305 77 -989 0
741 807 -536 0
-682 -332 192 0
189 -412 78 0
-105 -973 -889 0
-407 988 -232 0
278 -843 -574 0
69 -484 764 0
-705 -654 409 0
-98 -593 -630 0
983 -450 718 0
-122 358 84 0
266 -328 -418 0
939 -220 202 0
-761 460 23 0
274 -976 725 0
-281 720 315 0
350 410 -282 0
-581 -692 -811 0
-569 77 -884 0
-652 56 494 0
808 518 -490 0
470 247 -869 0
168 -354 210 0
-558 -223 -705 0
-501 -841 10 0
409 -123 -395 0
-437 625 -440 0
217 928 169 0
522 -558 -337 0
-756 -528 -345 0
669 977 653 0
121 -625 279 0
-832 686 -270 0
142 929 294 0
913 -129 -571 0
-79 -818 371 0
-571 269 -600 0
-759 -217 516 0
992 -69 -679 0
391 -4 121 0
352 -402 -300 0
698 342 -339 0
-199 -877 731 0
49 -846 902 0
-457 125 -692 0
-176 582 -573 0
405 -198 2 0
-669 -69 -37 0
-91 -353 -199 0
600 -744 417 0
-543 -876 -912 0
-312 9 703 0
636 -577 362 0
-496 987 -652 0
-674 637 324 0
369 446 944 0
-349 747 326 0
-945 -258 -808 0
-511 -374 -4 0
-541 -779 570 0
479 471 29 0
-6 280 -481 0
-487 -782 143 0
-79 860 814 0
784 -843 -560 0
-373 -936 53 0
617 -7 270 0
76 -303 -64 0
-172 838 459 0
-583 -459 252 0
-85 878 -567 0
-942 781 -215 0
740 417 -224 0
-68 769 -585 0
-964 927 -813 0
-49 -552 413 0
-623 404 -457 0
-549 3 -920 0
533 182 831 0
-749 -612 105 0
194 -364 778 0
-782 -506 -100 0
230 -337 729 0
699 748 498 0
-585 708 320 0
99 -810 900 0
-862 -889 424 0
-582 -537 365 0
-399 126 -622 0
822 -968 -308 0
-925 -22 -435 0
164 -161 -455 0
-839 -366 -618 0
-116 299 -130 0
73 -514 386 0
12 947 968 0
-519 -568 -265 0
-31 860 21 0
255 160 37 0
-33 -893 -599 0
94 -919 -14 0
889 556 927 0
-706 12 -436 0
746 -591 -691 0
-282 -40 269 0
108 -224 -365 0
667 -710 916 0
47 -878 -409 0
-988 -969 -659 0
308 -387 506 0
-464 439 383 0
668 -471 -369 0
306 942 -864 0
501 -272 -682 0
-289 995 728 0
610 319 123 0
-80 626 -157 0
-678 -749 422 0
558 113 982 0
197 457 -431 0
368 -748 274 0
-213 -158 -878 0
-629 831 -497 0
-464 -910 -340 0
-733 862 -492 0
140 -365 826 0
122 851 -391 0
94 -863 701 0
733 844 282 0
904 193 -733 0
212 996 -620 0
428 -169 222 0
-349 -4 368 0
-373 -72 53 0
666 -67 338 0
22 593 908 0
-562 -762 946 0
-70 265 -408 0
-150 -988 -218 0
-874 516 182 0
-92 -435 -64 0
-437 759 -690 0
916 -674 -93 0
645 -873 -350 0
-175 -885 -580 0
-217 -589 -423 0
-43 -495 258 0
-998 -60 -99 0
-891 187 -833 0
-92 800 -770 0
514 -439 395 0
-314 105 208 0
-288 -696 2 0
-622 815 -660 0
-803 -646 -581 0
-751 894 -863 0
697 813 390 0
-55 938 -78 0
648 853 -27 0
-441 415 -859 0
192 452 669 0
393 -785 -379 0
-568 -293 -877 0
5 926 -984 0
887 -324 801 0
783 276 -957 0
-468 714 -609 0
455 214 -327 0
-183 704 925 0
917 -837 -353 0
-253 -435 462 0
-30 -847 -927 0
-355 -408 -82 0
-824 -557 970 0
-98 593 -621 0
-544 -43 -379 0
450 103 -489 0
-939 13 -964 0
-987 842 -954 0
641 -525 452 0
831 761 -614 0
-670 -63 -531 0
137 -464 -38 0
-965 -191 -637 0
890 661 -151 0
590 -269 954 0
918 93 -711 0
-537 107 471 0
833 -444 -342 0
-215 -993 913 0
-319 -777 -941 0
-848 813 402 0
-997 -708 141 0
-323 -153 -393 0
671 990 618 0
-823 584 -84 0
-567 605 440 0
263 -121 -673 0
-394 697 253 0
682 -376 720 0
-972 -695 -299 0
92 -409 -270 0
893 611 -764 0
750 84 -739 0
-303 624 14 0
-573 -562 -314 0
-654 657 -827 0
-97 456 161 0
-941 732 -861 0
-70 -194 772 0
946 -476 822 0
301 403 -660 0
854 393 -678 0
504 -772 92 0
272 932 -555 0
-245 -280 -294 0
85 -559 -581 0
-696 677 -82 0
557 -774 -345 0
-316 -351 -617 0
-24 -749 278 0
953 969 -76 0
964 -937 -9 0
635 -717 -959 0
-468 -825 665 0
-453 -958 -643 0
685 -187 198 0
694 -607 -471 0
35 224 -644 0
81 139 89 0
387 -728 -537 0
-360 -531 203 0
-820 -341 778 0
-473 -481 233 0
349 254 -437 0
484 -587 -485 0
-886 802 -13 0
-557 354 -594 0
-830 -444 -204 0
-813 575 -309 0
-371 146 13 0
391 328 441 0
-265 -738 367 0
735 -389 825 0
-152 -666 -31 0
543 400 453 0
-201 -232 59 0
-66 -69 996 0
-838 869 -584 0
-226 617 506 0
-546 -237 -672 0
190 -630 974 0
626 -221 -555 0
-224 444 214 0
-145 481 -737 0
-73 -163 -894 0
-64 558 -529 0
-8 548 -845 0
-854 50 -143 0
-235 109 372 0
-425 954 -786 0
720 -178 -458 0
835 -129 818 0
823 744 288 0
564 313 -621 0
763 -660 322 0
-4 -8 -360 0
-911 -402 673 0
-264 431 -95 0
721 -286 -586 0
287 267 831 0
503 584 -106 0
-648 959 -318 0
241 -46 -422 0
245 -635 -29 0
-276 562 530 0
588 -435 549 0
279 253 131 0
96 -172 447 0
-132 931 308 0
717 785 -171 0
-682 771 -16 0
-422 -802 438 0
118 278 549 0
629 572 -870 0
-616 835 842 0
477 -156 830 0
996 -913 464 0
353 907 608 0
-61 -683 -76 0
-603 716 -319 0
4 -442 17 0
-224 714 978 0
994 805 361 0
828 -689 -924 0
91 -853 -736 0
161 -203 -648 0
234 -932 -949 0
496 833 463 0
-420 88 599 0
585 -881 432 0
378 994 -654 0
-43 39 41 0
-833 779 929 0
430 -496 339 0
609 -946 -321 0
-534 -202 -930 0
724 906 869 0
304 844 -172 0
965 -652 978 0
887 -27 -189 0
62 -979 -134 0
985 619 369 0
-226 -156 -415 0
-107 -575 865 0
905 -469 -752 0
-517 -145 478 0
50 898 -139 0
-618 -156 -184 0
-480 837 -13 0
-292 -914 -711 0
-494 -270 -622 0
784 555 487 0
69 -996 22 0
-334 636 -164 0
45 -679 787 0
-944 -530 310 0
-299 -802 658 0
-618 96 63 0
377 -529 708 0
594 -343 -435 0
-17 444 -341 0
663 -702 -780 0
-597 80 852 0
-811 837 -87 0
-971 -384 299 0
-41 -88 341 0
25 679 20 0
210 -689 -480 0
-480 852 702 0
633 -137 121 0
609 -71 -684 0
408 625 -329 0
227 688 -726 0
910 50 487 0
-905 806 702 0
-694 -143 -313 0
666 976 514 0
58 89 225 0
-167 -859 493 0
427 -38 -800 0
-95 -982 -329 0
223 -949 689 0
285 -377 -223 0
-682 -632 -148 0
139 -279 -552 0
227 -691 -393 0
430 -308 770 0
13 -202 -381 0
543 481 -526 0
-999 -983 -328 0
536 -519 910 0
113 -868 814 0
784 -155 317 0
-677 -133 728 0
-933 -978 -134 0
-323 427 -965 0
334 -61 672 0
498 -583 768 0
789 -942 83 0
-458 -107 310 0
-790 -969 954 0
-82 225 -981 0
-434 701 118 0
-162 260 -471 0
-346 936 -871 0
-611 264 -895 0
-605 -933 -34 0
485 318 -885 0
-100 -735 650 0
-905 418 985 0
460 -280 -455 0
-707 941 -952 0
201 -625 -476 0
363 -757 684 0
-647 97 -78 0
-368 -661 978 0
-796 -228 -350 0
-128 -651 -487 0
-169 -13 -935 0
-952 -289 -777 0
-361 2 -957 0
259 -945 815 0
779 81 919 0
-829 -381 569 0
-179 313 816 0
903 514 -954 0
842 -975 -313 0
943 87 951 0
880 290 -445 0
960 778 -980 0
-975 20 136 0
-81 433 317 0
786 -123 -455 0
-736 886 -845 0
-437 -329 -195 0
-27 635 -705 0
485 -631 -219 0
-302 357 -752 0
-824 -188 -790 0
323 -102 599 0
501 -703 223 0
-58 -172 -671 0
964 653 -407 0
-708 473 -789 0
-587 -411 -834 0
469 -701 186 0
-924 173 992 0
-584 -197 -74 0
-935 647 -983 0
323 55 24 0
-151 638 -430 0
-822 -924 807 0
2 415 -297 0
14 329 43 0
-55 -325 -704 0
-750 -801 866 0
-672 -162 -392 0
-623 582 107 0
-371 561 -163 0
573 327 688 0
480 -65 645 0
-207 569 -864 0
413 241 452 0
940 165 -965 0
-70 -661 168 0
793 82 -461 0
880 34 280 0
-511 -965 413 0
209 -413 -454 0
-39 18 293 0
-564 212 -282 0
999 957 801 0
512 -989 -413 0
-185 27 720 0
660 871 952 0
-608 -209 -951 0
-153 -846 -894 0
333 -679 -147 0
620 -134 -312 0
692 150 -929 0
19 -878 -735 0
-2 845 100 0
646 244 759 0
380 919 -156 0
-985 -446 -267 0
552 456 -895 0
220 670 788 0
269 -424 702 0
439 752 -245 0
594 889 210 0
478 72 -395 0
-188 165 -713 0
-283 -781 -982 0
-319 -125 638 0
-934 -779 572 0
527 -490 -182 0
641 -320 391 0
899 -885 181 0
118 -850 -83 0
328 -790 -704 0
646 -315 -258 0
-837 -957 204 0
-693 -787 -23 0
-195 -904 -786 0
-249 -63 605 0
72 -379 -142 0
20 688 836 0
-871 -392 -433 0
-736 -760 336 0
274 -778 -859 0
475 917 -728 0
925 644 -390 0
635 602 10 0
-516 559 250 0
-171 428 982 0
-511 -135 -274 0
208 121 -337 0
-557 777 274 0
699 -958 -152 0
782 -403 554 0
831 -25 291 0
460 386 114 0
-969 937 721 0
64 15 425 0
317 -588 -795 0
-608 444 -223 0
327 403 629 0
588 136 -34 0
-213 148 466 0
495 183 -501 0
112 760 -358 0
-65 73 600 0
246 560 998 0
-590 972 -154 0
-855 -600 793 0
-185 671 721 0
790 -32 -16 0
378 803 -313 0
-490 -226 194 0
-920 858 4 0
994 -985 -888 0
-259 409 -669 0
878 -670 -561 0
226 893 814 0
745 213 -277 0
-613 566 -156 0
714 622 596 0
455 -382 580 0
-394 -858 598 0
730 191 -579 0
825 -239 -933 0
-368 -437 -266 0
337 -93 -262 0
129 -186 517 0
55 -977 478 0
-77 -637 -413 0
347 275 20 0
246 -755 -87 0
636 -236 551 0
770 899 -796 0
-685 731 -655 0
-660 254 898 0
-2 973 994 0
474 -720 -816 0
-756 577 641 0
492 425 -153 0
-859 457 -468 0
-612 10 8 0
382 984 -995 0
68 -846 -91 0
845 -331 -624 0
-780 696 -657 0
713 -296 657 0
169 -713 -598 0
678 -370 551 0
531 824 428 0
607 243 -49 0
-229 387 -175 0
53 -614 197 0
613 341 -693 0
-42 -236 -708 0
585 570 -680 0
747 758 56 0
-390 -627 273 0
-402 213 776 0
395 -574 78 0
-333 -776 -681 0
-119 722 918 0
87 -236 -130 0
-845 393 474 0
601 117 -423 0
667 -138 526 0
964 -985 496 0
590 817 -322 0
-558 -292 -865 0
-698 -925 275 0
706 978 429 0
402 -851 -770 0
-115 -306 -277 0
-153 888 270 0
-262 655 -399 0
-162 -373 127 0
163 -302 33 0
-642 -803 -505 0
-424 -191 517 0
-227 192 190 0
531 622 993 0
-325 926 -595 0
-55 302 999 0
321 702 562 0
924 606 -492 0
-1 874 -485 0
757 -14 -200 0
972 -75 745 0
843 74 692 0
194 438 94 0
-761 -811 859 0
-120 794 705 0
529 20 -938 0
182 716 -508 0
211 -913 -52 0
-837 171 -458 0
-194 70 460 0
852 -287 917 0
994 -287 522 0
-633 222 -84 0
712 -662 -659 0
-410 560 300 0
549 67 673 0
-841 -641 768 0
734 281 650 0
887 -764 -563 0
271 400 44 0
339 30 573 0
299 -15 717 0
585 -161 697 0
-701 -529 977 0
484 629 852 0
-395 226 953 0
-109 527 -915 0
338 -240 -356 0
560 483 -370 0
619 986 998 0
-557 375 837 0
-960 483 221 0
-136 -548 186 0
403 797 -644 0
-602 539 -312 0
287 -385 679 0
888 793 693 0
398 403 250 0
508 -427 353 0
469 231 225 0
-412 228 850 0
923 572 -523 0
189 798 -897 0
129 376 409 0
-362 361 -204 0
-244 -937 -744 0
887 419 -283 0
232 -426 -103 0
-649 250 -297 0
856 -760 671 0
-53 -166 26 0
257 426 -898 0
184 969 642 0
-976 861 -520 0
230 -241 644 0
-483 463 196 0
-484 -998 -56 0
-777 756 -327 0
502 -994 773 0
574 329 604 0
236 924 -673 0
787 -224 727 0
207 356 885 0
316 985 447 0
-770 211 190 0
330 -246 619 0
551 -755 -912 0
-80 149 -802 0
-97 444 -538 0
832 664 -65 0
-450 223 205 0
311 -934 659 0
-221 91 -763 0
446 680 -481 0
418 131 745 0
166 983 -66 0
-882 -147 -294 0
-39 -238 58 0
-771 955 915 0
-770 -693 -229 0
120 -823 -252 0
-231 754 681 0
-909 790 266 0
564 -691 -607 0
-144 -882 300 0
476 -160 882 0
-418 -751 -741 0
-139 367 714 0
22 -800 -182 0
265 300 610 0
-773 888 -615 0
374 -447 1 0
226 -201 -869 0
-879 -507 -269 0
-917 -471 195 0
523 878 669 0
612 515 -943 0
-228 -658 689 0
819 -600 -806 0
-781 859 606 0
-295 -520 -848 0
-690 341 240 0
-523 688 135 0
614 242 -534 0
-563 -739 -897 0
864 887 -602 0
738 900 -280 0
-683 452 304 0
-625 480 -693 0
907 -213 -198 0
-752 -722 897 0
575 672 483 0
-237 998 -291 0
-389 720 -751 0
-86 -26 791 0
938 221 728 0
446 -955 856 0
-673 338 296 0
-504 131 742 0
-51 -704 973 0
-168 -702 367 0
8 221 -263 0
142 -644 637 0
87 10 853 0
42 600 -170 0
630 345 -900 0
-328 481 -128 0
163 -492 959 0
-372 -756 -485 0
-995 950 646 0
883 960 -217 0
550 -45 -35 0
-6 198 794 0
691 755 -65 0
-958 -593 95 0
564 -274 -343 0
-286 175 -371 0
-696 -502 -334 0
148 -943 865 0
437 757 410 0
199 -532 -277 0
639 852 -362 0
901 -42 -230 0
-978 -542 -937 0
-307 402 991 0
-671 419 616 0
-92 436 -249 0
257 -755 61 0
17 -787 595 0
608 -481 39 0
-364 964 -618 0
553 762 -190 0
487 912 -851 0
456 478 -462 0
-787 -687 21 0
-776 -578 -697 0
716 812 -165 0
-469 -83 -234 0
680 -229 352 0
-40 -690 501 0
-308 -848 -740 0
-937 -160 794 0
-289 -109 -216 0
-435 570 770 0
812 -64 -58 0
-62 826 410 0
-874 72 221 0
-845 -758 -600 0
-572 -809 -161 0
-948 -769 161 0
73 128 833 0
-252 880 -570 0
909 -772 755 0
-193 565 -164 0
-982 764 -489 0
-831 361 145 0
-953 -541 165 0
387 563 -712 0
-870 592 -646 0
-95 453 -580 0
-635 929 -647 0
454 973 331 0
-485 175 -422 0
662 -663 512 0
-86 931 -243 0
-67 -876 -806 0
671 654 -647 0
967 -22 690 0
194 177 39 0
458 -987 -407 0
408 412 -840 0
-663 -329 895 0
995 -415 -571 0
129 -352 47 0
-304 -798 101 0
870 -522 -543 0
503 -372 -876 0
-886 -177 -341 0
626 204 -465 0
259 36 115 0
-61 -666 -484 0
543 518 -498 0
990 -881 417 0
264 -120 900 0
854 -32 -169 0
289 320 -859 0
-834 -232 -806 0
-550 -948 -159 0
-996 -790 -519 0
270 -455 757 0
-77 899 -337 0
-250 -4 -926 0
-419 -240 749 0
708 665 904 0
540 193 -176 0
759 -189 -72 0
-602 779 699 0
76 -243 201 0
-565 683 -550 0
-879 -945 315 0
38 -213 -4 0
-692 756 809 0
-602 -558 -190 0
-544 428 -841 0
-201 -18 -565 0
187 986 -670 0
-893 907 -870 0
-234 169 428 0
479 741 -643 0
860 -281 -141 0
653 913 745 0
-552 971 -418 0
-865 -363 392 0
-403 272 -363 0
-331 -791 -915 0
627 39 541 0
842 -308 -130 0
-527 359 511 0
164 -846 -933 0
814 214 -102 0
533 -603 -823 0
974 18 330 0
-602 424 807 0
-495 611 -601 0
776 -866 -90 0
-704 951 170 0
-651 -456 -355 0
-982 844 376 0
-469 217 235 0
93 501 -975 0
-426 -676 219 0
443 915 971 0
902 -691 -174 0
-124 -440 650 0
19 -863 -80 0
-367 -471 641 0
95 86 -630 0
-487 276 632 0
-182 -40 -659 0
372 645 669 0
-508 634 908 0
-159 651 260 0
663 891 -152 0
383 384 -152 0
447 -500 603 0
452 777 -906 0
773 102 -165 0
-264 -700 342 0
146 -709 -930 0
-222 -16 -631 0
-777 322 743 0
-566 -124 -559 0
613 -850 -745 0
204 -983 -333 0
-446 -543 -925 0
363 -984 -566 0
-313 -666 55 0
-515 -994 260 0
948 343 -135 0
770 -631 977 0
165 -236 147 0
591 228 -152 0
-201 -824 -764 0
-3 -811 -37 0
556 -7 -107 0
-450 615 -730 0
-814 231 884 0
80 611 -859 0
493 -68 -92 0
110 622 235 0
876 -495 186 0
411 -229 670 0
875 -432 863 0
233 -410 -45 0
573 -120 -582 0
19 373 727 0
455 824 -662 0
-961 -941 471 0
580 -631 385 0
-586 878 -712 0
133 -382 614 0
914 -312 223 0
858 258 -524 0
192 844 667 0
16 730 -947 0
574 139 464 0
501 -666 -796 0
251 -842 -722 0
3 423 735 0
149 279 -111 0
389 235 -707 0
-882 172 834 0
-955 -351 282 0
538 695 210 0
934 163 917 0
497 347 639 0
23 330 263 0
-434 -130 -44 0
103 707 -566 0
377 874 930 0
884 -774 -532 0
-325 -723 -46 0
-816 567 191 0
532 -967 -666 0
-242 955 -78 0
985 648 -308 0
999 398 228 0
-816 197 940 0
556 -785 -474 0
-75 -997 -355 0
-701 1000 291 0
-251 68 -38 0
190 86 491 0
68 -268 -541 0
103 -743 -913 0
-407 -661 399 0
-368 -623 -364 0
549 -31 440 0
-183 -867 -537 0
-666 -5 927 0
996 605 -161 0
-684 880 772 0
-320 147 -158 0
723 644 -492 0
690 229 343 0
512 -598 -328 0
867 -443 117 0
21 200 745 0
-865 -157 167 0
-36 368 404 0
405 -808 556 0
897 969 413 0
355 935 -733 0
-163 58 -304 0
730 174 661 0
548 -130 -722 0
-76 -530 -25 0
504 -349 -648 0
-416 -649 114 0
-452 -102 54 0
-870 -205 436 0
930 -684 377 0
340 978 -623 0
-391 11 -599 0
-13 -338 143 0
-985 448 -500 0
439 781 257 0
956 368 -143 0
676 971 975 0
-619 701 139 0
-374 -406 -249 0
-21 -667 -29 0
762 -53 -187 0
273 174 -654 0
404 830 74 0
977 966 -206 0
-758 926 -159 0
-781 -517 176 0
967 -832 661 0
311 -547 -492 0
53 -636 -625 0
549 -758 -644 0
83 -162 90 0
-271 -981 814 0
-467 -175 -606 0
-504 -138 977 0
898 82 695 0
-226 399 812 0
21 736 -998 0
-765 123 394 0
-485 113 114 0
-923 -189 644 0
-514 -619 557 0
159 -339 -200 0
-877 -957 71 0
224 230 729 0
-850 779 -105 0
749 487 -881 0
-136 -221 -469 0
-408 54 79 0
-149 902 456 0
445 844 995 0
474 4 484 0
643 -606 -506 0
817 897 -287 0
-598 141 -477 0
-980 427 171 0
238 349 270 0
454 -682 759 0
600 603 -549 0
-727 -979 -12 0
-802 -963 805 0
-300 783 899 0
332 743 973 0
-769 -321 545 0
675 -427 992 0
463 -322 403 0
199 50 519 0
-147 28 516 0
-516 772 711 0
-780 -239 151 0
-410 -990 659 0
-839 695 -391 0
866 245 -90 0
866 -633 764 0
-560 830 -835 0
592 -992 -986 0
238 -160 663 0
358 794 -519 0
252 21 702 0
-707 -149 -951 0
-289 -173 170 0
-194 -750 544 0
893 506 716 0
511 296 315 0
121 -573 -862 0
-923 222 -378 0
948 62 -535 0
-404 117 -201 0
-242 95 -145 0
-733 -77 -443 0
75 708 169 0
-101 -749 -346 0
374 295 675 0
100 -818 -517 0
803 -261 -41 0
-348 -328 -436 0
626 500 467 0
944 581 -731 0
-105 797 301 0
-439 -965 -440 0
400 3 678 0
-565 -863 -169 0
-735 373 781 0
-224 761 -74 0
46 194 -211 0
-546 -817 -500 0
-265 -192 832 0
-665 934 950 0
-7 234 706 0
-987 975 -930 0
-768 -983 -968 0
-744 142 546 0
-332 -380 754 0
207 481 196 0
228 378 -821 0
-156 -666 -898 0
829 -208 840 0
221 -233 624 0
930 838 -65 0
123 -449 538 0
-251 -244 -211 0
390 -139 154 0
-116 245 -340 0
-364 -3 -780 0
-94 -95 -586 0
513 821 -53 0
-844 402 -87 0
-123 526 -597 0
127 975 -566 0
-626 -354 148 0
338 603 -408 0
-617 462 831 0
-358 342 941 0
-150 985 618 0
-844 -377 -570 0
-800 135 478 0
-117 112 342 0
-989 80 -664 0
409 67 400 0
344 -548 281 0
855 652 1000 0
-183 686 -262 0
483 825 -251 0
-892 -260 -637 0
180 -636 289 0
-407 -630 -521 0
-114 585 863 0
44 148 -938 0
-201 -370 -725 0
874 -691 370 0
-994 467 -286 0
-206 111 -260 0
822 -31 -230 0
508 -34 -943 0
690 -539 512 0
-449 24 -832 0
-694 -454 310 0
-411 -297 -339 0
588 382 751 0
691 230 224 0
76 79 -357 0
906 -8 -48 0
362 134 -47 0
-732 881 891 0
-162 633 479 0
149 921 -408 0
-194 946 -595 0
-134 316 -886 0
-833 11 351 0
988 333 647 0
-169 -155 -551 0
-369 952 -320 0
589 -900 -103 0
-101 140 -249 0
221 -729 -280 0
732 -145 -51 0
808 183 -115 0
-80 176 844 0
-448 477 -580 0
855 172 -154 0
100 388 758 0
91 209 904 0
-395 468 -497 0
-339 -763 252 0
853 -132 -932 0
896 283 -432 0
452 -408 -828 0
-201 -483 881 0
925 -320 208 0
313 -351 -537 0
-974 339 896 0
-22 836 -544 0
-767 133 438 0
645 224 -4 0
-716 432 314 0
962 -162 -263 0
757 -929 298 0
-137 506 -104 0
-960 243 530 0
-215 200 559 0
527 580 747 0
-932 -188 551 0
85 864 22 0
-328 493 -740 0
-507 384 316 0
816 217 -763 0
12 639 966 0
615 -795 721 0
-72 886 -932 0
-937 60 225 0
-625 -538 -160 0
96 293 706 0
-117 -790 -417 0
870 -314 -616 0
-356 -47 -315 0
-345 269 -500 0
-47 319 20 0
-509 985 -604 0
-295 725 -6 0
12 -461 224 0
144 -63 124 0
626 298 -301 0
-833 380 -810 0
822 -75 509 0
462 -568 328 0
288 -642 87 0
-490 180 772 0
-792 906 115 0
-42 -106 -401 0
188 614 -102 0
-624 690 -558 0
667 787 794 0
70 -358 224 0
606 207 -521 0
628 900 789 0
-821 -925 505 0
-841 -955 157 0
-183 -262 -981 0
541 -138 689 0
-971 987 855 0
47 658 484 0
-910 145 50 0
-987 -209 140 0
262 -420 -871 0
-755 543 -691 0
-942 -84 859 0
353 479 235 0
-837 -697 -290 0
158 991 702 0
667 921 652 0
926 -6 393 0
601 401 640 0
904 -233 -855 0
660 -686 -87 0
-48 -135 -192 0
-219 192 738 0
892 -858 543 0
582 -58 859 0
-345 -726 -110 0
-896 148 -53 0
-781 -665 -431 0
-909 -984 397 0
181 907 -297 0
778 112 -947 0
136 -423 866 0
-896 -547 73 0
-859 -405 -109 0
319 660 908 0
786 -991 60 0
992 -11 -414 0
920 759 -561 0
951 318 745 0
-555 714 65 0
-592 953 371 0
553 -470 538 0
-76 1000 -353 0
809 -659 269 0
-625 940 949 0
83 494 -3 0
680 -390 314 0
267 -253 773 0
709 340 654 0
-775 -604 -770 0
-380 -734 -664 0
-533 801 68 0
-764 -163 -940 0
-617 -424 96 0
-219 264 -351 0
-345 -430 -721 0
-802 -525 -885 0
-81 -979 125 0
-600 -842 937 0
699 208 -962 0
788 -209 927 0
-275 -859 -796 0
-160 -520 -770 0
913 47 -957 0
685 456 -783 0
-74 -777 -984 0
-834 -368 -816 0
-15 103 -754 0
469 736 -678 0
659 254 693 0
-710 -803 -829 0
953 905 -622 0
188 -850 -6 0
910 283 -80 0
931 408 780 0
668 -716 -137 0
-478 -341 206 0
686 551 -423 0
950 180 -719 0
-662 -394 -279 0
-977 710 418 0
257 -249 86 0
752 -248 -488 0
41 805 970 0
-31 10 713 0
-101 266 -326 0
495 711 807 0
925 -985 604 0
438 491 -195 0
-7 119 -17 0
425 658 -978 0
-418 -203 -302 0
-803 -89 215 0
-216 732 -309 0
-497 -548 -21 0
469 987 587 0
273 -846 947 0
-546 -34 -501 0
521 341 245 0
-568 336 -594 0
-278 239 539 0
-129 780 -572 0
-928 -482 -328 0
266 599 723 0
-683 918 226 0
-378 643 -886 0
-919 297 -319 0
195 967 68 0
587 901 -1000 0
-241 -448 252 0
-803 -428 -874 0
840 -681 317 0
134 164 -513 0
211 581 -960 0
192 -260 -176 0
-299 -211 -797 0
673 148 242 0
984 -73 208 0
-547 -125 375 0
-999 -649 -37 0
-925 605 -400 0
-563 -792 334 0
-450 -10 117 0
-780 -390 -793 0
-234 -550 -974 0
-976 662 -380 0
153 416 -387 0
-583 -14 -426 0
432 -570 159 0
121 -897 378 0
53 -928 370 0
618 -218 974 0
-685 856 -552 0
426 22 429 0
937 -464 312 0
-124 -666 -936 0
-496 270 -263 0
-940 212 813 0
355 -154 65 0
526 937 245 0
-178 411 634 0
43 -197 896 0
-649 -193 -76 0
-189 64 -787 0
964 -76 -726 0
-434 -803 -321 0
487 430 -226 0
890 -662 221 0
734 -456 -119 0
-201 -930 -329 0
-927 605 -514 0
188 187 484 0
475 876 821 0
308 -409 -590 0
407 767 -543 0
-499 919 -316 0
993 -544 671 0
-983 -181 -865 0
63 237 238 0
27 -898 -795 0
720 710 -707 0
967 -474 860 0
904 729 117 0
659 591 -898 0
-756 -104 -777 0
-821 805 -997 0
966 633 -299 0
794 -938 -781 0
-40 16 569 0
234 -357 328 0
887 -866 -194 0
-919 751 -774 0
158 -887 737 0
-405 -964 -318 0
400 -491 -230 0
165 980 119 0
161 207 786 0
561 -701 696 0
-2 850 952 0
-502 889 -101 0
-833 987 187 0
-451 196 -514 0
-714 -579 -485 0
-308 773 -605 0
-261 565 528 0
842 -390 207 0
202 913 -854 0
767 747 -647 0
27 665 173 0
-706 -392 -113 0
545 -628 -582 0
-552 -579 -927 0
151 224 -2 0
561 555 -199 0
-676 -569 -756 0
332 -404 -693 0
-732 871 911 0
122 -744 822 0
-993 -100 799 0
-636 419 -774 0
-370 -240 -885 0
-24 -882 703 0
366 -394 764 0
-694 -57 343 0
394 731 478 0
-405 350 918 0
518 926 148 0
-471 -904 839 0
13 500 945 0
-462 62 604 0
43 553 858 0
376 -228 522 0
-980 -184 493 0
837 203 740 0
-662 -759 605 0
716 -745 -481 0
996 -711 518 0
-954 -573 -195 0
-962 867 -247 0
597 795 423 0
-59 -314 452 0
-853 159 -266 0
-3 390 -772 0
714 -607 812 0
574 -691 -583 0
-865 -262 -808 0
941 -201 -244 0
879 -119 213 0
846 730 -752 0
961 -591 414 0
-966 -539 809 0
-581 -138 431 0
-274 -366 181 0
162 -268 226 0
235 -663 768 0
-141 -429 390 0
651 18 818 0
-653 600 926 0
-136 135 -172 0
29 659 574 0
-682 852 -679 0
676 -758 -312 0
484 951 -850 0
199 89 984 0
454 516 -91 0
157 962 169 0
481 786 992 0
392 -768 62 0
974 652 -850 0
-617 577 678 0
-954 -288 -419 0
-952 266 580 0
-662 907 29 0
-349 441 996 0
-344 24 718 0
584 473 252 0
551 397 5 0
530 539 291 0
418 859 975 0
147 -370 866 0
61 157 824 0
894 -205 -429 0
-710 567 563 0
468 304 -506 0
479 790 988 0
-986 -267 726 0
619 58 -692 0
116 -503 -773 0
-102 -207 -396 0
104 466 254 0
-695 818 627 0
-76 593 907 0
739 211 521 0
219 -597 -770 0
646 154 -804 0
-774 953 791 0
917 576 512 0
124 -567 53 0
-419 697 127 0
910 -213 -456 0
-375 678 -739 0
-481 -123 -485 0
854 -530 30 0
-266 895 -69 0
153 375 -509 0
-917 -590 -226 0
-89 -528 533 0
-721 408 30 0
-986 490 -547 0
784 -770 883 0
-561 -135 832 0
-1000 213 -679 0
-64 97 -272 0
-535 -527 -392 0
-370 -249 696 0
402 -755 928 0
-56 973 -85 0
772 789 617 0
794 674 -595 0
255 -751 598 0
327 -259 567 0
419 -468 -132 0
719 136 582 0
804 -190 102 0
-184 -926 350 0
-371 -110 -24 0
835 -167 516 0
-764 439 61 0
314 -623 -479 0
254 -845 -117 0
955 -513 831 0
-851 -577 59 0
-968 -415 -799 0
-107 -911 578 0
-617 521 410 0
-77 -591 286 0
480 477 -772 0
588 999 124 0
840 22 -283 0
406 45 103 0
-211 804 712 0
-768 449 -889 0
-3 644 795 0
-150 -294 750 0
-516 -104 -618 0
-894 344 507 0
-333 496 857 0
564 -296 694 0
38 795 -582 0
267 360 528 0
358 201 -113 0
221 94 -164 0
-97 925 -650 0
725 656 -472 0
166 49 -928 0
-896 930 1000 0
909 515 -961 0
-245 653 -907 0
-699 -343 -25 0
-508 -412 707 0
-216 -7 -923 0
-162 -146 -133 0
244 -935 240 0
-944 -918 980 0
844 155 -144 0
-877 991 694 0
77 385 13 0
780 497 -678 0
19 669 536 0
848 -369 -462 0
165 902 -150 0
-273 -844 -262 0
-252 167 -928 0
238 -933 -234 0
869 -226 283 0
-85 -964 862 0
-936 -228 -691 0
942 -956 -831 0
280 489 352 0
933 223 230 0
-237 3 585 0
-350 905 918 0
-364 774 -363 0
-381 62 671 0
115 -1 -928 0
-836 -903 876 0
-70 -377 539 0
95 860 -226 0
-513 965 -56 0
-650 -252 -355 0
482 -966 -51 0
84 -400 -334 0
167 445 -123 0
-201 591 -852 0
-778 554 626 0
-136 -837 901 0
372 368 863 0
-833 179 564 0
227 72 -693 0
765 775 -643 0
565 -646 689 0
-88 -717 587 0
-701 129 477 0
-9 -434 329 0
-921 -60 894 0
982 414 -66 0
476 956 820 0
717 872 -207 0
-187 -168 682 0
455 -480 932 0
176 150 288 0
-830 168 -153 0
-136 446 343 0
-145 -619 -254 0
-908 401 697 0
-797 320 -303 0
-608 487 -132 0
594 20 494 0
-237 -942 -655 0
603 583 -282 0
785 774 217 0
-351 -310 851 0
-523 -367 23 0
397 835 232 0
-990 -314 831 0
-986 -685 -380 0
881 264 480 0
850 939 923 0
-149 -511 -56 0
344 508 -374 0
-66 -562 110 0
325 -990 -140 0
-755 -450 -119 0
-842 605 -333 0
156 -971 245 0
-136 933 204 0
-303 -481 -499 0
-640 520 -737 0
280 573 -726 0
321 -102 -849 0
-409 -132 3 0
169 620 -466 0
-540 -38 -117 0
-585 -57 -632 0
183 -57 -757 0
-511 -319 907 0
257 -881 77 0
-961 -52 798 0
-362 -953 583 0
54 595 -467 0
-986 965 -72 0
19 -54 985 0
-473 -141 -11 0
-336 -291 -144 0
-202 -502 921 0
250 -739 821 0
-716 208 846 0
-118 287 -832 0
985 -426 957 0
-444 952 62 0
-199 655 95 0
-579 235 117 0
-150 931 -845 0
-60 878 -26 0
677 -395 -908 0
-668 88 620 0
589 -260 -563 0
-793 190 -664 0
-226 214 -248 0
-702 -569 -794 0
514 648 -968 0
-585 904 18 0
165 995 -647 0
591 910 418 0
-49 11 341 0
-897 -726 610 0
449 -25 842 0
917 -419 186 0
-977 67 631 0
-100 -782 712 0
-5 -573 867 0
560 241 -130 0
735 944 -801 0
-843 862 301 0
20 -196 -316 0
-356 -815 -454 0
373 -227 -758 0
-815 456 -919 0
-936 -373 -902 0
637 -992 288 0
899 882 -740 0
872 -406 759 0
755 108 646 0
614 -259 474 0
-10 -966 -534 0
834 -227 -669 0
-190 321 327 0
73 699 -495 0
243 -366 -508 0
-389 -778 -471 0
364 438 -852 0
-844 -99 598 0
-312 38 789 0
-31 -924 932 0
-811 612 -334 0
662 304 580 0
-792 688 -70 0
23 730 -22 0
292 665 314 0
215 -678 974 0
-542 6 -316 0
-712 392 149 0
530 -265 979 0
-512 710 44 0
-2 135 295 0
-596 -801 815 0
837 -279 -955 0
-821 -778 524 0
-204 650 518 0
785 -857 -499 0
-497 863 113 0
488 939 873 0
-226 -173 -419 0
-431 -104 -347 0
-133 333 -539 0
-420 -601 494 0
-231 68 541 0
399 652 -143 0
79 652 603 0
-498 -94 -308 0
509 843 790 0
-255 -896 454 0
-776 -704 -650 0
685 794 561 0
-761 738 661 0
501 800 512 0
507 -35 791 0
-429 -362 -349 0
-974 -137 480 0
97 425 -956 0
-824 -968 175 0
-471 798 148 0
777 619 834 0
133 -879 664 0
-765 40 -649 0
190 323 67 0
-258 -59 -502 0
581 -884 -128 0
470 936 -756 0
998 131 -83 0
-664 -599 141 0
846 193 242 0
-273 -407 897 0
-181 679 -500 0
-318 499 732 0
470 339 -479 0
446 -857 -616 0
-161 -62 -874 0
-240 -414 -283 0
-230 -954 -596 0
-817 -795 -364 0
-393 -376 -249 0
-110 -148 -190 0
750 711 -716 0
-870 618 454 0
434 -392 876 0
-560 -505 698 0
949 -302 843 0
-723 284 299 0
597 490 12 0
994 -603 940 0
426 964 445 0
-569 364 -26 0
-738 510 430 0
-991 32 48 0
895 -433 -305 0
828 771 49 0
677 -48 736 0
917 -587 -96 0
-393 -991 520 0
307 -118 154 0
81 210 639 0
786 -852 -241 0
-617 934 786 0
-420 -485 -349 0
389 695 -607 0
878 551 -452 0
-804 227 -902 0
386 -499 -449 0
587 188 -471 0
-636 -800 920 0
928 80 31 0
-167 745 996 0
-563 -678 -247 0
-619 377 334 0
975 523 -277 0
672 126 -545 0
133 582 408 0
-817 -223 165 0
-628 83 -452 0
-742 767 -579 0
550 21 328 0
598 317 -125 0
737 219 505 0
-986 -288 233 0
366 765 968 0
-235 -181 -105 0
721 796 -52 0
899 450 385 0
343 -385 -872 0
-648 -824 -716 0
-158 833 486 0
851 -990 -901 0
-977 806 -443 0
652 142 -366 0
396 980 -977 0
785 852 659 0
-215 873 101 0
-45 84 -686 0
902 575 -456 0
800 -842 -706 0
-375 16 -937 0
-775 629 672 0
415 -921 256 0
6 279 -984 0
-378 222 -30 0
291 406 747 0
-444 -352 187 0
-830 -57 463 0
953 -78 748 0
-436 178 -761 0
308 -816 -667 0
-683 354 -569 0
-895 -882 -679 0
-292 941 256 0
-55 422 777 0
-739 -217 -272 0
115 837 -888 0
-72 730 624 0
141 161 -481 0
-998 -493 -360 0
-480 723 -460 0
428 218 -852 0
743 30 922 0
799 1000 -587 0
518 744 -914 0
54 269 303 0
44 -750 -444 0
479 -605 -79 0
676 392 -550 0
-590 -662 944 0
-38 -998 679 0
-84 350 735 0
-638 918 -712 0
745 -589 -89 0
-915 -737 -419 0
-982 -306 299 0
-651 -973 -450 0
-159 525 -539 0
-977 435 604 0
-836 132 -227 0
722 770 124 0
776 -219 -774 0
-3 926 695 0
-511 636 -227 0
-642 -190 539 0
-627 775 -721 0
-913 78 690 0
5 -355 -66 0
-441 893 665 0
129 61 615 0
-570 430 475 0
-374 -650 452 0
-344 340 581 0
-232 178 -470 0
-684 -381 313 0
-378 -766 -571 0
206 -156 237 0
758 -921 -716 0
-879 743 -611 0
420 487 755 0
-786 -173 828 0
387 -112 -249 0
433 -243 579 0
94 679 -374 0
-184 -52 -925 0
-514 -893 63 0
995 464 -139 0
-764 -65 -813 0
82 9 -180 0
197 405 -766 0
246 -35 224 0
-727 78 -158 0
105 -827 160 0
542 958 574 0
-439 -186 838 0
930 856 699 0
-49 -823 989 0
-502 583 199 0
23 84 521 0
220 -52 -759 0
967 773 -673 0
-336 -661 213 0
715 -691 872 0
357 -921 -796 0
-678 -782 600 0
-427 -312 -194 0
-111 562 -710 0
-687 -622 -457 0
32 -56 -317 0
-467 -427 -64 0
-762 724 322 0
26 533 636 0
764 -661 -534 0
-104 -144 -950 0
-640 -245 -981 0
-579 726 586 0
945 -44 30 0
844 531 665 0
564 -349 995 0
524 934 290 0
-157 -643 -269 0
382 -806 408 0
466 198 67 0
-823 428 652 0
-159 360 -48 0
748 674 -531 0
-760 172 -29 0
853 -874 -159 0
922 -776 121 0
-576 -394 944 0
184 77 -378 0
992 793 -89 0
-107 604 -367 0
584 27 906 0
-607 410 927 0
-480 -638 -249 0
309 -736 12 0
357 848 606 0
694 -306 908 0
-532 -25 12 0
-503 486 -707 0
568 -328 275 0
-102 78 -222 0
982 -491 -295 0
-206 402 669 0
-748 703 741 0
308 -708 91 0
620 211 -63 0
673 -941 -44 0
-777 -334 482 0
-547 -788 -890 0
-692 297 504 0
668 713 -415 0
-188 664 -333 0
-941 -253 -141 0
-494 53 446 0
15 497 379 0
588 -776 -785 0
685 31 -316 0
190 -694 -535 0
646 -42 -683 0
-639 595 52 0
776 375 981 0
-759 -6 700 0
-846 -793 -154 0
-661 -339 603 0
-664 -402 -965 0
625 892 -105 0
-292 134 804 0
82 -349 -319 0
-523 -485 889 0
-767 795 -628 0
442 485 828 0
-125 291 601 0
-514 970 206 0
-501 740 -436 0
386 -198 -830 0
-415 303 -641 0
342 929 648 0
-896 -541 276 0
528 -791 -918 0
894 -168 -911 0
785 325 -988 0
674 -475 101 0
586 -490 -707 0
-945 -72 -244 0
-176 73 -299 0
598 85 -49 0
-63 -15 10 0
879 617 -951 0
-132 452 858 0
260 457 -709 0
-34 -791 732 0
22 -705 -268 0
-941 -147 10 0
-149 -125 877 0
-78 20 -228 0
-238 -780 641 0
149 562 45 0
-565 -630 920 0
-906 653 29 0
-10 -821 -124 0
-210 -896 787 0
152 -518 -979 0
905 -419 638 0
519 -566 -939 0
381 708 845 0
496 946 372 0
-186 273 752 0
-394 -983 -297 0
152 670 -734 0
-958 753 -678 0
656 20 501 0
-713 478 -75 0
203 -920 -296 0
386 303 -583 0
270 226 736 0
-6 230 -692 0
-571 -195 70 0
-231 -943 177 0
118 584 -749 0
-559 -140 -893 0
-782 991 124 0
702 -681 -138 0
612 181 310 0
-276 726 25 0
-681 105 -647 0
78 836 -219 0
252 -609 -749 0
683 911 329 0
465 964 885 0
739 511 280 0
-60 -21 991 0
-732 -908 -843 0
428 -546 238 0
-900 -38 842 0
-276 414 -320 0
-510 -150 380 0
-425 39 -525 0
312 -992 -775 0
-922 457 156 0
-169 287 739 0
-255 664 -412 0
605 -754 243 0
-37 -634 602 0
72 951 -395 0
-607 326 375 0
99 -287 -493 0
-64 -417 -631 0
-453 507 252 0
529 -407 -459 0
-957 -690 457 0
337 951 62 0
-224 -936 -978 0
-595 -844 -909 0
-256 -703 -632 0
361 -378 644 0
298 -784 -835 0
949 -965 987 0
671 -821 830 0
827 648 -730 0
-119 637 829 0
-465 -706 253 0
944 325 -732 0
-311 486 -102 0
-132 207 -744 0
455 615 -747 0
-273 335 646 0
-11 689 657 0
776 -288 825 0
58 286 -326 0
29 853 715 0
-923 -61 -168 0
-853 613 315 0
-459 803 742 0
-407 74 665 0
-172 -569 -662 0
-849 -88 146 0
801 462 472 0
-39 -909 313 0
-730 -84 -206 0
-112 -922 -727 0
-393 -429 114 0
-291 -167 -732 0
-237 -206 808 0
475 -981 -854 0
293 -510 -448 0
-854 -786 194 0
94 -633 190 0
674 643 -166 0
886 -525 205 0
-326 490 -571 0
555 968 971 0
-672 750 160 0
2 -541 -947 0
-92 -796 -332 0
-870 25 -921 0
267 -287 -702 0
-502 181 835 0
716 -604 -213 0
-155 852 104 0
841 898 -804 0
-468 -581 -247 0
-537 460 357 0
-862 59 -54 0
-485 -154 142 0
-535 976 294 0
-764 -848 -644 0
-176 -858 895 0
296 -500 -474 0
113 -842 638 0
-388 964 -997 0
-802 -200 -461 0
572 194 -974 0
-606 -185 -18 0
855 965 -293 0
-450 536 69 0
-408 752 -153 0
186 -773 194 0
-91 422 341 0
-796 226 -253 0
-91 459 668 0
587 -949 -226 0
208 475 -189 0
863 -536 552 0
-115 534 600 0
-665 280 828 0
-438 -266 236 0
562 -276 139 0
919 -813 367 0
-748 -322 183 0
-361 278 546 0
-780 299 222 0
-387 281 327 0
940 -396 246 0
599 30 -551 0
892 -478 554 0
-531 858 -128 0
-164 328 463 0
66 7 -99 0
529 45 695 0
-903 -369 -462 0
300 50 -572 0
-564 220 -499 0
819 879 696 0
-319 758 -211 0
-494 663 662 0
300 -839 -101 0
-566 -758 -185 0
-451 248 360 0
-261 -327 198 0
-87 -945 282 0
584 123 491 0
673 -201 430 0
650 -315 267 0
204 -371 443 0
-381 676 -531 0
857 778 -132 0
775 464 31 0
-196 149 377 0
135 173 -339 0
804 574 -717 0
-130 -174 -517 0
-91 181 -847 0
1000 -613 911 0
11 -107 298 0
-692 -131 -506 0
-432 510 886 0
-427 387 -600 0
962 -32 -178 0
-160 -491 -79 0
-588 -993 -675 0
425 -99 108 0
-716 -748 -775 0
429 960 245 0
-647 -63 -602 0
-306 36 -478 0
-950 241 144 0
608 -62 -100 0
-942 304 663 0
-624 19 -260 0
411 -187 353 0
343 981 -958 0
-361 513 -97 0
-484 454 -1 0
-619 -594 -84 0
-970 -827 -893 0
206 810 -269 0
3 -313 564 0
855 633 -379 0
-255 -95 717 0
655 649 -825 0
305 285 555 0
140 -885 -458 0
-607 73 10 0
-623 -655 228 0
-591 -102 730 0
250 693 -13 0
861 694 451 0
-559 445 -568 0
582 765 296 0
276 78 130 0
-305 -769 -684 0
-622 799 -56 0
-287 281 -503 0
-728 807 155 0
296 -812 186 0
-272 -842 979 0
426 -57 595 0
-426 -257 407 0
-839 -815 -167 0
-415 -730 -532 0
-197 24 -428 0
425 -524 -43 0
515 37 669 0
336 -963 -353 0
947 -225 151 0
897 777 197 0
