p cnf 1000 4650
996 -724 -348 0
-233 891 938 0
71 -494 201 0
-559 863 -78 0
-77 -447 496 0
982 -285 -547 0
-621 -893 186 0
-520 -407 -51 0
-57 -227 -177 0
-95 763 497 0
304 -52 260 0
-732 642 104 0
742 573 550 0
402 -631 -146 0
-796 -655 -999 0
307 527 -423 0
-705 790 -937 0
-387 312 261 0
673 -314 219 0
272 185 311 0
525 316 520 0
-571 616 928 0
994 -627 157 0
-156 -355 -699 0
-181 180 -291 0
-203 889 -896 0
-377 671 237 0
-315 352 388 0
661 -853 722 0
315 720 961 0
-714 -274 906 0
-140 320 -339 0
544 -92 581 0
-111 -217 78 0
-836 -412 -815 0
569 -139 452 0
-647 -310 488 0
853 222 -693 0
-109 856 -683 0
930 -543 -777 0
270 92 -604 0
-900 -208 561 0
-18 480 -981 0
179 -929 -171 0
-772 -49 778 0
125 340 -194 0
-437 31 697 0
29 -961 350 0
350 465 677 0
-615 764 -602 0
392 197 633 0
-951 405 330 0
-940 -96 995 0
-430 484 -452 0
-19 904 672 0
-54 -63 -893 0
-413 37 807 0
915 -893 310 0
-277 206 195 0
-760 291 25 0
-794 271 35 0
676 -943 609 0
-815 -36 69 0
215 -864 735 0
911 871 -463 0
322 -112 -800 0
-481 206 -11 0
512 -196 953 0
-97 238 -772 0
704 -65 -891 0
-983 -592 494 0
-299 810 -435 0
661 367 811 0
-623 -145 -947 0
-84 -875 336 0
334 -301 695 0
955 824 -930 0
858 207 -622 0
-40 -433 277 0
-39 -176 222 0
-755 -143 117 0
-389 -556 -50 0
-67 386 -957 0
478 127 927 0
-40 -999 -318 0
-323 -61 -300 0
-818 -872 -790 0
931 -138 -25 0
-401 -127 391 0
-15 -627 -285 0
-616 491 -916 0
-113 866 -235 0
-999 -261 202 0
-948 59 -150 0
197 -724 554 0
26 154 572 0
-684 -632 993 0
-928 -681 -644 0
-622 148 -277 0
-315 -83 -755 0
198 -175 853 0
-829 -695 94 0
-35 -57 724 0
120 -28 -629 0
27 -263 486 0
-356 25 402 0
267 -983 -491 0
-869 -608 -64 0
382 -427 114 0
271 295 -211 0
-245 -257 165 0
-692 235 732 0
-222 928 225 0
212 -727 951 0
196 148 573 0
606 -51 -933 0
-328 -555 30 0
567 852 -662 0
315 225 -748 0
167 162 466 0
454 -874 647 0
960 -236 -965 0
978 -96 -293 0
348 716 574 0
996 562 640 0
998 -312 521 0
107 -950 751 0
131 942 813 0
815 603 -14 0
-773 851 -892 0
721 769 -696 0
960 284 -685 0
-87 359 9 0
219 212 -780 0
-215 -357 721 0
340 -568 757 0
-588 -437 -750 0
992 699 -400 0
459 -223 156 0
-837 -472 669 0
950 -881 542 0
803 -864 877 0
283 -830 700 0
-283 -384 441 0
-415 -683 -789 0
237 -688 -774 0
919 967 465 0
975 698 427 0
732 -721 -150 0
421 -200 562 0
-47 402 997 0
-416 -608 -961 0
-818 -673 -196 0
324 957 -429 0
-258 896 918 0
62 -217 840 0
-332 10 -931 0
459 -818 -265 0
570 883 918 0
-802 111 744 0
499 204 -839 0
611 -852 -871 0
-229 68 -83 0
-676 867 -337 0
-602 504 842 0
-279 -303 298 0
-529 611 146 0
-836 -854 -170 0
824 918 -970 0
474 693 -127 0
-175 -810 -194 0
-59 -454 503 0
-645 128 739 0
72 -74 858 0
326 -327 420 0
-524 726 -50 0
-310 211 -914 0
381 127 -843 0
235 -912 -311 0
613 -197 497 0
-702 -527 338 0
846 -430 -437 0
559 -335 964 0
-521 679 -188 0
990 -754 156 0
-730 -273 438 0
-188 241 460 0
-180 774 790 0
754 490 888 0
-87 -255 -582 0
214 233 -39 0
493 -634 65 0
-968 543 42 0
-714 -290 -666 0
-754 -153 -372 0
-404 -341 -39 0
171 -267 -489 0
-826 -866 -968 0
-939 630 -450 0
558 -210 443 0
-161 -17 -587 0
882 919 183 0
-140 -290 260 0
919 522 -408 0
-999 575 -761 0
648 524 -694 0
-905 -307 -631 0
451 -741 192 0
-453 -616 -523 0
-31 396 264 0
-383 -504 -815 0
473 -27 496 0
784 66 424 0
369 105 -5 0
-440 -464 968 0
391 63 -327 0
14 -930 -858 0
-894 443 -668 0
677 577 -110 0
-697 577 -877 0
-171 995 -456 0
-249 641 312 0
446 -588 359 0
51 -466 2 0
-363 665 -897 0
935 -693 290 0
347 970 -616 0
866 567 528 0
941 -29 -860 0
-783 32 535 0
-471 -417 -688 0
163 -594 -809 0
-352 538 479 0
-682 -362 -131 0
913 602 -836 0
76 -649 -456 0
-284 445 -354 0
541 -953 -805 0
-151 -491 -281 0
-953 -433 69 0
-632 -844 -390 0
887 390 253 0
-394 -123 290 0
-877 -398 208 0
855 -28 555 0
780 -845 910 0
499 -656 130 0
-928 -575 538 0
609 116 -35 0
-187 -767 293 0
234 -561 -917 0
986 -645 -49 0
755 956 -709 0
-579 776 -19 0
951 819 -297 0
-775 681 -773 0
999 697 -878 0
784 64 -866 0
-211 -955 630 0
454 772 -911 0
786 -475 -701 0
-272 564 905 0
-762 128 -559 0
-622 3 -276 0
89 374 -665 0
480 -925 -541 0
-113 807 -248 0
739 299 150 0
-780 -179 440 0
360 874 -24 0
61 -45 -265 0
51 -931 -536 0
928 -914 -429 0
-749 -320 -97 0
-53 -17 -362 0
-590 -233 -159 0
-159 447 321 0
574 -644 -393 0
-517 376 797 0
350 560 390 0
-82 -933 -922 0
55 -457 628 0
555 -22 -951 0
318 -992 -348 0
-277 777 -981 0
620 665 519 0
-395 -896 675 0
-625 123 -107 0
256 -122 6 0
-265 465 -836 0
918 -692 922 0
251 833 501 0
11 -439 -263 0
331 474 701 0
31 434 -24 0
71 304 -885 0
-810 402 -946 0
739 -887 -286 0
-572 417 -231 0
-519 529 965 0
-356 -776 -97 0
622 632 805 0
633 -949 -678 0
-407 290 -671 0
-989 354 891 0
-177 830 -418 0
774 -380 -32 0
-647 280 -460 0
-897 10 -49 0
-984 -301 367 0
239 4 148 0
522 -805 -490 0
503 -625 -734 0
975 890 96 0
-430 749 911 0
-135 -941 11 0
77 644 -92 0
-407 291 765 0
220 520 716 0
-885 -148 -934 0
-684 591 903 0
-39 -235 48 0
457 568 28 0
-838 737 -895 0
920 745 -783 0
203 -140 -445 0
-274 820 670 0
-987 731 -249 0
-475 -772 -702 0
311 991 -763 0
-91 -318 848 0
824 171 -883 0
432 -39 -772 0
-751 771 774 0
930 -32 423 0
-462 -116 -393 0
-250 786 899 0
-784 -502 -172 0
-18 29 963 0
101 -750 -768 0
55 116 -132 0
380 176 -969 0
-327 -261 200 0
555 -67 -235 0
172 -731 -337 0
-500 838 950 0
767 20 428 0
599 -739 204 0
-705 427 251 0
-356 -620 887 0
-439 -380 314 0
496 -612 478 0
601 -543 955 0
-600 -667 54 0
697 737 312 0
658 526 -266 0
-684 -669 -665 0
271 962 381 0
-70 -558 963 0
905 -426 811 0
241 70 -956 0
-17 -662 966 0
90 -627 -193 0
-323 -835 595 0
582 -963 -652 0
-734 123 359 0
-270 831 745 0
-205 56 -647 0
-717 605 -664 0
674 -752 155 0
-861 186 -499 0
220 389 426 0
734 -236 401 0
-696 -45 -65 0
-852 -715 -332 0
904 -609 -163 0
286 -231 315 0
-116 -381 -263 0
-803 -924 141 0
740 503 -456 0
-290 830 930 0
354 -385 553 0
-383 950 73 0
714 638 -531 0
222 157 -700 0
-958 871 -677 0
-255 946 464 0
-557 120 789 0
-14 -577 -540 0
-49 -32 461 0
-353 -399 706 0
441 133 91 0
-825 -732 152 0
386 -762 38 0
-397 -395 -11 0
-247 -584 644 0
368 177 401 0
-91 596 276 0
754 -696 -309 0
-127 -469 390 0
136 -196 -646 0
985 509 990 0
10 387 276 0
704 188 879 0
-635 559 201 0
-804 215 823 0
-70 783 125 0
-430 -643 -97 0
-697 -190 -733 0
639 894 -65 0
-26 713 55 0
-230 620 -24 0
-695 -853 -1000 0
838 -924 997 0
760 -59 -881 0
279 242 376 0
-802 -442 718 0
-935 -560 679 0
-873 2 380 0
461 827 667 0
-963 -432 -742 0
-639 -352 -245 0
815 295 -921 0
-379 553 698 0
467 908 413 0
-270 247 484 0
-219 -792 38 0
-643 934 871 0
131 -354 -724 0
520 -458 829 0
-150 -515 710 0
633 219 -781 0
-229 -900 770 0
-823 329 35 0
-845 152 -902 0
-91 342 -531 0
-112 814 13 0
-572 -94 528 0
404 -75 -785 0
734 114 -943 0
550 318 258 0
-857 -213 -624 0
454 -91 -449 0
949 492 53 0
137 -677 -391 0
367 840 -296 0
790 481 -54 0
-721 -396 -152 0
360 851 -994 0
520 613 89 0
741 132 -999 0
-917 166 827 0
643 442 819 0
-533 -890 623 0
461 536 684 0
-987 -988 -883 0
565 -59 356 0
-641 544 -906 0
834 -357 625 0
-688 41 83 0
220 193 531 0
-100 -901 909 0
-84 58 214 0
-818 -627 -388 0
-412 -598 -695 0
-524 212 71 0
821 -286 -228 0
542 916 449 0
-452 949 -903 0
-294 402 600 0
-782 37 -152 0
-410 210 60 0
263 -741 325 0
21 706 -614 0
-210 -474 958 0
-574 -128 -625 0
353 -416 -274 0
945 -64 128 0
316 531 136 0
-547 -608 -80 0
808 -874 344 0
800 851 488 0
-392 -417 -99 0
-869 -252 -269 0
-733 151 951 0
-462 -658 211 0
-779 431 -375 0
-521 730 -503 0
538 -764 -168 0
28 886 -41 0
-958 925 56 0
-195 -894 604 0
-74 695 98 0
-705 -507 993 0
106 -372 709 0
-804 -16 739 0
-984 -845 592 0
-769 -476 605 0
883 291 -314 0
-570 317 -532 0
-913 815 -434 0
-80 839 -78 0
439 175 234 0
37 -682 325 0
-646 -303 55 0
-817 -798 13 0
450 -186 872 0
-696 -247 660 0
368 -214 990 0
808 -811 -170 0
738 59 967 0
329 -964 -649 0
-808 -698 189 0
98 -515 -428 0
403 444 -813 0
248 -268 -659 0
322 -206 -706 0
-921 -722 -415 0
404 -249 185 0
456 -383 -262 0
529 -788 -612 0
-315 -978 -207 0
-1 4 -795 0
-528 726 -331 0
779 601 -955 0
-550 -285 -520 0
230 -724 -97 0
863 -635 104 0
-547 309 287 0
584 346 -509 0
-318 -997 -251 0
145 -849 -383 0
-864 863 -398 0
4 -549 586 0
766 999 845 0
978 660 103 0
-20 -969 354 0
156 -538 -75 0
-963 403 -393 0
401 738 233 0
-891 253 -380 0
-724 220 -736 0
-121 -106 811 0
389 395 692 0
385 -601 800 0
-418 756 239 0
-586 93 -797 0
290 88 -216 0
59 994 -331 0
-900 927 -272 0
-188 -254 403 0
-73 431 -466 0
140 526 -462 0
333 458 910 0
964 415 938 0
392 -872 -814 0
610 55 -596 0
994 -16 -79 0
421 -634 -504 0
-340 -23 -596 0
-928 -783 40 0
112 -89 -17 0
-802 618 -33 0
-552 148 800 0
-460 233 871 0
-193 963 617 0
984 -264 -521 0
42 -193 -302 0
-507 251 -524 0
-44 -815 982 0
681 489 775 0
587 501 153 0
-599 -949 754 0
539 -491 -947 0
456 452 -588 0
-879 9 -274 0
-980 -182 -393 0
-221 -85 512 0
-38 153 -975 0
494 966 -195 0
624 -507 542 0
-180 -212 -685 0
277 -20 -788 0
-377 -700 821 0
837 622 16 0
772 416 128 0
-540 995 -219 0
-591 -971 407 0
-105 258 -544 0
879 513 -880 0
-765 318 -204 0
980 617 702 0
412 -132 -237 0
714 -687 368 0
904 130 -484 0
993 -84 -883 0
-23 788 -748 0
-919 -869 -118 0
-281 167 -809 0
7 -536 -606 0
-373 -793 -702 0
776 -910 244 0
-179 193 -419 0
-475 477 -408 0
489 206 -643 0
155 741 973 0
-209 816 904 0
642 515 -902 0
-207 362 -94 0
193 -709 -273 0
797 718 -294 0
259 -575 237 0
230 -537 -580 0
924 791 602 0
-538 228 697 0
470 -255 610 0
-420 -629 -401 0
-352 -510 -24 0
53 -273 406 0
250 495 847 0
-809 -783 -347 0
-536 -414 756 0
908 -659 -487 0
572 287 -85 0
714 -20 89 0
-720 39 763 0
-375 -981 464 0
606 -2 -308 0
-290 -329 766 0
-450 -686 886 0
-818 448 -829 0
593 191 -673 0
321 -979 330 0
87 -193 394 0
719 -220 320 0
743 119 -200 0
953 -727 -249 0
-454 400 715 0
941 -568 -57 0
-836 -301 615 0
-491 356 996 0
-646 992 -489 0
-971 -49 -406 0
154 22 946 0
-915 979 -398 0
-277 923 -268 0
687 334 -317 0
-708 401 835 0
-973 144 -242 0
725 -91 -786 0
-447 -689 167 0
-252 670 664 0
356 288 -483 0
365 -844 -76 0
-538 266 453 0
-301 -982 -690 0
-433 -739 -95 0
228 842 952 0
-614 262 -491 0
-884 638 504 0
275 905 -140 0
-797 -800 -613 0
-43 -604 -324 0
-701 580 657 0
497 -141 76 0
-831 -126 -580 0
-946 -45 233 0
194 809 -893 0
-552 652 -237 0
993 -128 -196 0
-960 959 684 0
-139 -501 -675 0
-870 929 -786 0
555 183 -90 0
512 754 961 0
338 -100 299 0
-56 -145 -639 0
-655 816 -522 0
-551 140 -735 0
524 543 170 0
975 5 389 0
-759 -377 -886 0
960 165 -133 0
355 -251 -880 0
39 674 -914 0
-968 294 583 0
200 117 -429 0
-901 -21 -912 0
456 444 603 0
867 49 -378 0
848 712 -340 0
-962 226 -347 0
648 101 -443 0
676 -923 -392 0
138 182 -963 0
470 15 67 0
863 46 643 0
-600 -31 -834 0
137 353 -723 0
-697 -689 -408 0
618 55 673 0
-44 -570 695 0
-839 -844 -840 0
269 322 -20 0
785 5 652 0
21 817 522 0
739 -556 -876 0
207 -337 565 0
259 -823 666 0
950 152 -734 0
-387 -969 56 0
-11 -897 -320 0
665 144 -714 0
308 658 472 0
-428 377 -343 0
781 -798 -779 0
111 -865 -400 0
-39 596 -539 0
963 559 -463 0
146 781 -689 0
-475 -102 456 0
561 -252 970 0
550 619 394 0
-350 -315 -257 0
-682 -703 -281 0
-643 -81 945 0
-126 68 -627 0
-384 -848 -918 0
933 -8 -390 0
445 615 733 0
-972 -679 32 0
415 -688 839 0
415 646 733 0
-533 389 -847 0
-38 161 931 0
83 951 -851 0
921 418 642 0
266 -611 197 0
697 334 -158 0
-499 -487 400 0
869 983 250 0
169 122 -928 0
-803 719 -54 0
-156 212 990 0
-392 -646 -187 0
139 493 913 0
326 969 195 0
-208 968 -231 0
848 -318 576 0
-72 990 531 0
305 -139 -513 0
676 -645 -464 0
-968 436 -319 0
-635 886 308 0
872 -86 -129 0
-16 -843 925 0
398 717 -798 0
-660 -771 -946 0
-20 -192 778 0
-904 771 561 0
-829 -287 411 0
-809 991 915 0
-93 -597 -920 0
-289 451 -188 0
-658 523 -961 0
158 181 423 0
93 -30 -6 0
563 882 966 0
787 -664 -1 0
-803 999 789 0
90 763 496 0
410 460 -636 0
581 -461 -969 0
135 498 18 0
-649 -258 714 0
-208 -363 -334 0
-325 859 125 0
830 -784 918 0
-204 758 -635 0
806 -981 -166 0
573 964 760 0
934 143 171 0
-919 -676 -786 0
-509 68 -283 0
339 -886 -275 0
733 -221 -5 0
-696 -605 -211 0
771 -518 -206 0
952 927 -911 0
-349 -998 -514 0
-727 -703 -217 0
280 -327 -399 0
33 -760 441 0
452 981 533 0
-52 688 -430 0
-962 127 399 0
442 348 -494 0
-713 -42 -818 0
-3 -220 374 0
822 876 -964 0
-653 -429 -410 0
335 469 -483 0
-885 707 -726 0
685 920 -218 0
375 618 476 0
486 473 568 0
-412 926 -523 0
857 43 -830 0
-748 -70 -821 0
-413 23 8 0
69 -807 -521 0
-56 -757 96 0
-306 32 -259 0
192 -185 -505 0
669 216 -162 0
793 547 839 0
118 583 730 0
-961 376 709 0
-40 354 79 0
601 728 -536 0
-921 -375 -104 0
110 -541 -138 0
-567 574 228 0
-143 -281 53 0
220 -348 -154 0
831 813 -794 0
661 114 -779 0
674 804 13 0
-444 292 903 0
541 -819 -278 0
685 -840 -844 0
891 -529 -851 0
865 -212 -345 0
121 -757 135 0
557 -741 450 0
592 -580 -196 0
338 -713 -313 0
-743 338 364 0
-761 -272 -144 0
842 -579 32 0
-426 -981 -30 0
-101 865 -758 0
735 332 546 0
-565 -196 148 0
339 690 302 0
708 868 312 0
912 851 617 0
-508 108 -950 0
41 -338 -201 0
-568 -623 55 0
-648 378 552 0
735 -798 456 0
-66 620 -914 0
-255 429 -468 0
-883 744 356 0
225 -765 -192 0
896 -158 -356 0
-934 228 416 0
513 -151 -465 0
95 -798 528 0
261 490 837 0
748 970 -539 0
305 -581 912 0
-354 203 -93 0
999 -457 613 0
-174 -316 639 0
230 966 -576 0
-574 310 809 0
-320 -377 220 0
853 -32 -554 0
646 -553 -62 0
-159 -736 -83 0
-544 160 -519 0
-344 -420 43 0
729 429 214 0
-531 456 -848 0
259 507 -811 0
884 -239 692 0
-761 204 779 0
207 239 -284 0
-357 440 610 0
797 -93 944 0
58 648 -702 0
-15 -419 -994 0
191 10 -523 0
-936 25 -485 0
-196 -683 -247 0
-99 183 630 0
408 -367 433 0
-36 554 13 0
937 736 536 0
763 305 85 0
-590 -425 106 0
60 47 -421 0
-539 531 -503 0
-408 259 -423 0
249 -412 72 0
-622 -701 -346 0
376 635 -318 0
616 731 -613 0
-615 574 -556 0
-551 -249 -538 0
351 -247 -440 0
806 553 -488 0
-183 400 125 0
-987 -533 -570 0
512 -877 -845 0
-688 -122 -826 0
-994 -862 -351 0
-129 500 468 0
797 -369 580 0
-746 639 427 0
-13 274 408 0
15 -507 44 0
546 766 641 0
-380 726 783 0
524 492 206 0
-138 -342 707 0
-361 -643 -882 0
616 -426 857 0
-660 -852 840 0
-281 917 -516 0
41 -599 -405 0
768 556 491 0
777 -626 952 0
404 -240 784 0
280 -242 -376 0
-888 -34 877 0
875 471 959 0
583 792 182 0
-779 989 322 0
-204 -72 -620 0
544 550 -43 0
362 -421 40 0
-887 648 846 0
271 502 115 0
928 -227 596 0
636 -954 730 0
246 -930 -95 0
-10 -531 862 0
-883 -754 608 0
813 -590 40 0
-320 -712 -635 0
-554 264 -273 0
-614 473 939 0
-966 174 579 0
-766 4 694 0
269 870 769 0
14 244 814 0
-451 168 -985 0
459 -37 383 0
229 867 601 0
637 -76 -900 0
-908 -441 475 0
215 799 240 0
-723 -329 -96 0
711 -32 415 0
-645 -754 768 0
-387 682 117 0
-936 629 -452 0
-833 -456 623 0
-528 -316 158 0
385 -499 467 0
277 -705 -930 0
907 -292 349 0
40 -723 -522 0
854 -865 -347 0
-902 -505 547 0
786 666 -720 0
-224 715 -807 0
851 671 -902 0
-800 586 -78 0
-334 -872 224 0
-961 326 -746 0
-994 -924 -499 0
83 354 -697 0
-521 365 -771 0
-356 292 579 0
844 -165 493 0
-831 -975 -257 0
-156 -183 595 0
935 582 -268 0
-39 -286 -803 0
-116 -604 986 0
71 -335 -712 0
86 944 971 0
816 271 688 0
675 527 -986 0
331 -590 637 0
666 552 -461 0
819 -654 -545 0
-569 325 -4 0
609 285 -353 0
212 203 -118 0
-590 -586 582 0
-755 -197 262 0
25 783 -829 0
290 -973 -228 0
-497 -785 117 0
-79 -590 -74 0
693 -918 -808 0
573 668 -673 0
-142 521 -803 0
128 -323 568 0
792 475 -96 0
3 738 -617 0
437 854 -362 0
143 -880 -575 0
-244 -428 -194 0
-65 -752 955 0
564 -941 -926 0
-573 -688 -370 0
151 -373 651 0
-35 -239 648 0
-535 217 16 0
-349 988 935 0
-55 829 696 0
915 -686 596 0
-940 -10 -221 0
597 -35 8 0
-362 -258 -908 0
-454 -690 611 0
563 -512 593 0
-602 174 353 0
608 -736 857 0
-244 -128 -101 0
-293 747 -556 0
934 -855 -699 0
-180 -620 -443 0
-837 -70 227 0
-145 -945 575 0
623 482 -58 0
-744 -914 195 0
18 -38 -23 0
910 -204 262 0
-722 -599 -617 0
417 -152 -614 0
828 -318 968 0
211 -418 148 0
827 668 -440 0
-444 -690 233 0
90 -739 634 0
968 920 -257 0
903 467 895 0
146 -692 338 0
-136 -760 328 0
-341 -336 -497 0
-748 675 -488 0
-600 807 960 0
-976 -668 463 0
490 -629 69 0
-413 731 410 0
-871 232 -812 0
530 -965 -301 0
573 -516 910 0
-469 806 612 0
-585 783 419 0
951 868 -19 0
561 6 368 0
-459 512 442 0
97 -874 -428 0
-133 998 30 0
-39 -459 628 0
-169 -3 -625 0
-859 341 -837 0
278 926 -524 0
102 -113 835 0
-509 -978 -981 0
680 33 195 0
-207 818 -469 0
371 -308 276 0
485 -559 -280 0
547 -278 231 0
989 19 447 0
451 -347 998 0
191 783 663 0
829 -483 944 0
313 -254 1000 0
-894 967 930 0
-369 -875 -708 0
664 933 -77 0
-371 -649 -854 0
438 -565 -637 0
335 613 -510 0
793 -765 -155 0
-553 -263 162 0
779 -871 -112 0
-952 841 -279 0
-856 626 -340 0
809 -709 -383 0
28 -770 106 0
3 356 822 0
714 789 -974 0
891 564 -476 0
-991 -169 717 0
-679 -178 -30 0
790 241 65 0
-914 -545 848 0
-21 -487 -966 0
258 889 -851 0
792 323 -960 0
433 -278 -372 0
431 101 790 0
489 -727 423 0
957 699 -173 0
-950 -414 43 0
-311 415 -286 0
508 -930 935 0
-418 -428 -239 0
791 -925 -560 0
-172 463 -280 0
419 932 604 0
896 541 66 0
-772 -9 -719 0
963 -958 215 0
238 951 984 0
-348 204 -928 0
-746 25 655 0
819 167 -269 0
228 189 517 0
-553 -484 -950 0
-964 -259 -43 0
195 704 773 0
-506 412 837 0
44 -285 -724 0
153 717 14 0
953 -131 -804 0
942 623 978 0
669 830 849 0
344 142 -228 0
815 59 -742 0
353 210 881 0
-364 -497 619 0
-871 -766 -28 0
-200 -217 922 0
-233 44 -525 0
1 -756 881 0
44 743 -763 0
673 -92 949 0
-856 100 746 0
-513 38 27 0
-390 -113 996 0
-987 -696 580 0
-898 -196 747 0
225 -53 -870 0
796 -239 414 0
775 611 -624 0
-3 -723 -381 0
727 -171 -801 0
124 254 635 0
-182 394 -792 0
-296 541 394 0
-457 479 -950 0
169 -753 101 0
-49 -394 265 0
-997 145 221 0
369 -389 -801 0
-171 539 -7 0
640 -804 -96 0
-459 -414 365 0
934 481 267 0
-646 487 393 0
221 234 613 0
-936 933 -974 0
-871 70 326 0
910 869 846 0
-299 890 308 0
568 442 248 0
217 643 -414 0
-474 -345 290 0
-332 656 709 0
-382 -525 365 0
-442 251 -818 0
-129 811 -7 0
548 -635 -1 0
962 -980 -598 0
653 133 403 0
-548 169 215 0
479 748 558 0
-963 -292 241 0
-426 519 966 0
558 851 576 0
197 421 731 0
680 503 -809 0
437 253 586 0
660 89 365 0
-235 188 -662 0
396 751 990 0
829 -245 622 0
699 -839 541 0
-477 -391 955 0
-121 148 230 0
-405 94 130 0
-650 -782 812 0
280 254 534 0
-651 874 -341 0
-511 -598 -36 0
-487 360 -257 0
-694 -263 -288 0
581 374 287 0
38 -530 93 0
424 -752 -536 0
304 -445 -551 0
-581 -315 -676 0
-564 -24 -938 0
-386 473 119 0
884 -73 212 0
-122 819 506 0
157 -608 950 0
-378 376 -958 0
227 147 527 0
71 -902 -521 0
-111 -359 449 0
946 92 -826 0
920 346 -398 0
504 350 778 0
-727 -701 537 0
-557 686 -103 0
986 543 -239 0
-34 -390 -938 0
-330 -157 -289 0
-719 187 948 0
-645 -974 503 0
44 694 -965 0
-276 -424 690 0
378 894 447 0
213 -603 -496 0
169 265 98 0
482 -737 -443 0
998 765 -922 0
814 -110 603 0
620 608 924 0
-670 428 352 0
558 309 -769 0
115 -123 -34 0
706 93 832 0
621 510 174 0
760 -209 -497 0
636 -705 324 0
-800 -383 -434 0
313 -200 709 0
-56 71 932 0
-874 -9 942 0
895 -181 -876 0
594 -954 844 0
645 626 -205 0
-78 474 907 0
550 -573 -488 0
-225 -20 -911 0
943 -67 992 0
-322 -107 475 0
182 902 -88 0
306 -378 -12 0
679 744 230 0
478 966 -589 0
-865 119 -968 0
-544 760 -305 0
227 -490 -965 0
641 599 752 0
-447 -479 380 0
-376 -401 202 0
349 -60 196 0
708 -201 -851 0
52 617 -75 0
-946 739 149 0
-157 394 -164 0
633 -144 -765 0
-223 377 -325 0
728 -345 -279 0
-355 782 -626 0
-769 211 -92 0
-636 -420 -464 0
-235 228 533 0
-906 -196 -993 0
-55 604 -659 0
-642 235 -120 0
-236 -875 -417 0
476 562 -505 0
391 861 -848 0
-437 458 -277 0
-889 -947 -708 0
308 26 607 0
-819 848 -146 0
-609 658 -241 0
-608 -495 204 0
-460 589 -637 0
742 -928 654 0
465 107 628 0
312 659 455 0
385 -723 -229 0
131 -794 -714 0
535 678 -627 0
27 350 -370 0
-673 960 -564 0
95 128 996 0
43 -431 314 0
450 91 475 0
614 877 625 0
-776 646 8 0
918 297 865 0
866 -591 -961 0
-29 -444 -296 0
-457 -839 -424 0
824 -9 -292 0
613 -601 985 0
-75 -385 -134 0
-890 567 -465 0
-488 -159 -413 0
-721 684 -440 0
-79 229 909 0
594 -789 -292 0
66 902 -349 0
785 -75 717 0
-940 -668 977 0
597 899 123 0
-43 320 714 0
-98 911 -34 0
356 676 333 0
924 943 -185 0
193 -636 -930 0
94 530 -471 0
-397 398 -502 0
723 765 550 0
-26 -833 233 0
378 -889 47 0
-856 -810 91 0
370 -213 -873 0
80 826 -655 0
-867 -49 -650 0
-743 -998 -3 0
-735 -171 837 0
686 340 -214 0
290 -563 970 0
-621 883 574 0
523 826 899 0
943 968 584 0
652 -982 466 0
-668 121 -65 0
424 -224 48 0
-802 402 -518 0
-714 -995 253 0
-288 -113 551 0
-248 716 911 0
24 -262 683 0
-826 630 -231 0
2 72 729 0
-211 546 570 0
449 750 -801 0
-24 341 363 0
-439 -426 737 0
-405 -24 -934 0
380 -782 126 0
460 86 305 0
-852 -252 997 0
207 79 -716 0
-159 790 521 0
888 -94 -229 0
569 -729 945 0
746 -19 463 0
845 -804 565 0
-412 688 176 0
442 318 -733 0
2 521 181 0
-938 708 -720 0
-907 831 -113 0
-511 438 -569 0
-772 -700 226 0
-316 -227 414 0
827 -935 485 0
-616 146 340 0
-443 -934 -600 0
-811 -378 211 0
-502 -858 -969 0
23 -879 402 0
707 -171 290 0
-412 612 73 0
302 -901 313 0
416 -586 551 0
2 -518 -847 0
-373 -471 -451 0
865 -119 -402 0
-770 731 16 0
-640 140 -445 0
-268 -193 884 0
-330 -847 352 0
-122 -829 611 0
904 599 923 0
-327 -118 -231 0
-182 79 -69 0
687 212 680 0
842 275 -695 0
551 762 844 0
-940 443 -52 0
247 499 127 0
-960 -188 -262 0
-649 128 -386 0
181 84 -971 0
71 161 705 0
216 -199 -665 0
-143 270 996 0
875 576 500 0
182 274 257 0
-130 -200 140 0
8 -194 -154 0
5 -666 942 0
-853 -333 -224 0
614 743 220 0
664 -904 905 0
-387 601 -797 0
847 805 -1000 0
-243 355 970 0
-418 830 300 0
-608 -771 -373 0
346 -774 -722 0
-315 -779 631 0
922 -248 -682 0
-811 -781 166 0
853 -427 -372 0
-144 756 961 0
-86 846 184 0
985 784 260 0
909 -741 -576 0
456 -880 690 0
-825 336 -851 0
-24 698 -68 0
-568 -136 629 0
-347 103 -947 0
839 853 -2 0
265 624 484 0
479 -781 177 0
98 189 -806 0
-425 -25 -447 0
-933 -82 -918 0
-360 -514 -589 0
-21 179 -57 0
-16 -706 -910 0
-822 -605 650 0
-53 -66 -415 0
-867 570 391 0
246 -650 785 0
-593 869 543 0
863 -635 -843 0
88 -990 932 0
810 -408 -242 0
-256 -553 -619 0
-507 -450 742 0
331 -24 -431 0
671 -194 -145 0
485 -891 -480 0
-909 -346 250 0
-586 430 -462 0
-829 453 -342 0
-73 10 914 0
-669 -579 -877 0
-260 -659 337 0
-958 -147 339 0
703 -645 719 0
-546 570 -162 0
212 -991 -958 0
-602 -443 831 0
-29 -727 442 0
-963 -655 -10 0
882 -219 278 0
583 875 123 0
802 -667 334 0
-850 -135 -382 0
865 167 -10 0
-124 499 794 0
528 775 -611 0
-440 -484 -682 0
767 -464 -357 0
-170 495 23 0
231 -89 417 0
-871 -806 -904 0
503 308 608 0
-483 -781 564 0
-101 -557 409 0
516 363 -965 0
-213 -461 910 0
-323 704 -894 0
351 319 -562 0
73 720 -126 0
984 917 -757 0
-246 -319 -450 0
-917 886 132 0
407 -975 40 0
-107 -869 606 0
-209 -384 -255 0
-150 -686 442 0
33 -824 -425 0
258 44 814 0
777 -841 492 0
708 -415 21 0
984 -43 800 0
675 -46 -565 0
95 -202 -715 0
-788 209 917 0
-821 -940 -322 0
-285 -695 636 0
-643 -56 562 0
-380 -217 583 0
-198 -267 -412 0
-769 953 652 0
-65 182 -218 0
-950 193 485 0
834 673 -978 0
-129 -580 4 0
444 709 672 0
-316 94 -792 0
453 -495 543 0
989 177 -359 0
33 352 -138 0
591 177 -452 0
-250 -712 -393 0
-980 245 56 0
-255 825 -351 0
-144 -252 -96 0
648 -176 432 0
-208 38 -251 0
871 523 116 0
395 -897 29 0
-417 -800 -650 0
-558 772 166 0
812 -400 409 0
-292 339 838 0
265 -991 26 0
884 273 733 0
290 -481 978 0
-109 482 -452 0
414 680 37 0
-955 -190 830 0
550 -326 -980 0
641 -966 845 0
499 69 -855 0
-985 -406 812 0
-294 -827 -345 0
4 886 642 0
-207 123 -976 0
-500 566 -71 0
-644 -607 -660 0
-13 858 -893 0
746 459 -310 0
654 763 602 0
398 852 -270 0
823 56 510 0
860 -604 730 0
-931 868 537 0
201 -855 444 0
96 -120 282 0
-647 -128 -177 0
-356 -21 50 0
-343 -700 -22 0
-354 868 757 0
191 94 -577 0
294 -102 -385 0
511 316 -191 0
-679 -26 882 0
936 95 910 0
959 274 345 0
739 421 -899 0
-349 -612 -148 0
-580 93 -896 0
411 -538 -556 0
133 352 816 0
295 -195 997 0
140 276 -72 0
286 884 -992 0
587 698 270 0
-667 -152 539 0
220 165 927 0
-570 -167 -728 0
-269 599 510 0
-365 842 -832 0
-400 -746 300 0
-835 109 342 0
457 -626 -61 0
-91 527 -662 0
-121 -547 222 0
-953 209 779 0
-468 913 951 0
429 -475 1000 0
-254 139 -733 0
-629 208 338 0
120 -224 630 0
469 170 437 0
366 81 -42 0
408 1 419 0
606 535 778 0
899 618 -956 0
-659 -453 -271 0
-782 -156 -995 0
-622 689 410 0
210 236 697 0
-335 -410 812 0
10 -583 28 0
-337 -815 89 0
542 -878 -701 0
-142 -106 -857 0
84 -686 -107 0
159 199 669 0
-109 384 982 0
-287 -274 -534 0
-998 516 -923 0
-857 894 -882 0
-211 881 314 0
-51 747 -887 0
723 -617 104 0
385 90 818 0
386 711 -325 0
-65 -380 367 0
484 163 -555 0
-118 84 694 0
-914 394 -234 0
382 178 290 0
69 -958 768 0
-148 497 -785 0
981 -244 531 0
-763 782 591 0
548 -280 162 0
-231 -41 591 0
-499 696 83 0
-582 169 248 0
301 712 -427 0
-538 -56 631 0
372 208 9 0
589 -286 220 0
-947 -962 -48 0
-462 -85 861 0
-188 262 684 0
842 -700 -878 0
648 -560 336 0
-971 244 -767 0
724 -424 -921 0
-649 421 -886 0
685 -950 -92 0
628 424 -239 0
633 -634 196 0
309 429 -914 0
132 -248 -419 0
61 -136 -834 0
506 -661 -115 0
233 -152 865 0
627 -994 655 0
-613 -193 876 0
-433 141 -996 0
643 -758 -131 0
969 -581 852 0
613 947 653 0
-119 -507 -919 0
280 -807 564 0
992 29 -193 0
-930 -675 624 0
613 -466 -55 0
-300 -803 -368 0
-170 511 -439 0
-458 -357 988 0
623 -325 -430 0
-974 -874 980 0
261 -743 634 0
-887 213 -639 0
-494 384 -552 0
740 616 -911 0
-694 -216 553 0
-316 -539 -925 0
-730 240 -408 0
92 200 -462 0
425 606 691 0
-795 145 -414 0
606 75 22 0
-75 73 -439 0
-83 294 -442 0
-350 653 432 0
-36 -187 -156 0
-110 -209 -205 0
455 918 -68 0
-900 469 -661 0
848 -211 -723 0
-366 785 378 0
-816 485 -935 0
106 -677 -943 0
813 77 -2 0
892 -976 610 0
-843 779 -93 0
-579 675 -644 0
435 -550 -783 0
-768 -828 -792 0
656 -224 -655 0
564 961 857 0
490 295 301 0
858 618 -960 0
590 -443 96 0
-630 -208 516 0
412 -157 751 0
-155 -637 -321 0
155 219 -325 0
-148 -307 600 0
-525 -553 85 0
-824 795 369 0
-105 515 -677 0
639 554 -286 0
948 884 375 0
931 -519 503 0
-684 -571 553 0
526 889 -773 0
-952 211 150 0
226 -489 782 0
992 -629 -698 0
-88 -910 -174 0
-782 378 -585 0
254 -965 -824 0
359 -6 -610 0
-120 733 137 0
-802 -143 791 0
-100 -499 -266 0
953 -832 -334 0
-571 75 286 0
580 -740 37 0
-79 -140 -781 0
-586 598 455 0
698 796 -800 0
-481 -792 752 0
240 -84 932 0
-338 786 98 0
-725 797 -79 0
741 -98 555 0
-788 -419 -615 0
-334 919 43 0
-778 -161 -180 0
542 -459 622 0
-324 914 208 0
-546 -258 -14 0
-503 292 -449 0
995 -659 549 0
461 935 -550 0
332 987 -467 0
-49 452 631 0
-916 133 949 0
220 718 323 0
-458 -923 139 0
285 -314 390 0
507 -427 -112 0
15 -360 746 0
-322 32 983 0
-773 -308 -962 0
-806 779 711 0
-345 -745 -481 0
-724 749 -571 0
-843 538 383 0
-710 -280 275 0
-10 -725 250 0
889 -844 32 0
-79 595 862 0
-63 -174 -597 0
-891 -747 327 0
-562 911 966 0
728 -326 -826 0
-341 -601 -411 0
-528 682 316 0
289 208 -688 0
-429 896 -22 0
110 -741 -734 0
-633 290 -849 0
585 -567 798 0
104 -852 626 0
-324 552 403 0
171 73 -995 0
-944 -274 968 0
292 770 -855 0
657 -512 -614 0
457 396 -257 0
651 54 -764 0
-963 712 -121 0
734 178 -797 0
644 -443 609 0
-992 -364 926 0
-147 524 435 0
959 289 -137 0
933 690 351 0
-613 -706 -409 0
-73 -438 187 0
856 279 604 0
518 163 512 0
-534 -198 -878 0
-842 758 15 0
873 756 788 0
238 614 81 0
206 883 644 0
-145 201 220 0
-212 -249 -571 0
336 688 970 0
-95 -442 -242 0
354 118 -598 0
-796 44 -177 0
491 -66 101 0
-228 -885 -377 0
870 -934 707 0
-220 539 843 0
784 -485 750 0
955 -689 -811 0
-936 954 868 0
-961 -744 -480 0
-342 765 564 0
452 -103 259 0
-477 12 834 0
396 -78 -582 0
620 688 -773 0
105 331 -530 0
-891 -423 -160 0
-719 -443 910 0
679 307 -501 0
467 45 845 0
-300 468 338 0
-211 -951 -245 0
-212 778 -873 0
842 52 -918 0
-597 -388 184 0
-460 281 513 0
774 -78 -664 0
204 -692 583 0
678 -927 767 0
206 -335 654 0
195 -160 -499 0
-943 -354 -368 0
322 -615 880 0
-443 282 -567 0
-256 -700 870 0
972 -959 -559 0
848 898 -861 0
-691 -206 966 0
340 527 339 0
845 355 789 0
248 934 -341 0
-142 -607 32 0
535 536 715 0
738 873 -813 0
-539 -600 -382 0
-116 940 172 0
195 -855 41 0
858 3 -801 0
733 -925 -230 0
805 -172 -100 0
154 -806 -440 0
902 699 -492 0
165 720 -186 0
279 -327 -37 0
65 -312 234 0
158 226 -102 0
-211 -381 -551 0
-791 -96 771 0
-917 449 183 0
533 -129 752 0
-341 218 906 0
371 229 120 0
-408 956 515 0
-683 680 229 0
769 -486 -836 0
-809 -171 82 0
-227 263 -143 0
-496 -636 495 0
54 -828 566 0
758 -649 -632 0
671 -687 -89 0
22 -412 -218 0
-177 -449 334 0
107 -923 -982 0
-425 -540 -802 0
-650 -58 431 0
-78 -965 -280 0
-619 349 -221 0
732 -65 -748 0
279 162 628 0
-389 -724 8 0
-134 84 -682 0
546 19 782 0
-21 92 494 0
-366 -847 271 0
-770 -161 32 0
-941 -956 996 0
668 -228 788 0
7 596 782 0
141 -62 -805 0
173 682 313 0
507 297 -138 0
988 330 -503 0
778 70 934 0
-382 454 -444 0
891 354 -559 0
-819 25 -686 0
949 888 -233 0
521 -828 -883 0
216 821 567 0
345 808 397 0
401 505 910 0
-784 -146 29 0
-113 627 -758 0
899 534 -636 0
-163 174 770 0
-32 584 -546 0
-37 621 -769 0
-475 -861 356 0
243 791 -194 0
628 -431 -880 0
183 -343 490 0
74 -953 -523 0
106 156 -706 0
476 563 290 0
-154 -945 194 0
379 164 327 0
-19 -239 -903 0
-5 664 -461 0
959 -883 -293 0
-614 890 -906 0
-907 -992 -410 0
-114 -303 66 0
-266 -877 452 0
99 -495 -127 0
717 -589 327 0
35 545 692 0
177 -237 247 0
901 -910 -353 0
-233 -837 -68 0
-200 -863 -806 0
266 -525 -161 0
850 454 -706 0
670 -532 329 0
777 67 798 0
472 386 847 0
984 -289 397 0
713 892 402 0
913 117 -343 0
532 659 393 0
-708 117 -432 0
-975 -747 -974 0
-562 350 -622 0
-781 -870 911 0
420 -386 -680 0
445 -205 -490 0
56 -395 -596 0
875 152 -513 0
298 252 -170 0
-785 -735 -177 0
-317 629 779 0
184 -176 -435 0
552 649 593 0
-107 -797 -878 0
400 974 432 0
868 -677 -129 0
817 839 -724 0
-687 -841 795 0
-45 833 -905 0
786 940 572 0
-600 -640 -174 0
772 -861 -21 0
-281 324 629 0
606 -113 609 0
-208 -984 -911 0
90 -571 -448 0
-503 510 -687 0
-258 979 -260 0
486 -846 660 0
128 170 -67 0
-469 -317 -676 0
-47 365 -366 0
623 276 133 0
-78 -837 235 0
516 485 -395 0
224 -16 -446 0
-520 232 -402 0
-619 679 -164 0
45 -211 489 0
-193 -150 -52 0
-689 -804 -683 0
844 -142 -213 0
577 -644 -378 0
-990 473 413 0
121 942 -258 0
-406 134 963 0
-202 -983 841 0
492 489 350 0
-731 504 732 0
-625 990 -880 0
-282 256 -835 0
-890 -306 102 0
-809 328 603 0
950 483 999 0
-597 232 286 0
779 525 336 0
245 517 -847 0
-217 -933 -863 0
-770 797 -690 0
-134 -76 677 0
-499 873 -754 0
-939 704 789 0
990 -117 401 0
564 582 768 0
496 -909 -457 0
543 861 580 0
226 946 -163 0
-430 -207 347 0
522 283 180 0
-76 -127 640 0
-914 177 -725 0
890 112 -111 0
331 -661 53 0
273 -675 147 0
137 404 -609 0
177 75 20 0
-355 189 -766 0
-763 -170 -909 0
111 900 837 0
-580 458 85 0
-880 621 264 0
-676 392 -149 0
448 797 337 0
-144 467 -323 0
273 -960 953 0
-609 744 -78 0
-848 -797 -885 0
-867 895 -692 0
339 349 144 0
359 266 729 0
651 470 328 0
212 -34 -789 0
915 528 -199 0
-309 -647 -50 0
-716 -639 -1 0
839 -947 -199 0
121 477 -529 0
197 464 645 0
-328 -738 13 0
-203 -860 337 0
571 292 97 0
-65 -49 848 0
-876 -471 648 0
-19 -428 873 0
58 -386 -119 0
-351 -475 -667 0
461 719 127 0
-949 165 850 0
-461 409 936 0
927 153 599 0
-990 449 660 0
761 -255 700 0
512 -487 260 0
719 725 693 0
-234 647 93 0
-778 41 263 0
55 647 453 0
-649 -923 226 0
-495 -603 -517 0
-44 -645 710 0
775 -733 387 0
711 -705 489 0
-667 -340 -175 0
-640 -677 -934 0
930 -541 155 0
876 -288 -296 0
-980 331 1 0
-537 900 -767 0
-418 -430 867 0
162 260 -857 0
686 628 -901 0
-362 -295 -909 0
-79 -470 -764 0
963 500 898 0
-170 686 -57 0
-630 912 121 0
516 -351 -561 0
470 607 216 0
320 -185 -659 0
-361 -279 480 0
-322 -917 -945 0
-63 -600 -453 0
398 598 32 0
713 738 -345 0
230 479 -993 0
-791 894 -741 0
-385 183 -740 0
-171 -792 -21 0
-63 631 -284 0
-606 -517 298 0
-307 184 -629 0
677 -457 -832 0
453 -180 -621 0
-719 240 234 0
938 -704 -281 0
-250 738 -1000 0
-411 -200 -958 0
-515 537 408 0
-624 822 43 0
128 816 553 0
808 -630 840 0
-681 634 327 0
792 -342 398 0
362 -217 981 0
570 161 -522 0
-994 466 312 0
723 -531 985 0
430 -985 462 0
-585 -747 -991 0
479 -977 866 0
-512 -199 -721 0
986 943 -201 0
904 31 -1000 0
-788 -356 384 0
-390 210 304 0
-36 911 636 0
-496 -938 -679 0
171 568 126 0
-864 563 267 0
-209 -991 -923 0
778 303 -512 0
425 -887 838 0
-716 -838 800 0
-41 264 -793 0
133 715 755 0
-694 -528 -60 0
-848 -986 555 0
-119 -941 -441 0
-139 -599 212 0
384 952 83 0
-75 204 693 0
982 -149 979 0
-981 748 -736 0
352 778 -157 0
382 140 -977 0
30 -215 -337 0
-105 -7 -586 0
845 892 439 0
183 290 92 0
-329 -737 -604 0
-127 -802 79 0
282 -526 374 0
-982 -836 948 0
232 -192 -18 0
-10 -408 -386 0
-80 -795 21 0
-415 -6 -871 0
-355 -576 -292 0
-858 207 161 0
-680 -1000 -432 0
440 -934 -401 0
440 937 -928 0
-194 99 685 0
789 -147 194 0
397 -598 -883 0
-555 228 301 0
-889 -452 167 0
72 -663 -874 0
-168 -810 -511 0
53 -363 -181 0
709 903 -360 0
255 -237 -388 0
122 960 -105 0
857 509 430 0
-575 -843 -137 0
566 -777 703 0
103 -237 456 0
763 416 280 0
-746 7 -936 0
-121 -188 -793 0
104 -974 132 0
570 465 476 0
-126 52 957 0
-366 -733 576 0
318 -100 564 0
134 636 -2 0
998 -634 -604 0
446 989 159 0
-189 945 350 0
-840 396 -610 0
87 949 257 0
-138 -999 908 0
-861 -427 901 0
-172 -150 647 0
-669 -842 427 0
-79 -204 -584 0
-954 -752 229 0
-829 -747 750 0
-876 -14 377 0
166 -492 -478 0
349 -333 691 0
533 424 -831 0
450 749 397 0
-600 215 348 0
-220 6 650 0
185 665 -720 0
-612 -141 -215 0
844 -786 622 0
714 -218 791 0
731 252 154 0
-600 -654 -110 0
804 653 -801 0
354 -690 72 0
508 -737 -644 0
-918 -853 -18 0
-388 -938 -239 0
-659 884 -441 0
-816 312 -919 0
679 583 -750 0
-845 734 -869 0
-201 -38 899 0
-838 -881 865 0
259 967 -828 0
567 -569 -918 0
117 105 -319 0
-79 849 902 0
297 203 -265 0
-95 98 -90 0
30 -635 592 0
-209 722 -429 0
-118 -769 -105 0
-987 526 296 0
-785 524 -519 0
639 993 991 0
967 774 924 0
371 -884 -378 0
-423 171 -531 0
709 966 -225 0
619 -884 210 0
781 -90 154 0
818 677 608 0
-359 -290 -919 0
89 -376 -421 0
-414 -894 909 0
52 -626 691 0
-394 908 255 0
-951 367 924 0
-965 -499 -605 0
962 -142 -326 0
-345 797 105 0
737 940 -633 0
-232 776 -119 0
803 472 -51 0
916 897 503 0
-392 555 -422 0
-87 193 684 0
-74 87 -957 0
468 896 -543 0
-590 639 332 0
-447 -282 -419 0
894 409 -654 0
418 -526 -750 0
-927 -139 -403 0
687 -880 -334 0
155 -279 -222 0
875 208 -675 0
619 975 216 0
295 516 680 0
-364 701 154 0
668 -203 88 0
254 -677 -705 0
968 -14 -67 0
-228 505 -341 0
-55 -656 500 0
-359 785 181 0
-301 386 -112 0
910 -252 -388 0
490 -69 938 0
386 629 44 0
-638 -101 -887 0
496 926 -119 0
308 -242 -131 0
-238 -460 -729 0
880 402 288 0
730 60 922 0
509 394 -379 0
898 -152 -319 0
427 -810 336 0
-775 441 -78 0
-471 846 526 0
405 220 -253 0
-857 540 -570 0
244 -590 535 0
126 866 -74 0
-767 -941 -666 0
14 -344 278 0
-689 -654 312 0
-981 -817 -50 0
795 693 708 0
-276 -779 -307 0
741 316 -859 0
-976 -409 -473 0
74 -539 739 0
137 712 -693 0
301 569 734 0
830 517 -261 0
-335 -194 -377 0
-286 159 242 0
-965 572 -330 0
-89 660 243 0
411 883 -209 0
-349 39 542 0
968 -950 -934 0
-6 -570 608 0
-695 -671 -877 0
-441 81 670 0
895 890 -897 0
563 -103 653 0
753 209 324 0
-665 -530 512 0
-515 135 906 0
479 -720 -342 0
-27 659 -461 0
297 424 263 0
-593 -885 858 0
-42 119 -231 0
-897 -674 -384 0
-405 -851 -538 0
-653 182 -167 0
-32 604 -385 0
-239 162 396 0
-156 -702 247 0
-708 792 -260 0
341 -685 853 0
57 -932 257 0
-699 637 143 0
100 826 -278 0
476 515 -797 0
252 291 -528 0
-365 -840 600 0
-870 425 903 0
-440 -320 152 0
705 753 988 0
299 -264 681 0
-527 -69 -241 0
-49 575 -313 0
349 -848 -495 0
-650 867 412 0
703 219 -829 0
207 544 610 0
-416 316 -302 0
-447 -334 843 0
744 -777 67 0
901 781 813 0
-243 627 364 0
-389 -805 55 0
915 -743 839 0
-654 -733 570 0
-607 -304 -930 0
-261 -910 887 0
869 787 -153 0
-490 283 -169 0
207 -237 -713 0
-206 233 -323 0
701 173 -181 0
-440 902 447 0
-172 753 946 0
77 -453 875 0
-131 -551 -689 0
-354 365 -908 0
-562 -856 -575 0
-763 -719 223 0
-353 -612 -694 0
640 -195 -87 0
650 321 -726 0
278 552 -273 0
290 -787 -30 0
142 -366 597 0
-234 -663 -296 0
-154 -33 -60 0
168 111 -974 0
-419 398 -373 0
691 326 -589 0
-285 706 981 0
-909 576 17 0
-35 89 -322 0
386 -804 552 0
713 536 70 0
365 335 -696 0
-784 -680 717 0
-663 194 -378 0
-833 671 -72 0
286 296 -744 0
-289 -891 299 0
-371 -17 607 0
930 -612 125 0
48 58 -225 0
-340 3 -77 0
170 -227 -638 0
333 -663 -377 0
380 -703 313 0
508 478 961 0
-424 -256 952 0
843 -847 72 0
488 -340 629 0
-484 -40 226 0
573 245 146 0
13 618 -206 0
-34 471 700 0
630 427 712 0
-593 -131 -334 0
-898 -637 -358 0
383 -425 225 0
157 29 634 0
441 674 909 0
913 405 -110 0
505 -942 -373 0
-675 -910 188 0
-118 370 694 0
-898 -739 416 0
110 192 -649 0
-373 -186 -831 0
-172 124 -406 0
18 726 -94 0
-81 -123 777 0
-337 730 914 0
-136 76 -632 0
826 39 -571 0
-343 -994 615 0
-480 209 -526 0
-476 387 -778 0
902 -620 -541 0
-817 397 -941 0
199 -368 286 0
458 843 -791 0
482 228 180 0
773 -16 -665 0
715 579 -609 0
813 -697 -653 0
148 380 -581 0
239 -683 -767 0
-489 -169 578 0
-318 -119 -14 0
-319 -243 -276 0
-537 294 360 0
133 -103 -766 0
138 -139 85 0
-475 -166 -356 0
-957 -923 11 0
-470 -799 200 0
830 -284 -26 0
-227 -233 175 0
998 912 918 0
-507 -558 -762 0
-170 403 -903 0
798 393 715 0
21 529 -775 0
-114 876 58 0
-312 -832 194 0
706 727 -204 0
137 598 178 0
-370 -323 -928 0
-482 -317 -319 0
-552 -268 371 0
762 705 874 0
43 -234 -943 0
595 132 191 0
-931 533 -923 0
293 959 -363 0
-162 605 -963 0
322 -90 -344 0
800 -543 -362 0
477 399 -514 0
-384 755 -466 0
169 519 -772 0
-43 -832 477 0
267 -732 256 0
385 -490 171 0
-461 -470 196 0
-733 -669 -267 0
648 -991 925 0
-384 -370 255 0
932 211 -127 0
362 385 216 0
-673 -435 457 0
201 326 -145 0
503 -758 -398 0
400 -596 778 0
-686 -67 -290 0
966 987 106 0
804 -823 36 0
-307 174 351 0
331 770 -749 0
-152 -512 473 0
-560 897 419 0
-731 -964 -221 0
-359 -266 930 0
408 -89 -45 0
-733 -706 -940 0
486 -885 416 0
-263 524 565 0
-863 -275 825 0
-826 -202 -594 0
-300 115 -444 0
286 -5 960 0
-894 121 -374 0
978 -552 426 0
-583 -811 25 0
316 458 489 0
832 -283 335 0
-507 -45 -315 0
210 906 -309 0
755 -845 323 0
781 764 -427 0
480 29 -864 0
159 339 98 0
641 -614 -264 0
-668 323 466 0
-689 477 -906 0
941 -569 -449 0
450 -196 -458 0
-663 367 -361 0
106 93 -319 0
-181 961 -457 0
-510 634 -39 0
868 145 23 0
74 588 -604 0
-555 -643 324 0
545 -706 328 0
-391 -613 289 0
558 -814 888 0
885 -775 -250 0
968 -69 -143 0
-637 -941 395 0
-841 -17 -503 0
-524 267 -986 0
-186 -149 236 0
-383 444 -496 0
966 -405 -560 0
-196 -115 -203 0
-838 362 390 0
350 -973 738 0
-327 45 533 0
131 -5 851 0
-978 698 994 0
50 207 783 0
578 -60 703 0
364 -406 333 0
965 520 -991 0
908 -831 -509 0
266 -303 -442 0
-917 -758 -433 0
-834 -311 -151 0
68 965 -524 0
788 168 409 0
464 478 -765 0
-569 480 593 0
-456 823 -348 0
878 102 -809 0
-733 362 -450 0
44 146 363 0
-251 558 -83 0
-122 -602 -937 0
694 -27 -83 0
-465 557 4 0
-357 577 960 0
494 368 -443 0
-513 -774 -723 0
625 -652 310 0
-991 558 2 0
-427 258 865 0
405 151 105 0
610 354 -252 0
923 216 -287 0
194 899 -742 0
-639 -53 385 0
-322 -878 572 0
-234 71 169 0
-291 180 128 0
376 -746 -117 0
-323 674 160 0
45 -172 -750 0
310 -447 -38 0
-1000 997 -496 0
315 319 234 0
406 -914 -761 0
825 -315 55 0
-516 842 871 0
-830 259 974 0
-557 -707 -55 0
510 165 -43 0
288 -273 814 0
712 -70 -326 0
380 183 526 0
-690 992 207 0
-369 -836 -640 0
209 557 683 0
25 857 323 0
-14 -274 669 0
475 225 264 0
503 -221 -682 0
-497 -564 128 0
798 -582 169 0
-701 673 354 0
698 712 797 0
-508 534 743 0
433 -633 -780 0
-825 338 -829 0
-780 843 -166 0
274 -651 -90 0
749 661 -274 0
387 -885 974 0
891 -976 -257 0
-331 -96 835 0
109 92 309 0
11 -797 -899 0
30 24 368 0
257 -275 -330 0
723 -510 -484 0
157 -458 991 0
680 -911 958 0
-403 774 838 0
-418 344 -135 0
629 -2 -364 0
-950 -263 -633 0
546 -264 375 0
235 116 -452 0
115 260 719 0
793 215 317 0
-583 618 452 0
952 -79 126 0
195 -859 -411 0
15 896 -916 0
213 915 -936 0
322 664 238 0
-747 -627 586 0
-706 142 -116 0
229 -136 37 0
911 -396 637 0
934 -785 -976 0
254 -617 -901 0
-858 165 172 0
502 -261 520 0
328 291 833 0
427 918 -222 0
819 -729 -130 0
-501 347 -460 0
739 786 -596 0
356 163 -410 0
-485 568 640 0
-938 905 -584 0
-570 -182 328 0
355 -722 298 0
170 786 -414 0
291 608 -784 0
-448 -476 -423 0
563 929 523 0
-292 -960 28 0
-611 -296 -267 0
157 116 56 0
-57 -549 -537 0
-287 504 -84 0
-710 441 -704 0
-393 217 -159 0
703 -710 4 0
-361 402 -905 0
-490 682 -79 0
940 207 -817 0
-225 -247 604 0
458 -335 549 0
711 -338 -191 0
-152 222 -119 0
-261 -532 755 0
-102 45 214 0
533 712 -248 0
383 349 -161 0
973 -309 -124 0
-671 277 -100 0
562 -995 955 0
-640 -660 -341 0
-493 -887 250 0
-485 -237 -201 0
704 -817 27 0
591 -214 -828 0
633 467 -112 0
-200 -789 -708 0
25 -700 297 0
351 -996 995 0
142 627 -285 0
-273 -279 -837 0
863 -884 198 0
802 553 -406 0
854 -145 254 0
204 -700 187 0
-111 565 203 0
702 -225 554 0
-791 -400 700 0
91 -242 -594 0
-35 -905 -464 0
-457 -215 -570 0
-622 -606 -980 0
-732 294 177 0
-210 888 -396 0
974 686 456 0
666 -257 702 0
-778 521 833 0
988 601 -747 0
203 575 799 0
-113 899 -490 0
-813 -501 -661 0
-728 -650 -814 0
69 -252 -105 0
403 388 254 0
109 490 956 0
-136 -405 562 0
855 -118 157 0
991 875 -335 0
-943 846 -749 0
916 -866 842 0
-494 -354 271 0
-30 -406 175 0
-567 -827 549 0
950 771 848 0
-47 -285 -786 0
-508 -507 811 0
462 694 418 0
477 -805 -740 0
921 -76 -461 0
-755 -715 -696 0
529 670 267 0
-296 713 -758 0
372 108 -290 0
-382 993 468 0
-683 707 729 0
889 559 -801 0
-173 -350 -290 0
802 -959 319 0
-481 -532 -860 0
-711 -631 -862 0
693 -966 -822 0
-599 -562 -538 0
714 -751 980 0
-992 -505 474 0
377 -40 237 0
673 -367 837 0
-889 569 139 0
859 -196 769 0
-154 -907 -737 0
371 -41 649 0
156 225 679 0
209 -593 859 0
-650 -991 627 0
996 -351 -754 0
-335 -544 -696 0
-552 -602 842 0
-516 -327 -148 0
-577 -193 -576 0
-120 -965 -693 0
-38 -808 460 0
765 -82 785 0
-17 -259 -498 0
805 429 255 0
50 -163 282 0
395 775 468 0
824 416 -490 0
145 -490 -398 0
-857 -12 366 0
-901 -929 306 0
426 683 807 0
-804 386 234 0
-124 -198 429 0
871 762 -38 0
830 -993 -774 0
-157 -346 -434 0
963 -322 -945 0
648 -824 101 0
742 625 937 0
937 -496 299 0
849 353 -208 0
941 752 247 0
-184 319 -149 0
710 -564 760 0
-422 -927 -120 0
81 -809 -998 0
987 -458 -113 0
689 -914 -38 0
834 -782 319 0
224 -558 -355 0
-845 614 -896 0
-615 72 209 0
966 -146 291 0
581 770 -790 0
-71 122 -826 0
168 942 -262 0
542 -379 569 0
-307 314 -766 0
32 -839 -563 0
483 325 933 0
224 -809 -343 0
298 -728 329 0
-109 375 881 0
-581 826 -918 0
-368 130 373 0
-56 236 950 0
-366 -949 471 0
894 -748 752 0
-458 -622 400 0
665 874 -557 0
292 947 399 0
-807 266 925 0
-809 647 764 0
-578 202 42 0
858 -242 -297 0
-341 -419 -315 0
-999 -294 984 0
582 346 -849 0
-629 -205 -158 0
115 495 441 0
974 781 -848 0
-199 228 304 0
821 -80 -579 0
-465 -913 -556 0
-44 -931 416 0
236 953 -413 0
542 -596 742 0
-677 109 715 0
-366 -413 -946 0
604 478 291 0
408 -931 202 0
815 714 534 0
-67 -918 493 0
-262 -449 238 0
-354 -532 -544 0
925 -146 485 0
33 -714 -105 0
752 22 -617 0
625 -946 -852 0
-810 16 -210 0
628 -515 -209 0
-523 281 -381 0
424 -292 -378 0
859 -191 180 0
-891 -290 -878 0
936 467 -991 0
-601 -386 -110 0
-822 -66 788 0
775 -472 34 0
-732 -840 60 0
705 -791 -860 0
624 -172 151 0
709 -275 191 0
622 -752 -244 0
-787 564 -960 0
105 -154 -20 0
-525 947 508 0
849 255 560 0
593 -111 288 0
-557 920 197 0
819 -39 145 0
932 220 -266 0
-265 -855 -710 0
108 121 915 0
-983 939 -691 0
991 -550 341 0
971 25 406 0
460 345 -326 0
-470 566 -32 0
811 751 -702 0
-209 -437 -125 0
630 361 443 0
861 -487 119 0
-374 60 937 0
-688 556 547 0
-944 26 672 0
-552 710 40 0
-960 -326 271 0
988 -531 -888 0
318 873 929 0
-555 -46 -364 0
45 429 -590 0
-632 280 -643 0
-66 584 -12 0
-467 -297 285 0
8 -541 -918 0
-402 210 349 0
495 640 732 0
-299 -633 -38 0
236 -83 -96 0
729 -620 -877 0
215 -764 -297 0
558 834 -299 0
351 959 360 0
-148 -126 789 0
-386 337 -354 0
-4 320 895 0
835 455 -845 0
-696 341 -720 0
635 260 4 0
83 -17 -428 0
319 -92 369 0
165 -457 31 0
793 107 -609 0
105 -590 -979 0
-588 568 -886 0
306 672 825 0
419 823 -692 0
-543 -184 599 0
-966 107 408 0
286 -839 -431 0
-428 -979 -46 0
-598 474 395 0
409 600 -379 0
-700 366 988 0
-719 890 840 0
-427 333 -498 0
-631 271 -497 0
-885 781 186 0
558 -382 -489 0
742 -585 -227 0
-320 894 903 0
-435 -10 156 0
1 -829 -353 0
965 652 770 0
-778 -371 562 0
-784 818 168 0
-914 -327 -738 0
-526 -60 -204 0
-18 -852 385 0
-961 473 -10 0
-800 -306 128 0
634 815 -773 0
-99 -552 -47 0
-837 -643 -322 0
361 -198 954 0
166 890 498 0
985 518 -51 0
-259 -96 -468 0
402 -279 723 0
-809 -816 -35 0
-988 816 -164 0
632 265 -533 0
703 -244 -596 0
400 -69 -458 0
-268 -182 131 0
-543 -268 687 0
789 -291 810 0
-917 -640 214 0
-458 768 158 0
-159 -741 -998 0
65 -983 775 0
284 -216 654 0
296 -98 399 0
692 585 -923 0
544 554 902 0
498 490 836 0
483 336 -62 0
-443 396 -264 0
-237 833 800 0
157 329 -350 0
743 176 -544 0
-201 788 385 0
-348 573 499 0
-972 -383 -423 0
122 -672 -120 0
232 823 -602 0
9 91 896 0
-518 -420 504 0
-163 938 -176 0
935 971 162 0
-273 -756 -494 0
-555 -105 -766 0
84 -664 583 0
662 -533 962 0
781 749 -463 0
-640 885 -802 0
-459 -993 -155 0
26 -836 -189 0
-837 -900 36 0
-620 -423 485 0
-361 -193 730 0
464 721 -193 0
987 403 -579 0
-234 834 856 0
-865 775 231 0
366 -285 137 0
224 -574 -881 0
348 -638 218 0
433 -733 -298 0
495 -924 851 0
-417 521 840 0
-442 343 172 0
-554 -423 864 0
-533 -243 -815 0
609 171 55 0
-923 666 657 0
821 -865 -348 0
430 -253 -619 0
211 -497 -187 0
881 -965 105 0
-229 -146 -682 0
796 20 -177 0
-91 148 719 0
518 62 693 0
663 597 522 0
306 339 753 0
436 -853 286 0
954 337 -209 0
-149 953 -707 0
-414 -313 804 0
919 612 -93 0
-818 513 -545 0
-347 -523 -746 0
385 -109 -428 0
645 515 -598 0
708 -15 237 0
546 -843 918 0
373 -475 -283 0
704 -434 -220 0
-597 -619 378 0
-560 -696 570 0
-677 -685 -128 0
58 88 -801 0
191 -416 508 0
-222 -439 628 0
-716 -596 -361 0
-242 -190 -401 0
597 542 842 0
-290 199 -52 0
-380 257 482 0
858 -777 163 0
-929 15 -622 0
572 -525 554 0
-619 -403 -191 0
-353 525 -608 0
-227 -942 193 0
329 -586 -333 0
990 -301 481 0
-304 138 -756 0
634 -856 -916 0
160 210 -486 0
448 -785 -287 0
-946 -849 262 0
-493 570 205 0
992 846 671 0
46 353 -874 0
-84 652 852 0
585 -698 223 0
-816 656 50 0
-197 -299 746 0
248 382 -790 0
-542 -890 377 0
-213 176 706 0
-595 -476 -357 0
-246 -373 961 0
6 335 183 0
-345 969 -894 0
680 -743 -59 0
-558 271 330 0
913 236 13 0
-506 -723 -327 0
620 452 -906 0
-948 838 865 0
1 896 -278 0
-411 -596 -393 0
-250 214 315 0
671 946 731 0
-794 -363 -644 0
-662 -160 434 0
884 975 -535 0
-449 -272 748 0
153 -240 -340 0
-666 53 915 0
998 173 534 0
593 397 -782 0
-465 -890 -507 0
62 99 -88 0
350 -185 -264 0
138 -927 -688 0
619 -736 -193 0
-106 -781 -883 0
-160 316 -155 0
599 -441 -97 0
-141 289 926 0
-47 -660 595 0
818 -109 -437 0
-697 993 -641 0
-895 491 634 0
-490 -332 614 0
-391 -539 282 0
582 -858 -871 0
-145 -157 648 0
-239 132 -865 0
440 -820 368 0
-938 -157 -905 0
317 -220 385 0
-527 552 -193 0
621 926 -274 0
-830 544 213 0
377 964 -848 0
-225 494 912 0
-850 154 -748 0
-707 -582 -770 0
456 -86 -148 0
707 -303 -911 0
-129 -199 743 0
-234 -988 -436 0
-331 199 70 0
-811 -975 299 0
-558 16 102 0
-270 -642 183 0
952 431 842 0
212 643 -57 0
296 -185 -399 0
305 50 -746 0
973 530 700 0
-140 118 707 0
655 -421 -545 0
-476 171 -988 0
-880 591 228 0
184 -91 -136 0
964 -266 477 0
-18 548 -264 0
-253 625 -145 0
799 -845 6 0
922 501 52 0
-44 -563 865 0
-160 816 -95 0
-718 -952 -135 0
781 789 -903 0
-204 -547 266 0
-399 -536 954 0
-71 683 22 0
128 -216 291 0
-263 -662 -376 0
889 -789 -249 0
2 -356 -109 0
-35 -506 -67 0
-64 419 263 0
-258 -887 510 0
-290 390 -153 0
606 708 193 0
-893 -218 782 0
367 -408 738 0
865 178 96 0
-372 441 -883 0
405 489 275 0
-958 -463 267 0
107 -724 818 0
917 1 -181 0
-900 794 -558 0
607 913 -309 0
419 309 267 0
-829 147 -917 0
15 927 -296 0
-366 936 -75 0
955 167 -419 0
-106 898 -167 0
-104 -623 -350 0
79 520 391 0
579 243 745 0
-552 742 -303 0
182 -898 -74 0
82 -962 304 0
761 185 608 0
177 494 -394 0
-869 365 21 0
-280 -551 -781 0
-951 687 514 0
868 886 -212 0
-204 266 637 0
-834 -3 613 0
-209 963 -760 0
379 231 -847 0
631 947 923 0
249 970 788 0
487 -845 342 0
361 533 865 0
618 -817 -696 0
-683 -31 -418 0
93 -191 -247 0
732 520 -335 0
986 238 -524 0
263 -680 -135 0
-596 -669 -682 0
-409 137 172 0
-259 -780 -573 0
233 442 247 0
609 -221 -325 0
665 156 -490 0
717 -902 888 0
607 132 116 0
831 -732 -585 0
930 -832 -439 0
788 -357 287 0
-939 548 234 0
-152 -536 -891 0
865 -328 999 0
401 -763 -944 0
-991 140 -875 0
691 498 205 0
497 443 -800 0
588 -401 -850 0
852 348 -869 0
-316 -877 -395 0
715 779 555 0
-634 492 -716 0
-949 693 -491 0
380 823 -875 0
-960 -917 -114 0
638 -869 -22 0
-959 335 -502 0
-771 312 -635 0
-222 -447 -696 0
279 837 673 0
-945 -348 266 0
129 -819 -602 0
-105 -903 660 0
641 295 823 0
771 785 -805 0
-878 865 -177 0
-772 -989 385 0
-85 579 792 0
-863 -607 210 0
867 -152 649 0
-375 301 -967 0
893 630 -143 0
-235 -474 392 0
766 248 37 0
46 404 523 0
623 -339 158 0
211 569 306 0
-498 -548 692 0
755 804 715 0
733 -423 -205 0
-897 -32 -219 0
188 -896 907 0
-420 577 -322 0
-699 378 -150 0
445 -179 -760 0
-642 -138 -252 0
990 905 590 0
848 339 -985 0
-436 -644 923 0
-535 157 57 0
-861 -514 -425 0
42 -534 -874 0
273 288 337 0
252 -329 437 0
-5 416 326 0
452 -878 253 0
908 162 325 0
952 -868 320 0
-811 -249 805 0
435 298 406 0
-373 -677 -601 0
726 -311 -47 0
-633 -713 320 0
-694 807 106 0
-396 -759 -982 0
612 -917 -616 0
621 529 -516 0
-330 -709 -489 0
-621 -719 689 0
676 -854 345 0
-237 368 -16 0
-267 841 129 0
827 -225 -149 0
-286 -597 -326 0
-841 196 -342 0
696 692 -362 0
-82 -562 336 0
772 846 473 0
-847 -639 -856 0
863 -304 117 0
592 991 -742 0
251 -378 -953 0
757 -822 785 0
747 -837 -206 0
-322 310 888 0
633 -73 -931 0
-900 -622 75 0
-81 412 -198 0
-842 -773 248 0
-326 232 -476 0
-549 -183 -477 0
935 -436 507 0
-870 230 709 0
888 -355 685 0
343 427 411 0
545 -130 -121 0
572 -914 -51 0
-417 634 -730 0
378 474 442 0
532 141 -290 0
-851 -642 -55 0
99 -550 -670 0
-773 -57 337 0
-308 852 -943 0
510 227 -843 0
144 -853 -837 0
-675 -862 -160 0
-877 -974 269 0
813 636 -732 0
-361 -53 293 0
676 529 3 0
509 -490 -168 0
83 -760 545 0
772 -164 383 0
694 -422 -648 0
147 84 511 0
-988 -877 -579 0
332 -929 -305 0
879 912 -470 0
-221 914 225 0
-564 602 -586 0
-369 70 649 0
-648 -854 -596 0
351 896 -603 0
-237 -789 62 0
702 600 936 0
-953 -679 964 0
-834 -480 -922 0
948 -367 282 0
921 143 -915 0
-666 511 -613 0
350 -510 -919 0
327 200 966 0
-159 -487 964 0
-196 -551 -611 0
-29 -925 -357 0
-707 -526 -676 0
912 953 -715 0
-872 -870 -820 0
-657 -396 -913 0
688 -541 -45 0
-733 -773 -126 0
163 -918 -730 0
-418 294 -847 0
-878 758 -386 0
-478 -164 -725 0
262 522 -660 0
623 830 173 0
507 -820 301 0
-917 850 351 0
528 49 225 0
-114 -9 178 0
74 -659 124 0
82 -284 -98 0
46 873 456 0
-68 -523 -605 0
20 -589 752 0
684 962 -671 0
-625 -318 473 0
587 941 720 0
-148 104 -546 0
-942 672 -562 0
-414 370 156 0
263 -159 585 0
-406 -316 -709 0
-167 647 417 0
583 494 -393 0
-484 -10 257 0
633 -611 71 0
865 -700 -392 0
-574 46 -637 0
-140 252 -782 0
-362 -647 -916 0
301 -151 -841 0
600 607 791 0
676 -267 -757 0
564 -817 774 0
963 -424 482 0
-263 908 499 0
385 -439 113 0
782 -145 -989 0
-783 -708 122 0
917 353 626 0
363 -478 -701 0
-992 956 657 0
-48 -86 -641 0
-601 -101 827 0
-944 -225 -877 0
-340 725 -43 0
954 -222 53 0
300 47 -618 0
-60 560 -449 0
878 -170 -252 0
-954 -466 -643 0
-731 -46 675 0
-99 284 -912 0
-725 130 649 0
-629 30 -478 0
-951 -149 245 0
320 -337 462 0
-908 864 626 0
185 708 -636 0
-137 -364 94 0
-864 -999 -436 0
-145 -605 927 0
137 -6 -882 0
807 755 -420 0
855 -295 -730 0
-699 361 -310 0
73 -998 683 0
-833 335 94 0
563 251 -517 0
-680 54 866 0
-678 781 -674 0
840 -771 446 0
718 -418 -762 0
27 172 -947 0
-812 -718 197 0
175 250 -888 0
-978 -83 -124 0
-493 -618 349 0
445 641 110 0
316 -708 -695 0
123 487 767 0
655 976 -601 0
535 64 219 0
-855 -470 375 0
576 -264 -346 0
-866 -536 -639 0
-478 -329 490 0
-214 663 763 0
-331 -185 -997 0
-946 634 721 0
-956 248 698 0
-990 357 410 0
-314 554 -216 0
754 55 620 0
378 -276 -813 0
326 -334 -972 0
172 -973 78 0
655 -711 929 0
-363 -49 41 0
-269 656 -142 0
-114 -931 -155 0
-158 -373 189 0
275 550 655 0
-512 314 -397 0
33 -74 909 0
757 376 421 0
601 313 -997 0
-470 375 568 0
-676 698 973 0
295 -227 736 0
-581 -280 864 0
864 739 217 0
-924 556 454 0
-203 766 -798 0
-193 -515 -126 0
197 -641 -25 0
219 470 696 0
607 -206 -68 0
139 -589 185 0
814 -800 -889 0
22 -527 535 0
-259 -919 -566 0
-210 203 -587 0
28 -214 379 0
883 386 -245 0
-204 -489 837 0
-19 -305 407 0
515 474 422 0
515 250 -273 0
331 898 139 0
399 634 -186 0
-505 -61 -280 0
588 568 -979 0
-846 -605 -427 0
722 12 371 0
-748 741 765 0
131 374 -91 0
-146 -48 407 0
819 399 93 0
341 884 -882 0
-313 -342 -60 0
-329 378 -21 0
233 -117 540 0
956 558 930 0
-456 64 -552 0
621 -77 131 0
565 14 193 0
-13 428 729 0
-223 -84 -962 0
690 -955 -242 0
-784 -747 -752 0
459 315 -825 0
-110 887 -728 0
-60 254 -589 0
276 -593 -737 0
514 723 -701 0
-607 -472 -471 0
127 -841 13 0
-443 931 -383 0
964 -705 -145 0
-835 851 -425 0
-858 -158 845 0
-890 81 16 0
587 -366 907 0
478 -805 -902 0
561 -418 599 0
-557 -574 -210 0
844 -357 -131 0
374 638 146 0
-110 -663 677 0
413 -349 -508 0
536 -582 -2 0
-891 141 231 0
-526 928 -760 0
375 -851 -837 0
-654 -810 508 0
692 -624 262 0
-276 882 -583 0
-440 971 416 0
-595 336 401 0
-16 53 393 0
-148 121 -29 0
-27 91 107 0
-211 -534 969 0
168 -502 141 0
-158 -889 602 0
-638 -917 791 0
-347 -122 311 0
100 490 -499 0
809 -385 945 0
-882 -556 -194 0
170 349 803 0
-497 -525 -780 0
796 130 -245 0
775 266 -425 0
489 -287 853 0
-7 748 265 0
907 822 -176 0
935 -855 -754 0
121 831 766 0
850 260 166 0
464 -10 228 0
414 750 44 0
112 702 -91 0
24 221 646 0
-953 373 -968 0
501 737 -288 0
233 866 -303 0
-436 837 935 0
523 -681 332 0
789 -619 449 0
789 -437 686 0
-117 938 669 0
47 737 -590 0
-615 360 -493 0
-454 -879 -455 0
-615 -890 -775 0
289 229 199 0
487 691 -648 0
-870 559 900 0
79 798 -294 0
-125 659 -332 0
-823 226 553 0
-205 -499 492 0
194 -273 38 0
931 -824 -295 0
-884 442 250 0
-209 529 511 0
123 826 626 0
375 487 875 0
-238 -339 687 0
891 238 369 0
-207 556 174 0
-116 372 -392 0
669 -882 263 0
-1000 56 892 0
-335 -270 -717 0
-87 165 486 0
-735 855 -239 0
14 -505 175 0
-852 730 -421 0
-721 -212 695 0
-218 -601 229 0
-165 -890 706 0
-389 565 330 0
-921 -279 762 0
560 702 740 0
-761 -427 618 0
-367 533 -245 0
750 979 -978 0
-670 -67 377 0
351 -438 498 0
858 435 823 0
797 -282 81 0
298 986 -165 0
-367 -237 -330 0
337 -211 414 0
-971 930 17 0
363 -1 -872 0
742 -878 -949 0
510 590 -784 0
-864 810 -915 0
-138 -614 -265 0
284 -992 -326 0
549 -500 120 0
-349 -938 653 0
532 346 -70 0
254 310 455 0
355 923 591 0
500 -438 549 0
-277 735 -270 0
-808 735 -437 0
-604 -319 48 0
-580 -959 772 0
-938 344 -59 0
301 222 995 0
316 -253 243 0
538 625 -355 0
527 -80 942 0
958 180 -652 0
-751 113 -368 0
-309 -156 226 0
-15 -874 -429 0
-590 847 679 0
-952 -926 -761 0
257 543 724 0
-309 329 534 0
-622 -499 741 0
-46 380 687 0
-708 -235 332 0
-29 -1 -207 0
54 436 198 0
-187 -377 673 0
343 -69 978 0
-356 574 556 0
-273 -175 -301 0
-909 871 -460 0
-685 55 533 0
-401 -9 -671 0
-533 933 355 0
671 -578 -139 0
-150 398 14 0
914 -100 -592 0
631 623 -997 0
112 -360 -201 0
529 -918 -140 0
602 336 -459 0
-150 818 -63 0
237 -693 722 0
557 890 258 0
-93 347 542 0
775 -139 -599 0
406 -559 -199 0
109 -518 -750 0
48 926 -125 0
-731 950 407 0
227 958 -929 0
19 768 350 0
529 -453 169 0
-862 -918 245 0
293 651 456 0
367 226 617 0
10 16 832 0
-109 274 140 0
-342 49 427 0
-675 704 139 0
120 22 223 0
-757 -55 -532 0
-861 873 53 0
877 -444 -136 0
516 763 -375 0
-909 804 358 0
552 557 340 0
-37 501 -176 0
239 -843 -675 0
-55 -883 227 0
278 674 180 0
-618 584 -145 0
492 -579 -501 0
491 655 -999 0
-580 473 399 0
438 -146 -762 0
-492 -339 960 0
362 179 -289 0
-301 348 -941 0
-214 423 -676 0
888 -111 437 0
-883 -884 157 0
947 188 -920 0
-650 222 197 0
-353 922 -340 0
960 233 18 0
303 528 -576 0
538 -18 -874 0
-802 -483 -452 0
-421 293 495 0
122 804 -75 0
495 -961 697 0
520 -791 669 0
-543 -138 214 0
-738 -261 -859 0
482 -605 479 0
-799 -713 370 0
-318 -147 -692 0
-11 857 781 0
-990 423 907 0
553 64 -595 0
132 -618 -727 0
990 -995 -998 0
-247 -394 -817 0
254 858 -249 0
99 949 472 0
496 331 -497 0
-523 300 -154 0
27 -148 -169 0
-579 -620 -824 0
693 161 -877 0
-732 -729 332 0
-246 704 -389 0
684 -644 257 0
-729 161 948 0
894 -350 -447 0
17 987 -537 0
865 388 -616 0
452 -903 336 0
16 -366 -661 0
55 -98 747 0
-957 781 -749 0
-905 444 -130 0
-949 886 285 0
-11 -752 -2 0
488 519 203 0
305 227 -817 0
-835 -424 794 0
56 212 -495 0
-308 316 273 0
524 722 -791 0
-302 322 -503 0
-481 918 -400 0
-658 -269 -784 0
973 -293 417 0
-370 292 675 0
567 705 -979 0
820 -840 -92 0
-367 -949 361 0
-279 -826 -47 0
-13 229 222 0
-513 342 304 0
430 -676 255 0
-361 -914 -543 0
725 -858 -989 0
200 -805 340 0
-93 -980 846 0
-207 -84 -990 0
-140 -938 -507 0
857 -918 780 0
45 -778 714 0
-215 -263 216 0
-614 -136 -397 0
-843 303 -206 0
901 -137 816 0
-876 -705 -887 0
217 920 -796 0
-438 -299 -137 0
-494 -968 344 0
934 290 93 0
466 703 -438 0
132 492 -136 0
-516 635 988 0
870 -580 43 0
221 -632 -543 0
361 691 -582 0
-337 995 605 0
-357 -319 170 0
-245 -506 697 0
-156 866 -116 0
877 -272 881 0
-857 263 -677 0
-12 -747 583 0
538 683 -814 0
104 748 149 0
754 -234 -393 0
-610 -659 -922 0
707 667 684 0
204 -186 -346 0
398 -972 -76 0
807 -78 102 0
-439 -119 612 0
-333 -141 -456 0
331 -920 744 0
473 -392 787 0
693 -137 438 0
782 39 -379 0
-856 -800 353 0
283 -466 -481 0
955 187 177 0
392 525 -812 0
-33 -951 620 0
-78 -699 599 0
197 -101 798 0
-196 -334 277 0
-334 410 -36 0
660 548 -93 0
-659 642 968 0
604 -656 -975 0
162 338 -818 0
-456 965 -3 0
287 -470 -794 0
344 889 -421 0
-662 932 572 0
464 -382 221 0
-776 633 452 0
-850 764 -291 0
591 -122 420 0
-13 784 636 0
-230 -30 113 0
-369 -215 -329 0
376 -644 -188 0
878 -684 -540 0
853 -388 -347 0
849 446 -988 0
587 769 662 0
-261 431 47 0
-588 353 -986 0
984 -622 452 0
103 -38 -349 0
-543 802 883 0
-43 481 -270 0
-557 -23 782 0
947 -591 -541 0
-176 934 -72 0
-195 -621 262 0
586 359 -402 0
359 287 -40 0
-356 41 -267 0
-8 177 14 0
487 780 690 0
-282 794 -634 0
316 282 566 0
305 837 63 0
216 796 289 0
260 -12 983 0
-421 376 993 0
51 721 751 0
-969 -742 934 0
25 283 -524 0
-565 132 -945 0
-751 383 -533 0
654 214 918 0
458 -291 -246 0
888 -311 -424 0
-451 -688 -18 0
-616 152 463 0
-913 951 94 0
240 -247 -341 0
732 785 633 0
124 339 -73 0
290 -43 -372 0
638 -74 262 0
419 -470 -193 0
67 869 900 0
172 -631 -299 0
-805 808 -224 0
-53 609 375 0
109 767 139 0
-595 131 821 0
-623 636 -713 0
916 544 771 0
1 984 -909 0
122 373 -72 0
877 -643 -62 0
585 847 777 0
162 297 69 0
777 -865 -289 0
-496 -526 -540 0
-214 -649 -216 0
-148 -252 314 0
-238 815 800 0
-280 149 -586 0
859 636 -142 0
49 714 845 0
-338 -424 458 0
291 839 785 0
454 956 460 0
856 69 21 0
-813 346 -987 0
312 858 -639 0
946 -519 -159 0
955 -709 489 0
403 362 -302 0
-231 -173 642 0
-849 843 -451 0
-536 344 636 0
226 -875 134 0
-341 -642 328 0
726 -379 -761 0
-496 645 380 0
-912 -849 -25 0
-137 -433 534 0
-109 723 188 0
417 -711 -677 0
365 912 -486 0
863 -735 -437 0
-177 -289 51 0
443 -606 -496 0
694 -743 533 0
-274 177 997 0
560 943 -297 0
-450 678 167 0
-2 -665 479 0
842 -968 735 0
178 725 -571 0
-313 190 -482 0
-269 621 -34 0
-371 176 -973 0
-834 -961 -868 0
143 297 324 0
-916 -594 899 0
-466 574 -310 0
224 25 953 0
768 -519 -79 0
-537 -321 -908 0
889 -262 183 0
250 187 47 0
991 451 -735 0
-789 138 -388 0
445 359 -979 0
708 110 762 0
-209 229 -221 0
676 -148 -372 0
-938 391 388 0
-508 -595 43 0
-957 997 -721 0
837 3 -587 0
804 -35 335 0
-1000 -961 -166 0
-103 -865 958 0
208 259 126 0
188 -691 907 0
-819 833 -85 0
-133 -988 -274 0
-199 -635 173 0
-775 750 244 0
374 581 -709 0
-388 216 -11 0
42 947 -595 0
212 -155 -254 0
536 309 357 0
-666 -957 -185 0
412 -386 298 0
749 -315 -850 0
-916 -888 597 0
843 -408 -830 0
-957 -739 793 0
741 -43 -663 0
550 -361 -831 0
-6 675 -721 0
-146 -591 -90 0
-358 311 -305 0
63 907 -962 0
-337 -552 858 0
-956 485 -383 0
261 -903 -776 0
416 744 -511 0
-108 -169 -167 0
-698 243 319 0
944 170 351 0
266 853 47 0
-62 701 724 0
349 -707 -215 0
-853 -201 -43 0
378 232 -132 0
-596 478 476 0
85 -770 -838 0
610 276 -377 0
-320 -851 -394 0
-904 371 -395 0
-149 602 535 0
308 260 -455 0
287 -159 -265 0
763 -496 -162 0
-518 -19 -245 0
-593 -564 10 0
-823 -68 -98 0
805 109 985 0
75 102 166 0
432 189 418 0
-840 -224 127 0
468 276 -626 0
-228 -567 -191 0
-369 -968 -615 0
250 491 544 0
-121 -702 -693 0
513 616 304 0
-784 687 788 0
-76 779 -498 0
-124 484 -617 0
-635 -764 378 0
611 -755 229 0
352 -146 -143 0
-81 894 -932 0
-371 -842 748 0
205 164 601 0
-27 -817 -43 0
411 -657 -475 0
-805 1000 415 0
861 -110 452 0
9 -110 704 0
742 -264 360 0
-15 6 205 0
-757 -121 -645 0
-491 746 121 0
-734 374 423 0
-369 57 523 0
789 870 848 0
740 -333 44 0
20 -64 -677 0
382 -904 -807 0
745 602 879 0
891 89 -507 0
8 -683 -734 0
-834 11 195 0
244 550 -247 0
70 -171 509 0
636 -964 426 0
407 606 -171 0
-663 287 -480 0
-154 505 -533 0
-28 271 740 0
426 835 -613 0
-176 -617 -419 0
26 -930 149 0
487 -78 978 0
41 833 663 0
126 -884 214 0
466 -662 348 0
-242 -316 -271 0
-65 -295 958 0
-966 -96 -439 0
-889 -681 -715 0
656 -716 -96 0
908 308 -707 0
755 -202 290 0
252 -547 51 0
967 -29 -995 0
924 -169 -521 0
-674 -630 -864 0
522 -34 -959 0
-98 -627 844 0
985 3 625 0
75 131 154 0
134 321 70 0
453 -867 -559 0
3 956 61 0
-747 394 -203 0
159 -551 173 0
675 -230 190 0
787 469 114 0
739 -418 146 0
-945 -321 474 0
706 -945 149 0
-678 418 -541 0
778 -951 752 0
-170 -18 -735 0
-659 -886 814 0
742 -822 -161 0
-388 -540 -182 0
992 -215 -53 0
705 223 21 0
602 850 188 0
-3 824 281 0
-507 497 -542 0
-944 -516 622 0
532 -109 673 0
185 708 869 0
-66 278 755 0
-654 400 672 0
-106 231 -814 0
514 -761 202 0
300 599 988 0
-56 506 335 0
-945 -593 -616 0
-594 845 -894 0
-819 30 985 0
-853 -67 -381 0
575 508 -795 0
113 -409 308 0
-826 98 677 0
-641 44 588 0
-659 -90 287 0
527 -18 866 0
274 -200 773 0
-927 44 -288 0
-101 98 -165 0
-192 575 705 0
-846 888 719 0
669 -760 163 0
-882 -583 382 0
-675 676 382 0
837 -425 21 0
-592 -871 -128 0
-737 -612 539 0
702 -988 -602 0
154 173 306 0
955 123 -510 0
-316 431 -208 0
-161 398 -964 0
-377 -714 437 0
-764 -691 -931 0
749 -211 -479 0
792 411 330 0
-107 477 -27 0
-989 -780 464 0
-277 768 655 0
-94 55 -765 0
97 -934 621 0
-979 -401 -853 0
65 -494 798 0
727 -545 907 0
174 8 -827 0
326 674 394 0
895 -396 706 0
-579 590 199 0
-283 646 86 0
-83 -273 -949 0
-156 937 561 0
-912 872 555 0
327 -127 747 0
-338 -42 692 0
913 299 550 0
-834 402 505 0
-829 -49 -750 0
-366 -23 387 0
-512 728 678 0
-112 -180 -983 0
718 361 -898 0
-369 -558 852 0
375 -33 -542 0
-829 98 471 0
959 -496 -541 0
24 542 114 0
383 -672 -234 0
-71 -134 855 0
951 -395 -14 0
-529 333 -785 0
482 -155 714 0
-325 183 251 0
64 708 843 0
-801 282 -950 0
961 -552 237 0
-255 -474 -91 0
-771 -216 -357 0
-965 538 844 0
-844 251 -192 0
954 -46 380 0
-961 -458 -159 0
698 -216 -306 0
-594 -500 783 0
-174 -433 -551 0
568 -491 66 0
144 634 -765 0
344 527 -379 0
-287 -720 -874 0
149 892 -122 0
384 -919 211 0
-53 -310 -159 0
287 -659 -112 0
314 -950 -146 0
-970 361 19 0
539 70 787 0
-597 -572 751 0
264 -637 297 0
-14 315 -252 0
430 383 972 0
377 432 923 0
-638 565 -757 0
-240 -883 -727 0
-717 -864 378 0
200 -960 -606 0
-598 -216 -589 0
-390 -63 -567 0
702 -973 -67 0
-162 -771 -837 0
-620 699 413 0
708 -161 -569 0
-805 722 -285 0
-28 -349 795 0
-548 -855 545 0
-914 -660 668 0
937 995 870 0
-906 205 -965 0
-171 -914 -627 0
781 571 -545 0
425 547 467 0
261 -524 356 0
917 -822 -266 0
456 570 -128 0
434 223 -590 0
-942 -649 608 0
559 -868 -947 0
220 -544 -194 0
-761 496 -194 0
737 982 831 0
224 -517 -308 0
319 -188 232 0
-369 303 -700 0
-401 -581 608 0
741 177 738 0
-302 677 121 0
578 262 -781 0
223 216 -759 0
-629 381 806 0
-402 729 -902 0
594 552 -365 0
-684 464 570 0
717 860 174 0
501 837 -255 0
527 -983 804 0
-902 56 349 0
-477 533 -978 0
834 357 -688 0
448 597 -58 0
895 -617 -19 0
-766 -970 -247 0
-176 865 506 0
-831 -115 313 0
470 -803 -77 0
588 -745 -332 0
468 508 -958 0
-665 -518 170 0
-702 -380 601 0
-840 810 -185 0
-801 -325 -613 0
513 797 665 0
-142 825 144 0
937 835 188 0
-521 -862 426 0
-122 -516 -303 0
-661 -989 -798 0
690 920 504 0
-211 885 292 0
-59 848 -7 0
826 -489 -429 0
-381 214 321 0
488 711 -391 0
-771 609 -311 0
-619 486 -283 0
-423 -509 123 0
-15 132 524 0
112 969 -91 0
-181 -348 -322 0
298 664 129 0
-246 -731 -465 0
550 -736 468 0
-304 157 638 0
405 553 -476 0
-233 699 -324 0
-522 -867 692 0
602 292 53 0
5 -880 -327 0
-872 68 -671 0
384 118 -330 0
-448 164 600 0
-374 -690 869 0
-487 -854 441 0
34 -201 950 0
-436 998 -693 0
-560 539 589 0
-428 -533 -71 0
196 -723 460 0
902 246 513 0
557 302 450 0
974 -650 -968 0
-221 -813 705 0
-159 720 -660 0
-65 544 -724 0
-157 752 469 0
778 -581 -914 0
981 724 193 0
-343 34 -506 0
441 337 -221 0
476 5 811 0
-209 601 217 0
887 -360 160 0
151 -999 485 0
-827 3 570 0
-913 -890 -342 0
-521 -623 660 0
-91 -967 -890 0
-124 225 367 0
591 -216 271 0
355 -579 -753 0
358 -625 613 0
-338 754 -396 0
-171 -172 502 0
-155 -450 527 0
-22 -590 -994 0
671 141 778 0
639 -15 -555 0
452 567 -925 0
701 -856 -294 0
887 426 -584 0
-674 167 50 0
-388 -814 892 0
632 -446 906 0
319 -170 -548 0
-922 -947 299 0
521 367 734 0
516 -553 -559 0
-798 279 123 0
568 -995 638 0
213 -7 554 0
-204 778 897 0
999 337 430 0
599 -504 680 0
293 -576 -27 0
674 988 -383 0
523 1 -529 0
812 -627 -247 0
-583 556 -288 0
-237 894 -724 0
-902 317 -721 0
776 -21 902 0
-180 67 125 0
779 680 -389 0
784 -871 -16 0
-531 342 690 0
-645 -65 -98 0
-662 -125 -219 0
66 215 -280 0
-488 -611 863 0
116 443 -589 0
-148 708 927 0
-95 345 422 0
760 594 -690 0
407 -219 316 0
386 750 303 0
-400 801 -353 0
-602 -303 900 0
231 -41 -447 0
687 11 577 0
394 -140 971 0
306 65 157 0
-509 -369 592 0
873 26 693 0
-89 20 612 0
757 -94 261 0
-627 -801 327 0
485 -203 -419 0
857 445 -378 0
-782 -351 -207 0
-339 787 408 0
-586 -700 -640 0
-764 522 937 0
432 -898 591 0
-876 593 929 0
-563 -916 236 0
220 -758 520 0
32 707 -184 0
-684 729 895 0
819 57 -600 0
586 -114 466 0
24 871 -120 0
-832 362 -778 0
-305 -213 44 0
-330 -324 971 0
502 -250 406 0
599 -157 -722 0
-70 18 579 0
-384 -418 345 0
973 348 -846 0
877 175 -394 0
576 -60 372 0
-152 494 316 0
946 727 523 0
952 -569 -70 0
-321 -201 29 0
768 72 22 0
-316 142 2 0
-659 584 552 0
231 -647 182 0
503 -180 521 0
-943 -730 758 0
-292 590 99 0
-800 -239 973 0
-911 539 -886 0
781 -406 523 0
124 460 -433 0
300 821 -191 0
252 -816 206 0
806 -894 298 0
-387 -91 260 0
-872 142 -571 0
-76 902 -143 0
-756 332 -931 0
-528 229 659 0
641 82 860 0
-390 19 -85 0
498 -724 -810 0
-359 955 -408 0
184 604 -395 0
-176 -232 -708 0
949 -929 428 0
-554 44 484 0
394 641 403 0
-794 -246 -291 0
534 -680 -645 0
-491 788 570 0
897 13 -85 0
1000 654 579 0
681 283 81 0
394 274 -114 0
988 -719 550 0
587 410 -681 0
784 280 71 0
-313 171 -309 0
838 -937 -395 0
970 -104 -861 0
-279 3 64 0
-844 923 -91 0
905 -469 71 0
204 -251 -99 0
-615 838 -904 0
576 452 -337 0
602 688 692 0
-500 12 479 0
-453 782 -684 0
-980 345 753 0
298 -747 683 0
102 -988 -532 0
-642 -528 -673 0
301 356 370 0
1000 -272 -242 0
596 25 632 0
-450 15 -122 0
-430 136 619 0
335 -67 123 0
-114 112 712 0
-96 325 -650 0
-705 975 584 0
-865 -993 639 0
-330 725 -804 0
971 -588 -864 0
673 934 555 0
-692 -83 257 0
-161 929 100 0
723 782 -121 0
-903 278 875 0
927 -311 -661 0
300 -520 257 0
-577 98 173 0
735 -675 289 0
-571 -150 506 0
124 -811 -755 0
887 -471 -64 0
-411 332 -142 0
997 -736 299 0
176 232 663 0
-793 434 197 0
117 814 -929 0
596 -369 -814 0
223 -267 -376 0
12 810 894 0
-191 -965 455 0
-978 744 845 0
49 -97 562 0
732 814 255 0
568 62 842 0
-995 985 11 0
271 -298 -672 0
3 980 -253 0
-226 -913 68 0
858 878 -981 0
461 570 740 0
-23 -137 522 0
639 -37 -412 0
-279 -4 445 0
-243 -840 -64 0
413 -831 669 0
970 -644 -418 0
-973 -736 -398 0
-256 -429 489 0
-432 81 745 0
-298 -43 -919 0
-90 -796 362 0
992 296 -699 0
255 164 -18 0
253 -366 -616 0
533 531 -174 0
277 633 -531 0
-212 448 662 0
-824 722 196 0
-412 -719 282 0
28 -311 367 0
-993 54 288 0
-531 495 -189 0
-122 129 648 0
291 -94 849 0
56 203 494 0
-733 955 -645 0
862 79 -428 0
485 499 -289 0
577 -41 -936 0
722 779 464 0
480 -862 272 0
946 -874 60 0
-579 458 -894 0
843 -33 826 0
-378 -390 456 0
361 -785 -603 0
-978 356 -523 0
-936 -718 -112 0
-750 -29 973 0
763 -512 897 0
948 -986 -332 0
-635 -389 893 0
601 -738 -112 0
-184 627 657 0
-372 260 -321 0
990 703 832 0
473 605 -146 0
517 38 140 0
-153 -374 69 0
263 -902 -313 0
585 400 -118 0
-842 -912 949 0
-686 -5 -786 0
460 -973 -538 0
-552 -524 423 0
221 559 180 0
-382 -98 -821 0
901 921 -685 0
-804 967 822 0
-210 -474 -346 0
-724 -469 889 0
-318 -188 -630 0
-764 -555 374 0
-228 729 -377 0
-115 996 -909 0
-50 986 -976 0
-579 655 516 0
34 -316 164 0
408 -254 920 0
-24 -631 369 0
-60 928 -12 0
-101 -246 601 0
600 106 -279 0
-201 -268 811 0
-187 -175 -349 0
666 445 -144 0
463 540 28 0
-318 -287 413 0
-549 640 -972 0
44 229 -708 0
232 -557 963 0
-633 -673 846 0
380 715 175 0
-599 -150 -226 0
-535 99 -609 0
39 -916 -596 0
183 -944 -887 0
-908 554 -687 0
-816 -460 -433 0
77 -937 -70 0
-355 147 -157 0
-875 180 104 0
-50 -606 -165 0
778 -675 966 0
-947 798 -989 0
-62 981 -127 0
-472 -417 176 0
171 -285 550 0
896 -204 722 0
-579 -622 -604 0
-26 -280 172 0
580 494 123 0
974 -33 662 0
-919 977 -114 0
-220 -954 331 0
-134 750 133 0
956 433 -173 0
736 -496 534 0
132 217 103 0
340 849 -383 0
-240 -873 -466 0
129 -246 -327 0
-475 -582 991 0
-821 237 482 0
-452 577 824 0
965 97 861 0
-298 -798 248 0
864 -100 -337 0
-694 498 417 0
-862 -231 242 0
-405 -395 -629 0
-977 542 377 0
-177 -33 -720 0
109 563 -66 0
849 432 427 0
221 -694 -930 0
833 -619 -392 0
-274 -219 -299 0
-227 -502 594 0
-850 103 -321 0
431 -609 -43 0
-204 259 137 0
446 -995 242 0
864 -174 -796 0
-917 -524 441 0
866 66 -972 0
-899 16 749 0
135 -601 962 0
422 959 358 0
-647 720 830 0
-568 -774 493 0
806 942 331 0
76 -175 -29 0
-165 -736 688 0
895 -72 260 0
286 -159 -332 0
642 715 -796 0
672 -768 495 0
556 -214 -304 0
-990 699 -452 0
760 973 -667 0
-466 -679 -145 0
-941 -228 -541 0
24 121 -269 0
517 -181 655 0
289 784 919 0
-407 750 166 0
382 -879 315 0
-455 138 -153 0
-182 303 987 0
-927 -764 -17 0
-686 -132 19 0
-462 -945 638 0
-617 -228 37 0
-563 857 -954 0
-554 950 -574 0
-386 372 -309 0
260 -442 -314 0
-931 286 -703 0
-938 732 -538 0
-684 -677 553 0
-582 -899 905 0
-57 249 908 0
-990 -213 75 0
203 925 159 0
801 -641 -242 0
-954 -459 -163 0
-629 -583 271 0
-637 580 664 0
347 536 -126 0
214 -627 18 0
-636 926 -202 0
682 81 481 0
461 56 -504 0
277 461 623 0
5 616 -326 0
612 259 -34 0
186 138 609 0
-618 598 601 0
-857 721 299 0
22 959 477 0
797 -1000 688 0
15 48 -148 0
-120 756 44 0
619 543 25 0
-546 -645 -46 0
-840 55 831 0
618 -766 874 0
