p cnf 500 1000
391 258 179 0
-34 222 298 0
247 -94 333 0
-185 24 255 0
302 -441 -348 0
270 403 -368 0
351 -191 289 0
-144 223 -452 0
389 485 471 0
-478 439 296 0
-83 -14 108 0
-332 139 -229 0
-324 92 483 0
-33 89 6 0
-311 20 -497 0
332 13 -252 0
-164 232 -462 0
185 448 -429 0
161 292 34 0
-462 381 98 0
270 53 145 0
381 -36 264 0
-98 -255 195 0
184 105 -200 0
-305 66 -358 0
-313 403 235 0
-36 239 300 0
298 400 401 0
-312 -266 27 0
-472 -254 499 0
126 451 -105 0
256 39 -137 0
465 -485 -274 0
-120 274 -257 0
52 -287 -191 0
-485 440 12 0
-462 -230 259 0
-300 -260 287 0
407 -298 -31 0
49 211 95 0
-279 -486 319 0
-178 -330 152 0
-451 -374 81 0
-219 367 -260 0
-169 -449 495 0
261 -122 -222 0
-98 326 367 0
-189 -424 -344 0
-321 -154 -111 0
-181 16 -326 0
-187 494 286 0
-444 364 -112 0
-407 -159 -293 0
124 -369 111 0
381 -155 -199 0
458 -18 -470 0
439 -17 -209 0
-201 10 -32 0
-241 -374 -50 0
-34 319 -495 0
159 -294 -170 0
451 348 36 0
73 446 488 0
414 182 -410 0
283 251 -342 0
-102 449 -64 0
-108 -275 13 0
458 156 460 0
-251 42 -448 0
158 -330 -217 0
472 426 -183 0
-228 420 -246 0
-181 -10 -494 0
344 -484 -13 0
433 95 -268 0
-414 -495 98 0
-214 338 340 0
495 258 476 0
453 30 -63 0
-56 -469 -192 0
-71 108 307 0
-471 -460 -283 0
-112 -180 255 0
-463 259 221 0
-438 72 -477 0
-480 379 303 0
29 57 172 0
-131 -360 385 0
-143 -250 342 0
-365 219 192 0
343 -385 325 0
113 369 -207 0
158 132 80 0
370 -388 -80 0
214 -8 -133 0
-484 -437 -231 0
343 71 412 0
290 279 -24 0
248 -446 -42 0
310 -211 341 0
449 -293 -206 0
231 -273 245 0
234 -390 3 0
122 231 391 0
314 24 -88 0
-94 -483 196 0
-478 391 152 0
-389 -4 -261 0
216 -272 -309 0
-81 -9 75 0
-8 -498 115 0
-11 448 10 0
-471 -389 -65 0
367 280 244 0
-11 -95 283 0
-402 413 73 0
-164 476 284 0
360 -118 263 0
258 162 -319 0
345 334 -199 0
214 32 274 0
-146 -28 94 0
-468 -86 333 0
309 -85 -337 0
-109 -238 67 0
-153 222 62 0
215 -198 -390 0
109 219 -66 0
-241 -171 -458 0
-353 -268 -410 0
-178 308 -125 0
-75 -28 -441 0
152 369 -98 0
288 248 390 0
-271 -112 122 0
-268 371 96 0
438 -468 221 0
84 -74 481 0
433 270 -110 0
425 242 135 0
328 -291 -221 0
-413 12 56 0
411 393 -54 0
376 153 -5 0
319 -262 -206 0
55 236 -257 0
-349 346 -455 0
394 75 -301 0
-152 119 38 0
-419 243 477 0
-246 260 -96 0
-98 137 445 0
-492 -55 -97 0
94 130 140 0
-438 493 292 0
3 337 79 0
-349 -50 298 0
-202 488 -162 0
-203 -236 -246 0
151 -74 -472 0
342 -465 426 0
-374 270 -128 0
-431 45 213 0
487 281 372 0
143 28 -81 0
167 -404 380 0
341 -356 148 0
-228 -38 -157 0
-383 216 -115 0
-30 232 119 0
-332 -140 -39 0
39 -421 339 0
347 459 453 0
141 417 445 0
-253 -19 244 0
17 -416 190 0
-490 329 -254 0
-296 -353 437 0
248 -264 241 0
-357 162 452 0
-323 62 -242 0
94 -32 -354 0
-444 -149 480 0
-257 -478 464 0
-458 133 -276 0
-2 -160 -98 0
487 -147 87 0
-194 -256 295 0
153 44 131 0
487 250 -65 0
-394 360 481 0
55 144 285 0
-201 -172 -188 0
440 -332 216 0
-274 402 -10 0
500 -221 -26 0
247 77 -140 0
-24 442 -121 0
-221 -229 -318 0
384 136 -176 0
98 297 231 0
245 130 339 0
47 133 403 0
231 349 350 0
-358 349 252 0
392 425 480 0
154 -269 -316 0
229 -394 174 0
199 -276 96 0
78 -278 -454 0
-384 -134 -270 0
3 -463 -76 0
106 -172 -424 0
313 329 -474 0
56 -46 292 0
12 -232 14 0
-299 385 -403 0
274 437 315 0
-206 218 373 0
171 498 -463 0
-453 405 450 0
-197 -127 -26 0
-487 70 -347 0
-333 -151 -169 0
-182 -154 304 0
-403 -119 236 0
-482 -499 256 0
-328 222 -143 0
-145 142 -69 0
399 93 -393 0
49 280 435 0
136 398 431 0
-480 312 44 0
151 122 84 0
-477 54 216 0
100 449 102 0
110 96 84 0
-55 -179 211 0
421 220 -485 0
172 48 475 0
-380 427 349 0
470 -167 -281 0
-444 337 224 0
304 296 177 0
37 -177 285 0
49 -14 58 0
98 237 74 0
-130 -149 401 0
-99 241 -4 0
-229 141 -235 0
137 -445 -497 0
142 375 -65 0
208 251 -285 0
327 28 363 0
-371 -374 -51 0
-483 67 127 0
-370 -335 201 0
-253 32 314 0
368 499 -232 0
500 -68 -405 0
-430 294 -345 0
170 -78 -250 0
453 238 -366 0
488 382 -143 0
165 -469 260 0
-312 -355 -270 0
449 -215 -210 0
143 -39 -120 0
-287 -260 239 0
-35 -21 -439 0
429 -294 181 0
-462 -444 37 0
-388 354 9 0
58 16 -73 0
-311 237 -481 0
189 -451 282 0
133 298 -300 0
-216 440 52 0
157 404 261 0
-30 417 -315 0
75 213 111 0
35 393 262 0
-210 -377 -186 0
71 348 273 0
440 -436 -114 0
434 320 -122 0
97 402 260 0
-147 91 497 0
-293 97 475 0
-461 163 -46 0
261 -483 493 0
41 -460 -24 0
406 355 -392 0
268 -413 -2 0
-497 240 464 0
293 111 390 0
440 -375 275 0
-384 280 -438 0
382 345 216 0
-497 -79 413 0
83 414 467 0
-267 -470 -389 0
76 138 134 0
167 -75 -77 0
-282 -41 -438 0
318 -16 -160 0
-480 -403 146 0
469 -268 256 0
385 -134 387 0
-435 333 -150 0
132 -158 -171 0
-73 -476 486 0
-64 -273 276 0
193 -24 -332 0
-19 -403 390 0
-8 167 -154 0
198 498 73 0
-298 19 -319 0
-421 -349 -373 0
19 81 484 0
-489 454 -100 0
-361 -245 385 0
-246 -269 -24 0
44 -36 155 0
75 -208 85 0
-134 -377 252 0
473 244 171 0
181 -279 11 0
471 313 -58 0
78 -307 -324 0
118 -18 -247 0
43 -371 293 0
-182 366 174 0
105 -476 136 0
-123 40 -32 0
319 116 198 0
298 12 -420 0
338 122 -331 0
450 372 -337 0
83 -437 112 0
-176 -102 450 0
444 270 -367 0
402 15 195 0
-404 151 220 0
74 -283 58 0
-106 41 -215 0
237 -105 -3 0
-480 189 284 0
102 42 -420 0
-409 486 412 0
487 251 123 0
435 420 92 0
249 88 -263 0
495 -382 -74 0
-260 -492 -210 0
500 -435 -361 0
-266 -44 265 0
-25 -202 -4 0
213 268 -187 0
285 -163 203 0
-228 310 281 0
-86 129 -31 0
-327 -440 -45 0
-442 168 -271 0
357 182 -294 0
-154 -398 279 0
-182 -307 -409 0
-189 -2 222 0
-39 -99 355 0
-68 134 70 0
-447 70 -282 0
-465 99 -191 0
-165 -185 34 0
257 -314 433 0
-73 -326 455 0
15 378 -432 0
271 -276 -492 0
-362 19 477 0
-125 241 188 0
-467 304 -151 0
-171 -150 -179 0
-481 214 -319 0
-89 -245 438 0
173 328 80 0
484 57 67 0
-453 94 148 0
-301 293 338 0
-86 -419 -153 0
378 3 -28 0
39 162 35 0
-474 150 332 0
472 231 -43 0
-146 -101 137 0
-482 -487 -463 0
299 310 -102 0
480 -380 291 0
424 -429 85 0
20 303 103 0
406 116 -307 0
-387 -234 -78 0
-77 -480 -254 0
98 379 -241 0
-428 -116 9 0
-176 147 426 0
-216 -138 -112 0
446 -426 -324 0
86 430 175 0
54 -290 109 0
281 429 110 0
-319 -196 205 0
381 -463 483 0
-181 17 -220 0
-313 -159 297 0
427 4 364 0
197 434 494 0
-286 -59 -329 0
432 -195 -337 0
-157 32 -109 0
-124 252 386 0
464 468 -423 0
183 311 437 0
419 -4 -216 0
-446 390 386 0
-208 378 -334 0
-244 181 -451 0
-124 248 -42 0
-109 -233 121 0
118 -51 -94 0
-233 120 336 0
109 32 31 0
416 8 -307 0
-238 -119 182 0
63 353 -17 0
480 195 279 0
-34 277 59 0
214 401 166 0
422 -367 -269 0
-129 -329 153 0
-296 323 -331 0
21 -197 53 0
-474 249 -321 0
-80 -4 -469 0
323 153 146 0
286 284 -114 0
390 287 -425 0
232 -269 -101 0
304 72 -313 0
-118 -10 -176 0
259 124 -402 0
-492 204 -157 0
203 -233 -143 0
-462 439 303 0
57 58 -243 0
124 -93 62 0
-390 459 41 0
440 -114 -429 0
-66 -99 299 0
-40 -263 157 0
141 345 -109 0
199 -106 -26 0
475 330 -212 0
35 199 496 0
120 -2 454 0
377 435 466 0
-212 482 20 0
385 384 36 0
302 -122 -351 0
203 -28 -262 0
-253 88 -335 0
-410 156 168 0
110 -28 -174 0
-299 389 -307 0
383 15 -80 0
203 -420 -302 0
77 -222 336 0
221 -278 -33 0
-17 -312 300 0
-316 -297 -8 0
-78 400 430 0
-329 2 453 0
319 447 -411 0
-8 39 38 0
-500 -312 -336 0
-381 293 -400 0
251 33 413 0
-105 -476 205 0
-358 -310 -122 0
-63 -51 372 0
70 442 53 0
38 -344 -226 0
-335 433 203 0
-10 -235 295 0
221 -386 329 0
-440 374 -486 0
123 70 480 0
76 -18 -433 0
-364 -177 -222 0
311 -293 32 0
-489 336 -315 0
-165 349 282 0
315 198 -95 0
-122 284 104 0
388 -54 -449 0
340 199 -20 0
-108 27 497 0
30 337 -106 0
-127 375 406 0
-407 307 -418 0
-203 340 452 0
-440 -459 -143 0
136 -301 -81 0
-101 396 229 0
258 280 -204 0
-261 -132 -203 0
-359 -242 -220 0
-281 283 -200 0
-311 -80 -338 0
-206 432 -135 0
152 396 -212 0
-490 -122 -270 0
158 334 -323 0
-125 412 -210 0
423 -447 245 0
-306 326 -78 0
449 -450 -422 0
452 24 59 0
-199 -26 -91 0
442 -150 -253 0
314 -429 -198 0
174 -190 233 0
372 376 485 0
438 314 -62 0
459 -205 -277 0
114 -337 -165 0
487 -61 -237 0
-168 -493 -289 0
-399 -36 -68 0
100 -40 58 0
-323 -41 428 0
-184 272 -5 0
-197 -177 422 0
116 46 94 0
-373 -57 466 0
-484 343 144 0
-257 -332 386 0
-28 -212 -60 0
-389 -431 371 0
-382 162 125 0
142 347 -380 0
122 94 -278 0
471 -254 -94 0
-75 69 -341 0
11 -298 209 0
-199 171 -300 0
-239 249 -156 0
-154 144 393 0
248 442 -126 0
134 -398 -348 0
215 148 -144 0
336 171 -274 0
-160 -419 285 0
-267 -176 -283 0
-181 -3 -36 0
476 88 -371 0
190 -182 -69 0
210 -357 -316 0
-197 111 168 0
191 40 235 0
-375 -8 321 0
-48 38 314 0
-285 264 -229 0
-219 131 137 0
-447 306 32 0
-336 -468 5 0
260 -405 460 0
259 -116 -89 0
-499 463 405 0
-268 448 -477 0
73 -175 197 0
-24 470 -125 0
-447 197 -7 0
-460 -491 -134 0
94 498 -119 0
-412 2 -405 0
236 500 -18 0
88 -310 -97 0
-157 -184 -413 0
424 204 -486 0
321 359 291 0
-45 -295 192 0
78 224 384 0
46 440 295 0
332 196 103 0
390 134 335 0
285 326 216 0
-496 76 -258 0
-258 -398 392 0
435 223 404 0
207 -364 -192 0
63 124 79 0
-8 -73 -427 0
-268 -383 -293 0
-400 107 -111 0
198 433 463 0
-20 -2 169 0
-373 245 269 0
-331 -175 308 0
-443 425 -312 0
-224 339 460 0
-391 368 290 0
401 -423 -374 0
307 -119 434 0
223 -40 -180 0
-472 168 -466 0
152 32 -185 0
-244 -456 179 0
243 48 -277 0
-116 324 -191 0
-163 419 384 0
336 298 176 0
-2 168 229 0
-359 471 463 0
52 -173 -343 0
47 249 -7 0
-291 409 447 0
36 47 460 0
-308 -440 -157 0
-72 302 277 0
-380 -245 476 0
-42 -498 381 0
-288 176 -448 0
153 357 -156 0
-484 -133 130 0
-414 -491 120 0
375 133 78 0
274 265 328 0
-320 -479 92 0
142 48 222 0
299 -363 -91 0
-443 -256 -121 0
-487 112 -244 0
360 -262 -371 0
-329 443 491 0
-452 317 -171 0
-298 451 423 0
-338 -366 260 0
-79 -84 374 0
435 339 -113 0
-442 485 -320 0
-13 -143 51 0
329 34 -498 0
312 363 -351 0
114 -269 184 0
478 407 413 0
-132 487 426 0
174 -248 -323 0
-123 361 143 0
-20 -463 -22 0
333 463 106 0
469 362 451 0
-278 -386 -146 0
-344 447 -297 0
339 -42 60 0
328 376 170 0
-426 -343 12 0
-81 -151 450 0
39 238 -101 0
-395 42 -240 0
44 -395 30 0
-125 350 -268 0
-34 -180 19 0
4 -369 395 0
132 8 -360 0
-275 -329 -28 0
-343 85 357 0
-17 -59 -473 0
100 173 -7 0
-375 -85 401 0
269 430 -29 0
59 50 -205 0
81 335 -289 0
-121 -342 -209 0
159 -316 14 0
-135 -254 -428 0
-301 -72 -28 0
-430 398 437 0
65 79 455 0
-219 -344 499 0
-5 -469 440 0
348 -345 -302 0
492 321 124 0
-184 482 -84 0
454 -63 92 0
-422 284 -235 0
-190 -425 50 0
-111 458 93 0
407 -54 286 0
-463 -44 -57 0
421 137 440 0
193 -476 19 0
-10 -453 26 0
-237 321 -221 0
439 264 -93 0
82 422 424 0
-446 51 -342 0
-182 189 294 0
62 490 -443 0
419 -17 -227 0
300 -179 -119 0
70 280 36 0
-47 166 366 0
155 56 381 0
256 429 186 0
-426 273 280 0
-61 -111 -321 0
-197 193 446 0
111 198 -456 0
-191 40 361 0
114 132 91 0
79 -125 -126 0
401 -388 -173 0
443 -104 -158 0
-391 -313 -31 0
-323 154 437 0
488 59 -72 0
388 -367 150 0
-27 -432 -398 0
481 -364 -169 0
114 396 132 0
-430 93 -73 0
-437 362 226 0
-487 445 -152 0
499 -44 47 0
-270 233 396 0
418 319 -485 0
302 -437 -454 0
-411 -207 241 0
-123 -347 -199 0
-335 -166 -479 0
24 -351 -261 0
366 -95 215 0
-204 252 125 0
322 -202 485 0
-95 83 435 0
273 -101 405 0
-14 156 -308 0
339 -290 383 0
-32 -252 142 0
-457 -251 153 0
64 226 -71 0
-15 -283 260 0
-248 70 -231 0
255 -294 -336 0
-370 311 -210 0
-25 217 -476 0
143 -413 313 0
-139 -491 -444 0
-487 -215 262 0
388 438 6 0
-381 328 -251 0
452 281 -137 0
-366 -469 -328 0
-101 324 -9 0
182 341 66 0
354 -238 -45 0
422 -438 -2 0
-32 -218 289 0
-196 308 -461 0
418 153 -490 0
-482 85 60 0
-476 -230 -64 0
162 279 348 0
-47 -421 410 0
327 -97 333 0
221 300 -149 0
-318 -358 -469 0
-246 -102 68 0
-351 392 321 0
-323 -95 388 0
333 -132 -492 0
388 -393 345 0
-405 -4 478 0
310 -276 153 0
-44 -173 -288 0
222 488 397 0
485 -89 -65 0
485 188 322 0
-460 330 27 0
-341 441 -267 0
-17 408 260 0
138 238 74 0
-498 -250 -307 0
65 -97 364 0
-189 76 225 0
-479 197 408 0
480 -468 456 0
332 -285 6 0
-293 17 425 0
-486 -331 285 0
-260 290 169 0
249 133 -466 0
-340 208 98 0
327 -10 -34 0
104 -402 -118 0
-77 205 -301 0
-38 -191 -441 0
-473 -38 380 0
-436 -65 178 0
375 -174 -85 0
-263 -26 -202 0
418 351 -217 0
155 225 -37 0
140 211 -421 0
-459 211 414 0
-212 500 -318 0
218 16 497 0
12 153 399 0
59 -52 495 0
60 334 64 0
336 -416 -352 0
346 -320 -156 0
193 277 -8 0
237 -468 306 0
-456 -202 -61 0
-150 -16 62 0
482 157 -314 0
81 -120 -370 0
-434 -376 -8 0
-362 -103 -329 0
-193 -500 122 0
-53 -176 -481 0
404 -395 183 0
-449 -491 -31 0
-74 263 392 0
261 -430 359 0
-189 -127 -37 0
81 -483 -425 0
126 260 183 0
476 -301 190 0
390 260 -312 0
-154 55 178 0
495 227 234 0
312 -136 257 0
463 194 43 0
-90 -40 -77 0
78 -290 107 0
-281 448 -346 0
350 -359 -455 0
-450 241 -64 0
-247 158 -3 0
-58 -90 351 0
-433 284 353 0
-459 270 -417 0
62 318 -121 0
153 -187 -42 0
-40 495 119 0
157 1 471 0
-342 277 -207 0
160 -381 -243 0
-480 -264 -269 0
-457 -321 -122 0
-216 -97 -301 0
315 335 97 0
45 214 455 0
-38 -267 383 0
-300 -477 -222 0
392 68 33 0
-62 -96 165 0
-278 43 -327 0
263 -480 -395 0
-58 360 -98 0
-373 244 -302 0
-246 224 16 0
335 97 -294 0
356 350 196 0
-265 -200 -135 0
-428 116 149 0
227 -328 124 0
-310 -23 -306 0
416 268 -372 0
-404 -367 136 0
311 -177 344 0
346 -263 -227 0
9 -77 407 0
-242 -437 -40 0
-494 -82 299 0
-434 -137 283 0
-261 416 239 0
34 -265 -214 0
-427 212 266 0
-477 -226 466 0
-188 334 -441 0
-497 251 160 0
-125 286 188 0
420 -268 413 0
209 -188 -149 0
470 -91 -365 0
-299 -291 405 0
318 321 49 0
440 343 -342 0
380 438 -24 0
-312 -246 284 0
-195 -284 432 0
274 -128 -139 0
-332 -480 -157 0
149 157 -473 0
157 -9 -140 0
315 102 242 0
188 -117 103 0
-209 -389 -380 0
-352 180 -240 0
-407 -7 -467 0
407 401 -230 0
-15 95 -411 0
-445 -34 -352 0
-328 289 227 0
-2 37 -227 0
-430 -101 327 0
126 297 457 0
243 304 -467 0
-473 344 324 0
-169 -26 -498 0
36 223 37 0
-301 -406 450 0
-441 -468 112 0
403 144 204 0
-215 -8 -427 0
-376 -258 -224 0
-328 -357 104 0
288 12 191 0
-16 23 -491 0
330 472 -185 0
-401 402 416 0
-483 -499 -388 0
156 -429 -324 0
494 -113 -290 0
-250 -405 486 0
-419 342 -448 0
413 267 144 0
144 97 241 0
-159 291 61 0
134 230 -282 0
-247 232 -319 0
-141 -72 -8 0
309 -339 25 0
439 438 454 0
-310 -20 329 0
-7 472 -141 0
333 385 -303 0
-430 -221 -346 0
-125 -6 -495 0
-390 122 -403 0
479 91 434 0
-124 -455 -130 0
-459 -432 -86 0
32 331 -483 0
-162 50 -461 0
43 158 -131 0
-253 -375 137 0
24 -339 -349 0
266 -420 422 0
-416 -423 85 0
423 -440 10 0
210 -410 -62 0
-499 229 -369 0
-214 -482 445 0
260 130 123 0
170 -281 247 0
-386 -486 -16 0
103 -153 26 0
-379 -184 232 0
177 -58 488 0
150 -315 -121 0
-78 37 -91 0
365 76 -208 0
-486 12 500 0
-240 235 -458 0
218 -85 284 0
-355 165 -182 0
102 -61 317 0
239 -405 -27 0
-322 -398 493 0
101 202 424 0
247 -236 -251 0
-297 -378 38 0
375 210 69 0
-38 -399 -498 0
291 129 -29 0
-498 -478 353 0
122 370 475 0
55 28 147 0
95 -308 -434 0
111 -417 410 0
286 416 478 0
293 -354 -164 0
-117 203 176 0
-209 -315 429 0
17 -244 -31 0
292 -218 402 0
349 222 -398 0
