p cnf 500 1000
-400 266 317 0
-428 395 -14 0
-410 -199 158 0
457 49 329 0
379 266 203 0
158 -24 -12 0
-355 238 344 0
322 279 -230 0
-336 391 431 0
-204 150 444 0
477 -146 9 0
252 422 267 0
251 -360 164 0
355 59 299 0
-24 372 -125 0
-238 225 -470 0
-291 -60 163 0
472 230 159 0
250 -472 469 0
80 -397 -203 0
-200 -131 65 0
45 404 -161 0
-96 458 -115 0
444 -177 459 0
267 -116 315 0
-471 262 356 0
-112 262 268 0
-7 64 197 0
-253 -336 -294 0
-27 -175 433 0
-159 255 -109 0
-190 -377 455 0
357 37 -280 0
-146 -163 -6 0
-372 243 469 0
271 -1 235 0
-138 -385 -49 0
308 -225 226 0
8 169 311 0
384 -354 -51 0
-301 52 183 0
-211 -242 296 0
286 -81 -40 0
-196 82 77 0
-412 -95 -272 0
3 -288 -42 0
39 -339 204 0
-237 352 180 0
-46 179 362 0
-182 -440 -146 0
2 343 472 0
-270 -492 -372 0
-36 -212 397 0
257 -171 -213 0
458 -334 405 0
-194 -319 263 0
201 344 -95 0
-495 -133 494 0
-299 -354 -398 0
485 -213 143 0
358 -181 -490 0
-162 -303 339 0
-86 -247 -80 0
-411 94 -490 0
-59 -267 -405 0
314 -286 273 0
267 326 -431 0
-283 -106 -8 0
-456 -390 -19 0
147 277 -55 0
-306 204 -17 0
454 -133 -487 0
-263 -348 -184 0
-496 -119 294 0
192 -39 194 0
-415 271 184 0
26 -348 -106 0
-429 383 396 0
-395 -48 -16 0
284 81 -359 0
423 -433 209 0
-196 -230 292 0
465 40 -45 0
-159 21 -373 0
-168 288 -158 0
67 210 -112 0
209 -115 -187 0
20 332 -380 0
-205 455 3 0
57 225 15 0
-272 452 211 0
-206 477 105 0
-61 156 -483 0
211 158 -15 0
446 492 400 0
-197 -231 -471 0
45 59 197 0
176 289 185 0
-440 -186 442 0
-177 -128 -430 0
-350 -409 -428 0
65 -437 -60 0
217 462 378 0
358 153 -385 0
-300 -403 -404 0
-128 -278 -495 0
-30 203 -487 0
-36 446 393 0
-50 449 309 0
-307 -269 73 0
59 440 437 0
-312 400 390 0
-441 203 -15 0
374 327 386 0
-461 175 -96 0
250 -203 -141 0
-404 267 275 0
-142 112 -496 0
487 -439 -84 0
-283 233 -257 0
-376 -262 219 0
211 -438 221 0
-497 -57 -480 0
-111 -328 393 0
-38 129 -205 0
12 489 244 0
159 -241 -131 0
-488 125 322 0
-29 -255 -423 0
427 34 368 0
113 24 -132 0
449 -52 120 0
-294 179 134 0
-164 442 448 0
-132 -424 480 0
-498 215 168 0
-35 59 96 0
-158 -46 -251 0
-328 266 -476 0
-69 -245 72 0
-251 -413 235 0
186 -297 429 0
-430 -41 -133 0
90 340 -462 0
245 9 -108 0
-455 72 353 0
243 155 427 0
500 87 -25 0
-286 -93 87 0
446 -49 -317 0
-77 -251 57 0
-19 -417 273 0
447 -356 340 0
229 379 -289 0
387 357 -332 0
358 -272 -377 0
8 331 222 0
349 -492 -268 0
392 57 333 0
286 -195 378 0
1 385 30 0
246 409 226 0
18 252 -251 0
302 -408 -338 0
445 -399 183 0
-68 436 -61 0
390 -98 177 0
-144 363 408 0
-231 212 -190 0
-203 420 -481 0
-70 -409 447 0
-256 391 225 0
-424 -327 -62 0
465 -470 444 0
-261 237 481 0
58 -178 -40 0
278 -201 136 0
-42 142 -156 0
60 369 -296 0
492 -195 90 0
330 -313 -449 0
190 78 248 0
63 381 355 0
483 -238 78 0
182 -390 325 0
241 3 -360 0
361 -105 479 0
487 127 -181 0
152 392 -337 0
-401 -37 30 0
-350 13 -152 0
89 -262 -437 0
391 309 263 0
92 28 319 0
112 -32 130 0
399 -405 -230 0
299 -23 -196 0
122 -74 -388 0
50 -486 368 0
-98 -378 -146 0
-173 -448 294 0
124 -5 358 0
-262 -157 -266 0
425 409 -270 0
-43 -50 485 0
-117 -203 413 0
-133 -116 213 0
436 460 208 0
481 -57 -495 0
187 -111 320 0
-492 372 -414 0
329 -481 -498 0
214 -417 174 0
458 -126 -107 0
-241 -327 98 0
-268 -292 444 0
83 -55 36 0
-135 161 -105 0
360 141 -224 0
-232 118 183 0
-266 293 -42 0
140 190 339 0
-134 276 -142 0
-227 448 153 0
-37 -426 -355 0
466 211 -317 0
-357 -483 -440 0
-325 2 -451 0
-433 337 478 0
-38 -454 65 0
-478 -388 459 0
210 337 60 0
49 -356 4 0
-427 115 -16 0
32 -75 107 0
151 214 161 0
35 148 -141 0
-371 -249 481 0
-458 302 113 0
-461 59 438 0
383 231 129 0
148 -217 276 0
-426 -37 335 0
-69 253 276 0
-487 -181 300 0
-133 -335 -454 0
497 78 -225 0
340 -85 352 0
321 192 406 0
135 -128 492 0
238 -217 365 0
-382 -299 -232 0
-441 68 294 0
-105 -191 407 0
500 -307 481 0
176 -253 -296 0
-126 -276 434 0
352 -363 96 0
154 17 351 0
-95 -163 128 0
62 362 -60 0
76 135 -319 0
-202 164 -335 0
-114 144 -472 0
389 -446 -4 0
479 -304 -332 0
-111 -459 286 0
473 436 218 0
-112 -490 -436 0
181 78 8 0
-263 489 -170 0
144 219 -285 0
145 -418 -431 0
443 120 441 0
-462 -411 -119 0
358 -373 -84 0
-198 -288 165 0
-127 -212 -129 0
118 -438 49 0
-315 384 -380 0
-130 158 144 0
-282 162 -411 0
182 272 -326 0
468 175 -481 0
-243 -444 -500 0
-326 -471 -216 0
-351 -178 385 0
409 -314 -257 0
96 264 381 0
393 -335 330 0
-283 -36 182 0
275 -498 194 0
377 -189 -293 0
-67 5 -404 0
219 71 368 0
452 387 -19 0
145 340 38 0
-184 -73 -17 0
-64 -484 -370 0
-311 294 -345 0
-228 -495 375 0
385 153 -496 0
-362 -231 427 0
-16 495 213 0
-101 -160 44 0
-5 -213 -122 0
-194 -254 10 0
-457 -64 407 0
-190 -283 -489 0
221 376 214 0
-314 -240 -111 0
194 111 -390 0
347 94 256 0
-335 280 271 0
490 144 -377 0
96 -257 3 0
156 8 37 0
-263 142 92 0
119 -132 234 0
-229 -363 151 0
-267 198 484 0
4 -344 493 0
175 -354 -42 0
35 -463 407 0
263 -464 325 0
370 27 149 0
-421 29 -197 0
-416 -363 -118 0
-351 -464 468 0
-257 -399 -264 0
411 279 271 0
246 180 430 0
-407 -105 -108 0
321 -231 214 0
101 -168 187 0
294 -64 -13 0
340 -470 -439 0
-444 179 18 0
141 -315 -27 0
-309 419 -1 0
-203 489 39 0
286 203 227 0
-269 -310 -96 0
-233 -395 -308 0
-228 94 -364 0
107 247 -293 0
-425 -398 -489 0
459 489 -406 0
326 148 384 0
-137 -445 -438 0
469 426 -404 0
170 91 -492 0
120 -342 271 0
220 -2 460 0
398 -260 -474 0
-470 283 471 0
343 151 314 0
-43 355 -250 0
-91 -446 -294 0
-393 -43 436 0
-166 214 63 0
-368 165 -230 0
-376 89 -307 0
-336 -396 -108 0
-427 -233 -422 0
-261 -420 -302 0
71 -229 12 0
-162 403 124 0
427 -318 55 0
194 -364 139 0
-257 -129 235 0
175 -122 470 0
-69 92 -396 0
171 472 48 0
125 215 -377 0
303 349 230 0
-360 -274 442 0
8 -367 310 0
-116 -170 -157 0
-191 434 -409 0
119 69 -158 0
482 -168 358 0
-347 -18 196 0
-265 -91 322 0
390 194 454 0
-221 281 -313 0
72 311 74 0
-495 235 204 0
-465 -340 23 0
-413 -333 130 0
-156 -247 261 0
445 -230 -305 0
6 432 237 0
454 235 11 0
439 -190 57 0
-235 495 391 0
-105 -33 -7 0
-300 20 459 0
364 118 157 0
-107 -440 -135 0
285 -426 -273 0
-19 245 155 0
270 -103 261 0
-97 156 -412 0
139 375 49 0
-224 -39 -359 0
442 397 261 0
-276 -39 -44 0
204 -88 383 0
-471 -332 233 0
-288 206 -43 0
411 -19 249 0
86 -404 333 0
-268 -45 191 0
232 135 -147 0
397 485 -412 0
-416 -363 -234 0
436 79 -227 0
-145 -119 -117 0
478 120 -38 0
280 -338 39 0
216 -43 75 0
-104 29 -213 0
256 125 485 0
110 -218 286 0
-399 -374 401 0
108 378 78 0
-321 -277 -228 0
-89 340 -274 0
452 54 295 0
218 -319 67 0
-383 322 -282 0
-150 66 370 0
-396 -63 -117 0
-155 -317 -309 0
194 388 -117 0
333 404 -60 0
260 308 -389 0
-243 413 182 0
-422 -45 389 0
-12 -13 -316 0
287 -197 499 0
-301 -278 285 0
-59 -238 -17 0
450 171 236 0
-360 125 -295 0
-352 -362 228 0
336 -293 77 0
425 -385 400 0
-114 -229 -27 0
21 -77 -382 0
-34 -313 192 0
215 308 -217 0
-51 243 122 0
376 -410 96 0
227 -469 -315 0
-165 -222 -366 0
162 405 459 0
-470 199 -258 0
-364 -267 -354 0
-27 409 -429 0
-14 195 125 0
-140 285 -235 0
-123 -280 -448 0
-367 -377 437 0
-265 157 -354 0
-166 297 356 0
133 106 266 0
-317 171 100 0
322 166 -74 0
101 232 -190 0
-458 -459 -89 0
268 121 269 0
-196 -385 145 0
-237 -387 133 0
-470 108 -124 0
-399 -416 280 0
219 -77 60 0
-463 -176 -201 0
-384 127 318 0
-361 475 -303 0
383 139 -31 0
275 319 -322 0
406 -424 193 0
-237 388 6 0
276 265 383 0
132 483 -87 0
-35 -176 458 0
136 -112 -131 0
-433 -446 -57 0
41 47 350 0
-368 211 132 0
-122 334 450 0
496 -227 -243 0
188 -421 447 0
-74 163 339 0
357 -332 25 0
212 -437 -496 0
479 -116 442 0
-313 124 60 0
478 -191 292 0
-189 -339 480 0
272 338 382 0
-135 158 -493 0
400 -191 398 0
-175 427 304 0
97 -262 -161 0
100 -415 -466 0
375 357 192 0
426 199 -244 0
175 45 485 0
233 -330 -144 0
-24 -154 464 0
-82 -115 -63 0
-292 -200 -487 0
428 332 -51 0
5 441 -35 0
308 8 -247 0
-71 -233 -362 0
233 326 -421 0
18 -99 -262 0
408 389 -99 0
-20 -73 464 0
465 326 180 0
53 -79 -346 0
-340 408 289 0
-380 -19 -35 0
-401 309 -409 0
-232 245 238 0
224 -395 390 0
225 163 368 0
86 441 351 0
241 -331 -199 0
-493 250 478 0
-463 -25 -211 0
-49 344 419 0
167 480 256 0
-176 207 398 0
-376 402 -481 0
343 -192 -278 0
457 -12 2 0
352 68 303 0
-321 -50 384 0
-77 338 184 0
-412 88 -74 0
-499 68 -457 0
315 41 461 0
-455 217 424 0
81 241 485 0
10 311 -25 0
-195 307 -46 0
-208 129 187 0
-86 -278 -266 0
-67 248 52 0
-382 -477 78 0
436 -157 391 0
-36 458 -26 0
144 -203 63 0
119 442 -14 0
127 289 255 0
321 -393 115 0
301 -324 -370 0
-160 361 457 0
401 164 217 0
-319 22 -335 0
317 334 -171 0
388 -295 -260 0
-176 104 -78 0
480 -263 -279 0
-244 -132 -327 0
-411 203 363 0
27 -193 11 0
-99 -207 -117 0
217 -455 107 0
-202 230 -313 0
-437 352 -146 0
32 -196 -361 0
-426 286 42 0
-219 272 -78 0
-3 470 -485 0
493 138 -423 0
-241 -295 220 0
167 -336 -269 0
-430 21 -269 0
40 326 35 0
491 333 343 0
263 -341 -41 0
152 356 199 0
151 141 -40 0
-205 94 -300 0
454 -177 471 0
-450 299 -365 0
-492 114 -217 0
123 -262 341 0
90 -99 -292 0
-262 134 220 0
196 417 190 0
391 -359 85 0
127 380 -17 0
260 -27 -408 0
386 445 -245 0
-324 367 -410 0
-402 195 -275 0
196 -132 332 0
267 31 -8 0
123 -19 -250 0
173 478 321 0
175 134 211 0
-1 56 -144 0
481 -307 -195 0
489 29 -432 0
201 191 61 0
-242 -79 -474 0
-103 151 -201 0
481 29 113 0
-232 49 -177 0
222 113 -171 0
-38 168 287 0
283 483 -379 0
451 -113 -356 0
-118 -106 -298 0
-178 266 460 0
275 220 -446 0
-151 314 433 0
-488 -460 -197 0
198 -221 248 0
383 211 -276 0
125 162 451 0
-144 -326 89 0
-313 391 -89 0
51 -454 -168 0
367 221 -301 0
295 186 -308 0
-104 -453 -349 0
-352 -199 167 0
375 -207 114 0
322 188 -51 0
398 429 301 0
430 -44 -383 0
-18 -24 356 0
-480 120 84 0
103 -235 464 0
-117 -131 22 0
-286 -377 -371 0
178 -237 160 0
-210 -472 -240 0
-88 316 19 0
-183 -110 280 0
316 296 366 0
6 351 -253 0
353 -177 395 0
-135 -188 482 0
-199 171 393 0
-62 80 -213 0
227 -415 175 0
341 -37 16 0
41 -172 -350 0
87 -268 145 0
246 -239 -297 0
-50 446 -35 0
460 124 -442 0
-295 34 243 0
49 363 332 0
-1 387 247 0
-459 -431 495 0
-186 138 -494 0
-220 -386 275 0
421 -144 90 0
329 374 148 0
-422 -494 39 0
-321 -86 488 0
-127 -457 153 0
-364 342 -357 0
339 49 302 0
-349 -129 -2 0
-448 -454 -468 0
95 -1 -472 0
275 191 -246 0
307 -76 20 0
-500 111 -397 0
166 393 -312 0
125 -209 117 0
-351 393 349 0
-483 346 16 0
500 -2 -465 0
308 -23 404 0
342 -260 -247 0
-459 157 288 0
291 -441 -133 0
-307 451 315 0
-299 -143 339 0
202 245 473 0
244 303 275 0
455 414 -398 0
-234 130 253 0
307 -210 -252 0
165 -302 51 0
-495 284 -75 0
-14 -384 -29 0
-500 -282 396 0
-340 438 -463 0
-87 128 31 0
-221 -272 251 0
-310 248 412 0
388 218 -421 0
245 80 187 0
-22 90 28 0
99 241 -330 0
-27 -158 -330 0
15 -438 -82 0
-75 425 14 0
-37 465 38 0
-228 -420 347 0
341 -332 -318 0
-60 -195 88 0
-30 -103 -117 0
58 -417 193 0
331 278 -257 0
500 281 -267 0
-325 -361 -312 0
-143 -137 459 0
-202 -18 486 0
260 23 357 0
276 -415 -9 0
32 119 458 0
-26 296 73 0
495 -118 -458 0
-262 92 246 0
158 125 432 0
429 -17 452 0
161 473 -13 0
275 -104 2 0
259 -413 457 0
-404 -262 239 0
334 -451 -203 0
-406 -60 -349 0
-58 66 -465 0
402 325 -314 0
270 -368 -471 0
-374 257 315 0
-46 -74 300 0
-56 370 257 0
-113 204 182 0
-467 -418 37 0
292 495 -214 0
-362 -80 -40 0
165 -272 90 0
28 34 374 0
226 -200 140 0
365 -48 -466 0
376 156 -320 0
-456 -420 -348 0
160 317 267 0
51 -253 6 0
61 248 -392 0
350 -60 105 0
327 -400 218 0
-46 -279 452 0
-78 -213 46 0
364 188 401 0
447 -53 133 0
337 -186 236 0
238 -454 148 0
250 238 337 0
295 -445 431 0
478 27 299 0
472 86 106 0
-494 -89 473 0
110 -368 290 0
-215 -343 167 0
-95 -65 -223 0
276 -151 188 0
-440 -230 107 0
-54 -212 220 0
308 150 21 0
-206 125 -279 0
-6 -127 62 0
373 192 150 0
378 58 -248 0
-33 465 428 0
-124 -98 -89 0
224 267 -354 0
-466 -134 227 0
333 391 -361 0
479 366 -241 0
-250 -175 295 0
191 -448 274 0
-424 -62 449 0
446 -356 167 0
-18 -408 -467 0
461 -268 226 0
492 386 350 0
-9 284 262 0
-357 -358 -167 0
-62 -34 -481 0
330 -453 439 0
-440 175 -150 0
440 -160 -154 0
189 469 210 0
-458 54 -144 0
-458 -74 -166 0
-407 408 -204 0
30 72 -394 0
241 -316 132 0
406 -251 -483 0
-239 441 146 0
225 192 -33 0
492 -270 308 0
-450 -71 303 0
205 405 -496 0
-451 136 177 0
-11 -436 381 0
323 199 134 0
-250 475 -116 0
-109 -221 187 0
392 291 287 0
-233 -123 -498 0
-490 -64 53 0
-393 32 470 0
-393 433 448 0
-390 48 232 0
133 -151 -16 0
-249 -265 54 0
-366 -124 -236 0
136 300 -474 0
137 -454 414 0
122 93 -281 0
-199 22 -49 0
-140 321 89 0
344 90 -85 0
-73 -383 -169 0
468 228 -287 0
-336 -420 -203 0
-94 -48 -368 0
185 50 -121 0
-64 -283 -385 0
-415 120 425 0
167 -175 104 0
441 -155 192 0
340 306 -72 0
404 -12 338 0
34 -186 315 0
83 -57 3 0
414 8 5 0
-212 304 -167 0
325 -1 276 0
186 354 241 0
181 -186 -450 0
212 494 10 0
175 -278 394 0
180 -248 -458 0
317 113 284 0
72 -372 162 0
-265 368 -47 0
25 -282 253 0
420 316 467 0
-115 263 -150 0
-243 -385 419 0
-141 -466 -378 0
14 -42 -401 0
14 210 157 0
-449 99 305 0
-360 -96 186 0
455 -402 11 0
122 -367 -170 0
494 149 -453 0
-16 79 -239 0
64 30 127 0
162 -262 36 0
375 -102 -326 0
-182 488 -392 0
340 -280 -57 0
-156 379 -97 0
-251 -171 366 0
384 280 444 0
215 -307 -80 0
470 -170 106 0
-8 306 -275 0
-255 185 -257 0
258 -488 -47 0
-332 111 421 0
-336 418 47 0
187 -405 68 0
397 332 167 0
327 116 -248 0
98 -100 137 0
-135 118 226 0
294 351 325 0
-123 182 253 0
349 -384 499 0
75 -28 43 0
-427 69 -126 0
-111 492 -224 0
-380 -382 -188 0
-12 326 353 0
-130 397 489 0
-413 -321 -327 0
498 -224 -372 0
244 -140 -352 0
-441 252 270 0
-468 121 257 0
-495 -1 -79 0
44 -262 440 0
200 217 482 0
-236 218 390 0
-482 -294 51 0
-20 42 -15 0
317 38 -387 0
-493 -104 -464 0
-37 -338 -443 0
-338 292 -138 0
56 -262 -331 0
-125 -472 307 0
-199 -126 372 0
473 -18 4 0
400 459 -263 0
292 179 46 0
-350 24 -369 0
62 -483 301 0
-362 -19 219 0
-87 -495 109 0
390 -458 154 0
439 98 -279 0
-47 -57 -309 0
-405 -6 3 0
-339 -94 -49 0
-17 -472 -254 0
498 -250 132 0
-36 -415 83 0
-224 29 156 0
-451 274 -6 0
104 -39 228 0
-225 429 38 0
447 339 -370 0
27 -174 -302 0
-284 215 -141 0
-377 -496 -366 0
-297 376 381 0
-95 -304 -167 0
-339 51 62 0
111 -236 -323 0
-229 112 -420 0
-208 -72 414 0
70 -99 282 0
-491 466 -370 0
-291 209 -158 0
102 -262 -310 0
-276 -16 403 0
-12 -36 195 0
-196 -302 -328 0
-83 -456 -196 0
46 -132 467 0
69 -496 304 0
-475 -435 -420 0
417 398 -167 0
359 68 324 0
118 326 -432 0
-92 353 447 0
-43 474 -408 0
495 18 425 0
-187 -139 474 0
-21 -354 192 0
-466 119 -75 0
363 475 -49 0
-300 10 -350 0
-318 197 432 0
-311 352 -334 0
39 -366 -166 0
-276 -460 -467 0
389 -321 341 0
106 127 -114 0
308 -495 -136 0
55 142 377 0
-66 90 -436 0
274 -82 365 0
95 263 -290 0
475 58 -21 0
312 403 66 0
-443 60 -80 0
349 237 -225 0
-320 -184 -463 0
28 -489 -164 0
38 -277 278 0
92 392 421 0
-434 -17 253 0
-96 279 357 0
-103 -295 402 0
425 213 -357 0
497 -234 307 0
342 -374 81 0
454 -144 51 0
301 177 -68 0
-23 320 38 0
-44 -158 -202 0
254 -63 -390 0
264 -90 -333 0
34 -107 -259 0
-363 228 -107 0
75 157 103 0
-396 -79 197 0
