p cnf 100 245
3 -2 -6 0
-34 27 -55 0
-66 -80 16 0
71 22 64 0
8 50 66 0
-52 -32 76 0
61 -85 92 0
-49 40 -39 0
-2 65 84 0
-82 52 -43 0
-37 -51 -87 0
30 11 62 0
68 98 -37 0
-14 17 -25 0
4 54 100 0
59 -17 1 0
77 -4 13 0
16 20 -85 0
70 54 55 0
20 -64 -58 0
-55 30 93 0
-88 -25 -79 0
93 -29 23 0
-78 -53 -43 0
-68 -27 -94 0
85 -100 -28 0
66 62 -70 0
-82 -78 -70 0
55 -49 -45 0
7 -1 -37 0
-31 84 38 0
24 20 52 0
-28 -24 72 0
74 91 -95 0
29 -44 -26 0
-5 -56 17 0
-13 -78 -64 0
-75 -76 59 0
-30 53 14 0
-82 40 47 0
-33 17 77 0
61 49 25 0
-45 -48 77 0
-70 90 -82 0
12 90 -18 0
-24 64 18 0
-2 -17 -16 0
-83 46 61 0
-61 36 -51 0
-34 72 58 0
73 48 46 0
90 24 85 0
34 -68 -17 0
76 -84 -9 0
59 26 -33 0
30 -20 -58 0
-71 -9 56 0
-69 -8 -20 0
76 56 65 0
-68 75 -65 0
-54 -78 -28 0
-3 -28 -47 0
-48 -83 45 0
47 52 -15 0
-13 99 -26 0
33 30 -66 0
32 55 -99 0
98 84 44 0
35 -57 69 0
-36 -37 -8 0
83 87 -23 0
-64 -89 83 0
59 19 33 0
-29 54 -8 0
-24 31 40 0
-96 -56 28 0
26 62 -40 0
91 -53 -63 0
42 -22 66 0
-63 -25 -12 0
-69 81 -50 0
-30 -91 -12 0
3 85 -50 0
-19 3 -84 0
40 3 89 0
-99 -78 96 0
45 31 -72 0
-63 -29 98 0
61 -31 -28 0
-24 2 -55 0
-67 -30 47 0
6 70 49 0
-14 -46 -47 0
64 -55 -3 0
-9 -37 -50 0
100 20 53 0
39 -52 -63 0
-96 10 42 0
90 1 96 0
6 -92 2 0
5 -13 18 0
-1 -33 3 0
63 -91 35 0
-15 -81 -69 0
6 -2 -90 0
71 78 -65 0
-90 75 21 0
-60 56 -96 0
-17 6 64 0
88 78 -79 0
-74 -42 51 0
-91 3 67 0
-38 -72 4 0
-98 -99 -71 0
-37 78 -38 0
-60 -65 94 0
-56 -81 12 0
47 -99 -37 0
-1 98 52 0
22 2 -17 0
61 77 -59 0
31 -89 26 0
-85 -2 50 0
-71 55 -42 0
-69 1 -88 0
-79 41 21 0
85 31 63 0
-41 15 87 0
-47 -73 -12 0
-4 2 -27 0
35 22 -4 0
-16 -77 -21 0
50 87 6 0
-1 -73 -80 0
-74 20 38 0
-65 84 63 0
-54 48 -44 0
99 58 -92 0
-86 49 41 0
74 -25 83 0
-19 -85 97 0
-64 93 72 0
-98 -31 -96 0
-24 81 62 0
-57 96 10 0
80 -72 37 0
64 -73 -79 0
-60 -10 62 0
78 -75 -76 0
-64 50 52 0
-22 83 -78 0
-11 22 37 0
-44 36 10 0
34 -25 -64 0
-48 -68 -58 0
56 -82 -8 0
-38 -15 -60 0
-100 -90 -95 0
-47 51 75 0
-20 -2 53 0
-77 -17 89 0
-74 40 -64 0
98 41 97 0
-49 -22 61 0
51 -43 58 0
-86 72 -49 0
82 -90 -76 0
-39 94 -72 0
9 78 59 0
89 -56 75 0
-75 -89 -41 0
-47 -78 60 0
-33 77 29 0
86 36 -67 0
-71 -74 23 0
-77 16 -87 0
88 -93 5 0
-3 58 -49 0
-29 -89 -53 0
3 31 53 0
-29 36 89 0
83 -30 -57 0
73 83 -17 0
81 -15 -42 0
95 15 -11 0
-83 -34 -36 0
-67 47 100 0
-4 -73 78 0
-15 -73 43 0
42 -47 -22 0
-68 -41 -36 0
-96 -65 -34 0
77 -68 -55 0
-57 58 86 0
35 -87 23 0
65 26 5 0
-16 -7 43 0
-47 -76 24 0
-50 -71 -35 0
-41 36 -42 0
78 -30 74 0
48 85 -74 0
-18 -48 -42 0
-13 -12 4 0
32 28 78 0
33 -76 -83 0
-71 100 8 0
-23 -86 -6 0
-54 -35 -86 0
-78 -57 73 0
-39 -18 69 0
-69 -51 39 0
99 71 62 0
9 51 37 0
38 -9 7 0
-71 25 57 0
37 38 -55 0
-50 -62 11 0
-94 -74 -40 0
-74 -56 96 0
1 -59 51 0
-76 10 23 0
75 55 60 0
-72 32 18 0
9 11 -39 0
98 -87 -2 0
-74 -30 19 0
-71 -53 81 0
-83 -68 36 0
-26 31 91 0
47 99 65 0
19 -48 18 0
2 32 4 0
29 45 91 0
58 93 -44 0
89 96 -75 0
-93 -38 -99 0
46 77 87 0
-58 -50 80 0
-78 -47 91 0
33 -35 -81 0
-94 -52 -29 0
-14 24 -27 0
16 -69 56 0
29 -69 -93 0
