p cnf 200 610
170 -185 24 0
80 -160 146 0
-146 -120 -197 0
13 146 53 0
-28 109 -193 0
-72 115 148 0
-109 -154 53 0
47 83 16 0
-58 -161 -121 0
-23 105 176 0
159 -56 9 0
136 -3 -10 0
-79 -155 22 0
186 -133 50 0
-173 105 -184 0
-56 71 53 0
-197 195 182 0
-200 -44 75 0
166 145 109 0
73 -189 -129 0
107 -62 -116 0
-13 -4 94 0
166 -135 84 0
-189 -120 -191 0
-97 112 72 0
59 54 -119 0
200 195 -44 0
-193 -115 -65 0
-156 56 142 0
61 121 55 0
-72 -42 99 0
-40 -194 195 0
50 -101 185 0
54 -55 -77 0
-179 65 66 0
149 44 111 0
-5 114 174 0
18 85 136 0
-200 124 132 0
-167 -53 -9 0
-77 -80 -84 0
-70 -67 125 0
84 80 -30 0
-3 -179 -12 0
165 168 150 0
46 167 197 0
-187 64 144 0
-108 196 -97 0
-144 107 -27 0
-181 73 9 0
-8 183 48 0
118 -88 75 0
-111 183 -148 0
71 -112 10 0
-63 -29 -6 0
-189 -106 -169 0
-133 -159 -105 0
-173 -145 12 0
61 200 81 0
175 -7 57 0
51 95 -144 0
70 -191 165 0
197 -53 -125 0
111 -166 -38 0
-147 -57 -83 0
-157 4 184 0
118 75 77 0
31 -19 -55 0
74 -69 -47 0
-162 -134 -123 0
115 150 -61 0
-16 59 88 0
-195 182 -98 0
-200 113 -31 0
143 30 -116 0
172 41 -100 0
-116 -89 98 0
130 -104 156 0
168 -40 116 0
-2 -101 168 0
-88 176 -135 0
-43 -64 -170 0
92 56 88 0
-34 50 -169 0
-48 126 152 0
72 164 -81 0
199 -131 171 0
-12 -78 -73 0
34 187 -8 0
-122 -157 -13 0
62 92 160 0
-79 36 71 0
112 149 -64 0
118 -193 163 0
-191 -200 -157 0
-96 -148 -72 0
50 -177 -112 0
162 20 -106 0
99 184 -109 0
133 26 8 0
161 15 165 0
19 -94 82 0
-55 17 93 0
-54 -163 -103 0
-148 -5 158 0
-135 -154 29 0
107 18 66 0
28 122 -146 0
8 103 -134 0
161 155 -185 0
49 -123 -88 0
58 152 197 0
-131 96 -51 0
51 -131 -16 0
-113 -110 128 0
-166 135 127 0
163 30 193 0
80 38 69 0
-22 197 -188 0
-161 -66 120 0
57 -12 171 0
112 -113 -46 0
-199 -125 -150 0
129 39 -93 0
5 138 87 0
-133 199 -15 0
-39 97 -59 0
81 -143 153 0
89 30 193 0
165 46 60 0
-5 -187 116 0
-116 -79 164 0
-154 43 79 0
-65 62 104 0
5 -178 -172 0
12 -42 31 0
57 -124 -109 0
-183 22 120 0
-24 -14 -169 0
53 -125 164 0
38 -71 55 0
93 100 157 0
110 -159 -144 0
-22 -100 -79 0
199 16 175 0
-92 2 -106 0
3 143 117 0
178 158 195 0
-33 52 -126 0
-134 31 -13 0
150 -149 70 0
-193 -15 -78 0
-188 -138 -27 0
-102 -141 177 0
134 53 -25 0
-194 -125 179 0
-111 32 26 0
-69 -167 183 0
-81 -106 74 0
192 136 140 0
-137 -119 -180 0
156 -12 -24 0
86 -133 44 0
39 -43 -197 0
-41 53 70 0
101 60 50 0
8 142 -82 0
-10 -52 -59 0
-164 -148 94 0
15 104 -73 0
-106 -36 41 0
-152 -193 46 0
195 2 80 0
195 -110 -128 0
-33 -111 -197 0
-130 61 95 0
32 4 -5 0
-194 124 -104 0
-108 66 86 0
140 24 -65 0
-53 -129 1 0
9 134 -28 0
-61 -3 192 0
4 -98 198 0
-155 -167 102 0
66 -78 -121 0
-128 -101 -184 0
-173 93 121 0
88 -47 79 0
-167 -130 90 0
115 141 -49 0
80 2 -54 0
-170 178 4 0
-149 130 33 0
-127 116 -171 0
147 149 173 0
163 69 -47 0
-144 -52 -47 0
-115 48 -111 0
72 117 20 0
-38 -79 -6 0
-151 -105 -191 0
-49 -6 -169 0
47 158 -181 0
122 59 -66 0
-192 33 -40 0
6 -189 -134 0
146 45 27 0
35 -171 9 0
166 5 161 0
-52 30 -84 0
-158 24 -3 0
-3 142 168 0
-152 195 -88 0
-176 -36 -71 0
-175 -81 39 0
143 -90 -18 0
-151 -123 -34 0
141 -180 -168 0
-4 144 -155 0
151 -60 171 0
-37 -12 -166 0
151 105 116 0
-140 92 99 0
-130 -166 128 0
97 48 -135 0
-183 -119 -87 0
-40 -5 122 0
67 -85 -136 0
101 192 -122 0
198 154 128 0
-1 -111 -17 0
86 56 128 0
27 -30 -164 0
-108 50 -182 0
-136 32 -174 0
-57 -122 -24 0
-134 121 -46 0
47 68 -36 0
115 184 139 0
123 39 13 0
-150 55 -172 0
-94 52 -60 0
-54 -35 -63 0
-97 -135 -37 0
133 43 -4 0
53 -35 188 0
-32 63 18 0
-146 -54 108 0
72 132 -53 0
10 -86 144 0
-119 -67 24 0
-14 22 9 0
-101 3 -64 0
74 -71 16 0
109 -158 -37 0
144 75 -140 0
142 38 185 0
198 169 -11 0
62 20 176 0
97 118 -190 0
47 199 54 0
-147 -29 -60 0
123 -28 106 0
-60 -49 -122 0
178 -131 86 0
-48 -53 60 0
-85 174 27 0
140 181 -197 0
44 177 -138 0
17 -110 -124 0
-98 119 -100 0
121 -156 62 0
-17 -128 88 0
200 -154 -117 0
96 -184 172 0
-164 198 -137 0
-187 199 32 0
-190 159 68 0
-149 3 -27 0
114 -71 -147 0
-63 87 163 0
-189 -115 87 0
52 -106 -6 0
78 -189 48 0
-180 140 58 0
67 139 -111 0
34 142 -177 0
-33 165 112 0
-5 96 -3 0
-35 -6 168 0
186 192 103 0
24 75 171 0
-14 -65 -128 0
-91 -37 167 0
78 113 117 0
-22 200 69 0
-78 -57 110 0
74 136 -68 0
162 51 -126 0
145 6 53 0
-169 85 16 0
-174 -38 123 0
-96 -155 41 0
87 -180 33 0
-90 33 48 0
14 -81 150 0
12 113 2 0
-101 -4 -179 0
-164 -134 -3 0
133 -4 180 0
-76 82 84 0
-198 -76 -189 0
95 177 -83 0
19 -102 121 0
27 119 -30 0
-143 -25 100 0
96 -157 -185 0
-169 -23 -91 0
98 32 42 0
-31 -187 -156 0
20 -82 127 0
35 -34 -177 0
56 -86 61 0
165 -88 -100 0
91 162 -153 0
-166 178 -109 0
97 113 73 0
32 132 142 0
34 -25 43 0
187 -105 18 0
-35 53 140 0
93 -16 -90 0
-135 124 -82 0
181 71 148 0
10 129 131 0
30 196 127 0
188 -2 -111 0
33 6 20 0
-124 -17 84 0
-190 -141 -159 0
-18 -157 -43 0
-142 -94 61 0
93 24 -181 0
-37 58 -36 0
-170 -168 -171 0
147 -159 -116 0
146 -15 -155 0
172 -176 -131 0
91 55 -111 0
-29 -4 101 0
-139 -176 -161 0
63 -180 -28 0
-171 77 117 0
44 -71 -4 0
-93 168 4 0
-139 138 79 0
74 -91 43 0
-52 77 -127 0
-18 -40 26 0
-154 -54 130 0
-141 -5 43 0
-179 -121 -54 0
68 -108 197 0
181 184 36 0
-65 189 190 0
-13 -199 -32 0
43 -51 45 0
104 -122 91 0
200 -198 -181 0
83 -101 9 0
-111 200 -170 0
1 -94 51 0
-151 -103 129 0
123 35 -20 0
-181 -184 183 0
12 85 117 0
148 115 -129 0
99 104 39 0
-75 -18 -95 0
73 95 -113 0
-180 -68 -41 0
123 -159 65 0
-150 -33 -156 0
-98 -139 -40 0
195 131 -38 0
-100 33 123 0
-19 77 -85 0
-200 139 192 0
56 -130 24 0
-43 179 25 0
103 91 173 0
-19 49 -160 0
-126 41 -194 0
-67 57 152 0
63 145 44 0
-90 -111 -7 0
-26 -126 -24 0
19 -189 179 0
110 117 6 0
-139 -91 87 0
144 25 -67 0
-54 70 -113 0
40 41 -7 0
169 56 93 0
156 -149 -77 0
-6 -41 -184 0
-115 143 186 0
120 63 -164 0
-134 -190 -107 0
172 53 104 0
3 167 46 0
126 -168 -196 0
134 139 -76 0
52 -93 -82 0
49 106 -44 0
-46 76 -38 0
-192 -164 100 0
-186 62 112 0
-165 29 67 0
-107 186 42 0
19 -7 105 0
195 196 -176 0
-193 -104 137 0
-89 168 -194 0
-4 -179 -42 0
-89 -176 1 0
39 119 3 0
12 -66 148 0
-44 14 -142 0
-1 -106 48 0
-112 71 189 0
-70 100 194 0
63 -135 129 0
138 29 169 0
168 114 -191 0
-69 125 -11 0
199 172 14 0
189 78 -70 0
1 73 -111 0
-145 -136 162 0
79 -1 -172 0
184 -141 139 0
-196 49 -5 0
-17 -7 -115 0
133 -186 67 0
-187 -4 -174 0
10 3 19 0
115 4 -89 0
135 160 -90 0
199 -158 191 0
-41 -28 189 0
108 74 128 0
-22 135 146 0
157 -176 -174 0
-20 -52 -182 0
101 -127 -117 0
176 86 -164 0
105 -28 -67 0
139 160 134 0
-106 89 -82 0
-107 -160 87 0
41 79 -121 0
-170 -15 120 0
94 -197 -186 0
-101 -114 -154 0
-137 77 -73 0
16 -125 -144 0
44 -49 148 0
-182 -67 -183 0
-144 137 -134 0
183 149 176 0
178 153 -177 0
-56 -197 26 0
178 -131 -98 0
-128 -95 -85 0
-180 10 -149 0
-24 23 72 0
142 145 -174 0
125 -17 167 0
-147 161 -65 0
118 -2 -47 0
-145 31 -41 0
-116 34 -79 0
-12 -117 179 0
65 24 154 0
-79 75 -67 0
-161 149 -54 0
192 118 62 0
-35 87 -112 0
-87 83 -196 0
42 -139 43 0
-129 -84 131 0
149 92 114 0
-138 103 180 0
-177 -15 -18 0
197 -53 90 0
-130 111 -121 0
131 -190 93 0
-150 -167 198 0
-119 -21 -125 0
-182 89 -191 0
-40 -137 195 0
-171 135 -182 0
26 -38 -157 0
30 -86 116 0
40 15 186 0
-97 82 154 0
-32 56 175 0
-185 -67 39 0
-112 34 82 0
-15 136 -86 0
-101 72 179 0
-90 117 -26 0
-62 -137 121 0
116 -122 -30 0
-145 88 125 0
99 -94 63 0
20 -139 28 0
141 -198 -78 0
189 102 -158 0
81 56 -146 0
-74 133 175 0
11 -127 20 0
130 98 -77 0
101 -184 38 0
28 -109 21 0
101 62 132 0
-141 70 -187 0
-67 -126 71 0
64 47 9 0
-36 33 -200 0
-35 -156 -113 0
-141 19 8 0
20 -31 -98 0
-137 -93 172 0
133 -130 65 0
-199 93 -143 0
-62 132 -184 0
62 -42 -136 0
91 169 107 0
34 -106 186 0
138 173 -101 0
-64 109 -104 0
-155 -158 -66 0
53 -19 -165 0
-180 -47 125 0
-74 -43 95 0
-38 -157 -41 0
96 -20 -55 0
-77 -22 -68 0
-174 195 -118 0
36 196 -95 0
-178 -25 22 0
-85 18 167 0
-17 -73 80 0
134 109 195 0
164 183 -30 0
-170 -157 147 0
163 -108 167 0
-69 -196 -124 0
-125 -45 -157 0
-72 37 167 0
-150 -168 92 0
81 57 28 0
35 -136 100 0
80 147 -85 0
113 97 -33 0
37 92 164 0
-94 60 74 0
-82 159 21 0
-63 169 -176 0
37 35 16 0
33 69 -111 0
-70 -173 -197 0
93 -53 -61 0
-136 -49 111 0
-22 -116 -76 0
190 -165 143 0
-172 -169 -139 0
58 -141 149 0
-9 -47 156 0
-98 54 -110 0
11 5 7 0
61 62 -97 0
-144 -3 -195 0
-102 -2 -189 0
-192 -101 -54 0
-31 96 176 0
-151 -92 -199 0
-61 78 -85 0
-44 141 61 0
174 120 132 0
175 -107 -31 0
-9 -71 69 0
-93 51 -123 0
-106 56 -90 0
111 117 17 0
108 -131 183 0
-175 -70 -123 0
-183 58 50 0
177 95 85 0
59 -23 -133 0
138 102 -111 0
-74 -169 116 0
166 -137 -59 0
162 -181 -90 0
39 -14 22 0
-71 123 -93 0
-25 -96 181 0
