p cnf 500 2400
-401 338 -402 0
193 -443 -370 0
172 2 281 0
-475 439 -436 0
-498 22 -238 0
-464 488 260 0
334 -71 -166 0
-64 391 -78 0
-45 194 282 0
138 -435 341 0
-255 476 157 0
36 -268 -133 0
-208 476 122 0
500 -408 -134 0
428 181 -59 0
230 -331 216 0
444 -12 113 0
-415 200 5 0
-351 381 -30 0
259 -63 52 0
9 -461 137 0
-16 67 36 0
-164 -284 224 0
-156 98 338 0
-43 -143 102 0
-465 342 -77 0
-456 27 -268 0
97 -223 -316 0
-311 192 -444 0
174 30 -211 0
-29 -331 27 0
348 -477 48 0
-234 -397 170 0
179 -328 -494 0
-147 -343 316 0
479 261 -64 0
345 -99 184 0
-150 18 -394 0
166 5 -388 0
-160 236 283 0
-203 -346 372 0
-482 136 70 0
-101 -226 25 0
136 -105 180 0
-197 -451 265 0
435 126 -241 0
478 -315 31 0
229 -222 -24 0
430 490 209 0
56 -14 -137 0
-276 106 361 0
-440 -232 -159 0
258 128 133 0
371 -122 87 0
261 1 -93 0
-160 -366 -24 0
446 286 -70 0
-303 -159 454 0
-37 95 -189 0
-210 -57 -499 0
1 365 -139 0
65 -218 182 0
-245 336 309 0
-327 14 279 0
-216 425 409 0
246 57 465 0
-407 -395 -244 0
-374 320 51 0
-191 392 -442 0
139 423 135 0
489 -49 412 0
201 258 260 0
61 -200 -26 0
-46 -242 413 0
-133 92 500 0
254 251 324 0
-457 417 481 0
185 -257 -356 0
-436 212 -219 0
44 -375 -439 0
-457 423 -86 0
-457 -15 296 0
-29 -447 450 0
-460 260 379 0
-159 279 -313 0
-347 434 140 0
371 -115 -256 0
-457 -212 -464 0
-429 494 -416 0
-288 201 443 0
131 -331 -356 0
429 437 290 0
-218 -63 44 0
-277 -129 -181 0
-125 178 87 0
23 202 162 0
108 -188 430 0
-112 467 288 0
248 -42 245 0
236 -96 -171 0
-186 385 323 0
4 121 114 0
156 -334 -384 0
487 -189 500 0
-415 203 327 0
-193 415 392 0
-99 330 415 0
-375 430 -92 0
-427 446 -480 0
86 -451 -65 0
48 -290 -202 0
-342 325 366 0
-21 238 -266 0
362 324 38 0
-102 -453 393 0
-22 -221 8 0
-252 -390 -205 0
161 13 -399 0
-35 -425 -96 0
435 -376 127 0
-177 -489 -425 0
133 -452 -255 0
430 210 428 0
-336 -422 -235 0
-498 -395 -399 0
217 65 83 0
147 383 115 0
439 390 -286 0
-224 -67 -124 0
429 308 380 0
290 449 219 0
430 484 301 0
302 -194 -356 0
446 18 281 0
446 352 382 0
-254 -463 -8 0
-335 23 184 0
-354 -34 -33 0
426 45 96 0
126 -192 -25 0
279 -384 -90 0
62 -174 -32 0
-25 -267 48 0
-237 -225 172 0
7 76 335 0
431 327 -142 0
238 -474 -147 0
-292 -363 344 0
-226 352 112 0
429 -487 229 0
485 -39 466 0
106 375 -310 0
176 -33 -370 0
411 161 -219 0
-68 -97 -60 0
-94 211 -434 0
-337 137 -320 0
404 -192 44 0
422 346 64 0
-280 -401 206 0
150 -355 214 0
465 -44 -64 0
336 377 -500 0
165 -316 -59 0
-263 -205 60 0
-111 -432 331 0
-223 475 11 0
-82 -215 100 0
-165 488 222 0
46 -82 -282 0
417 170 -365 0
326 290 219 0
-324 -418 -489 0
339 -194 -221 0
420 306 -397 0
241 480 -414 0
140 278 243 0
-18 223 316 0
22 -203 -315 0
-324 -48 57 0
-348 124 -341 0
339 -235 -257 0
-153 477 -108 0
350 269 150 0
-119 -292 -387 0
-310 19 -312 0
492 -107 191 0
-165 -298 266 0
60 282 -137 0
357 427 -68 0
-187 -124 -100 0
256 192 140 0
-36 338 283 0
127 -95 -200 0
-268 -269 -17 0
-207 -409 406 0
260 16 -161 0
-168 -149 348 0
472 -168 -439 0
-232 -142 -128 0
-25 485 61 0
280 118 156 0
175 -5 82 0
-390 446 -259 0
-8 411 -337 0
-54 -125 -284 0
-182 346 -188 0
-392 160 -314 0
25 82 241 0
-218 86 207 0
-274 -291 429 0
-341 331 346 0
215 355 -51 0
-167 219 -31 0
-416 -41 -368 0
314 300 251 0
117 484 -416 0
210 -433 -202 0
79 453 67 0
230 334 388 0
-299 -81 490 0
438 -216 248 0
220 169 -143 0
308 216 125 0
158 396 -357 0
464 374 -34 0
-187 -381 305 0
166 334 191 0
-303 -12 -494 0
-28 -207 6 0
100 134 93 0
-24 -75 263 0
-90 152 -39 0
-329 384 323 0
-201 -414 -29 0
21 -386 -200 0
447 247 12 0
192 479 307 0
-255 450 -294 0
-2 439 -430 0
56 -155 127 0
-408 130 157 0
-62 -476 -155 0
286 113 454 0
-7 124 22 0
101 -225 -422 0
179 -197 -203 0
-499 167 -120 0
-472 -245 -498 0
-98 194 236 0
-447 219 -97 0
139 446 454 0
382 -83 158 0
-50 63 328 0
329 442 -417 0
-302 109 -145 0
377 304 416 0
270 8 65 0
-351 -370 -251 0
-336 477 192 0
-482 331 -423 0
110 33 69 0
294 -226 429 0
124 376 -476 0
15 -256 -300 0
149 124 -304 0
-153 -364 367 0
53 -191 -376 0
-277 -216 196 0
-128 74 222 0
188 402 79 0
-234 -353 11 0
-78 444 -234 0
-452 497 -445 0
-269 -190 -258 0
-73 402 -134 0
-263 353 436 0
260 440 324 0
-259 -246 230 0
187 -186 -7 0
33 301 63 0
-239 402 -179 0
-311 -8 36 0
260 426 -228 0
435 178 -215 0
220 330 -187 0
11 -335 -228 0
244 83 331 0
132 -2 234 0
-162 186 -201 0
169 208 398 0
-184 37 129 0
-232 -437 -466 0
-28 -86 -175 0
-179 306 409 0
-101 -266 -12 0
433 191 51 0
-212 -473 -13 0
250 368 446 0
161 43 300 0
229 -359 18 0
421 496 -254 0
-394 495 -302 0
419 -180 -47 0
392 -303 -208 0
420 -305 226 0
-424 -245 -401 0
44 -454 52 0
-449 -493 117 0
-226 485 83 0
-162 -491 -202 0
-378 -349 -359 0
126 34 -67 0
98 -118 110 0
225 -52 51 0
316 24 309 0
-196 217 -164 0
461 -26 79 0
98 353 -149 0
210 -328 -139 0
320 -242 -50 0
-136 206 370 0
440 30 -10 0
-78 185 139 0
494 -313 -136 0
-243 437 -473 0
-358 488 -337 0
-13 89 -397 0
212 369 -111 0
181 -260 206 0
-314 500 133 0
397 60 193 0
369 -446 -311 0
178 -214 362 0
-268 237 -270 0
356 338 -132 0
482 282 147 0
423 -463 -130 0
-56 52 -200 0
20 481 375 0
-276 434 -378 0
-208 -184 -486 0
309 362 166 0
-94 -340 -227 0
-3 371 424 0
-437 119 -309 0
240 200 -412 0
-137 -213 200 0
-196 -415 83 0
77 186 493 0
189 169 161 0
268 -356 -190 0
26 444 -111 0
-464 195 -202 0
61 -462 -456 0
138 16 203 0
-269 356 -302 0
-409 -376 -328 0
-235 -120 -185 0
142 -493 -134 0
-233 -53 -152 0
-461 419 -315 0
202 88 387 0
461 162 490 0
-120 -3 348 0
233 490 473 0
-428 -229 133 0
-292 -284 -18 0
432 -69 -177 0
-99 -123 6 0
-479 240 -245 0
-421 435 -106 0
485 259 458 0
146 500 -5 0
-113 -159 380 0
3 320 171 0
-495 -482 457 0
-20 443 19 0
180 252 -264 0
-136 -336 -173 0
139 492 377 0
-374 442 -55 0
223 -38 -408 0
-346 359 466 0
-287 157 130 0
263 292 -101 0
355 -55 128 0
288 -280 128 0
446 -281 83 0
208 -26 496 0
133 407 430 0
175 381 -194 0
-137 2 -211 0
454 342 -155 0
397 460 83 0
-425 144 -138 0
-69 -161 -325 0
497 58 -232 0
-34 40 -171 0
79 -417 -433 0
169 -137 79 0
-9 353 334 0
-113 -140 -230 0
346 454 213 0
497 -393 84 0
291 150 15 0
57 -154 -222 0
457 -349 34 0
-296 170 149 0
-77 393 73 0
173 -86 463 0
327 -50 -89 0
174 -219 125 0
351 -462 -362 0
-328 69 -259 0
454 -387 -61 0
-234 -85 -273 0
108 -243 -229 0
357 392 -331 0
182 -110 401 0
-204 -80 249 0
-120 -408 -443 0
-175 416 27 0
-415 295 4 0
206 -471 346 0
-6 239 -308 0
-9 113 -108 0
-349 -158 -337 0
434 200 397 0
-55 428 150 0
101 126 -474 0
-404 -122 -192 0
-361 402 -388 0
193 240 57 0
-178 -229 371 0
30 275 -242 0
351 -475 -244 0
-370 321 258 0
69 25 481 0
484 409 170 0
376 211 -424 0
136 -278 171 0
-358 -44 -336 0
300 156 -293 0
-397 431 -326 0
-157 -83 -466 0
-90 287 -269 0
-26 -142 -68 0
120 324 336 0
-267 314 113 0
-283 76 480 0
-210 -199 89 0
422 -418 -187 0
187 -96 -135 0
116 -474 320 0
-157 -51 160 0
-487 183 -404 0
133 -284 220 0
-393 -188 -34 0
-343 -316 -438 0
310 -143 -330 0
-339 -258 158 0
-345 -234 9 0
-320 328 -194 0
-49 161 437 0
-412 -346 354 0
219 314 -97 0
-142 -475 -410 0
428 190 172 0
-376 -437 138 0
-195 200 -263 0
-76 -197 8 0
-421 280 142 0
328 11 207 0
-418 -406 -18 0
317 118 499 0
-266 337 303 0
-107 98 101 0
74 -346 159 0
-145 -333 -486 0
-5 -480 279 0
-319 245 176 0
57 15 479 0
116 -102 432 0
15 -331 191 0
33 101 -73 0
315 -190 -385 0
-437 138 148 0
-452 -290 -232 0
31 309 34 0
-320 -467 -106 0
-322 -133 -224 0
-389 70 -75 0
135 158 -173 0
-224 -456 396 0
-174 -484 -135 0
-448 -414 -66 0
-91 167 180 0
471 492 -220 0
16 212 -291 0
182 6 99 0
431 -452 -386 0
87 493 -178 0
-497 198 146 0
-373 261 302 0
-222 -254 -157 0
-7 -334 -187 0
482 -395 25 0
223 66 -302 0
-144 -496 54 0
46 31 445 0
399 104 -475 0
140 -261 -244 0
206 448 188 0
-112 84 476 0
307 310 -362 0
-218 347 -14 0
-425 -477 94 0
450 -203 242 0
-17 146 96 0
-499 -417 290 0
349 -120 421 0
-142 -67 440 0
128 109 474 0
-31 -181 330 0
456 -165 395 0
122 491 -199 0
374 60 -319 0
205 -80 -237 0
164 -340 -202 0
120 251 131 0
-252 359 -314 0
-346 266 -379 0
-232 251 451 0
80 -149 82 0
-318 -477 497 0
91 -153 -46 0
-326 -128 399 0
437 -62 288 0
242 -102 222 0
-159 -433 -426 0
-94 351 -480 0
436 302 478 0
-65 461 322 0
429 -32 -276 0
-390 447 8 0
204 495 -480 0
-162 -88 333 0
-303 300 -168 0
-285 450 42 0
17 -152 37 0
358 146 -174 0
182 -326 430 0
-143 219 -168 0
378 -220 -185 0
-351 440 -25 0
-221 -138 -83 0
113 -367 -2 0
497 379 -305 0
-397 250 70 0
-141 260 301 0
356 -176 75 0
467 -369 30 0
-284 288 138 0
264 43 60 0
-342 -245 -393 0
-119 291 -416 0
136 -185 -364 0
-192 166 -353 0
-230 369 -276 0
201 469 413 0
-282 -378 -101 0
180 -318 -309 0
-361 348 -255 0
7 387 174 0
-68 -396 220 0
456 459 -268 0
-257 85 -469 0
-452 209 -485 0
420 480 -270 0
-2 119 96 0
-489 362 -233 0
-52 -464 -324 0
-463 384 -142 0
170 -18 66 0
-313 407 -99 0
-144 -155 -300 0
61 -266 -128 0
-101 -379 214 0
190 -194 67 0
-359 -150 123 0
6 79 389 0
-462 -470 -16 0
462 454 372 0
-389 -163 54 0
405 -322 353 0
-24 332 -23 0
306 480 -117 0
363 480 -296 0
-160 180 234 0
379 232 387 0
57 104 -407 0
454 -100 -432 0
-262 439 -324 0
55 362 71 0
201 -407 -9 0
345 10 97 0
445 -92 360 0
453 -397 -498 0
170 -97 -489 0
-414 -420 230 0
-342 -257 442 0
441 123 -315 0
-352 -377 -159 0
305 373 432 0
-301 255 52 0
-375 353 419 0
481 389 317 0
-157 310 12 0
224 235 -344 0
314 433 -487 0
-335 452 82 0
403 231 306 0
199 -347 236 0
227 -21 -188 0
338 -113 45 0
-104 241 490 0
-434 387 -385 0
231 -434 -343 0
288 -465 -60 0
-236 -260 -8 0
-340 424 181 0
388 -498 290 0
487 -294 362 0
215 470 -301 0
-278 -264 63 0
-212 -354 -207 0
-119 -475 477 0
224 -315 -333 0
-121 -122 359 0
305 -419 281 0
246 451 -363 0
121 -262 200 0
-447 432 42 0
270 -359 115 0
-432 -370 129 0
-399 110 404 0
356 -212 495 0
35 -350 -460 0
460 426 131 0
-224 64 -28 0
352 -363 69 0
-402 103 -15 0
-231 -116 353 0
81 153 395 0
81 -293 143 0
320 -190 423 0
481 216 -359 0
85 -94 -395 0
-167 -317 -190 0
73 453 189 0
364 -471 -110 0
51 382 -53 0
-230 236 120 0
-362 7 -389 0
15 -177 -71 0
370 429 -448 0
-177 333 203 0
444 -258 -469 0
336 -495 -12 0
-442 -478 -463 0
68 -194 -227 0
135 -264 -364 0
-295 462 -244 0
173 498 -163 0
-99 300 -286 0
480 173 -15 0
214 390 24 0
-297 344 178 0
-373 -82 -496 0
226 437 349 0
157 456 -374 0
-51 -302 -316 0
71 242 -328 0
452 157 -410 0
360 174 417 0
369 240 173 0
145 -409 74 0
439 -299 -49 0
-353 270 -135 0
-397 -362 344 0
-430 -320 362 0
-350 -471 -377 0
-126 52 -62 0
153 410 -266 0
253 106 -123 0
-129 -154 -45 0
-152 4 469 0
-218 -142 465 0
56 104 -432 0
-238 279 -36 0
89 232 -211 0
110 83 337 0
268 -400 493 0
89 -92 -236 0
-493 455 312 0
241 37 369 0
-121 308 -276 0
-407 -316 -44 0
-111 -300 434 0
41 113 421 0
-375 -272 -31 0
30 112 42 0
208 269 257 0
-69 -6 -417 0
492 -489 -394 0
-443 -223 376 0
495 33 348 0
170 197 -179 0
-355 166 370 0
206 -253 -174 0
307 187 362 0
262 -315 -108 0
493 246 -172 0
-444 306 263 0
46 -411 -260 0
17 160 -158 0
-74 -35 146 0
-111 394 -52 0
-129 14 -385 0
33 391 234 0
-375 303 68 0
135 342 -228 0
-150 -292 228 0
-69 284 309 0
-207 271 53 0
438 -55 -420 0
470 -214 -120 0
-126 289 105 0
360 -414 256 0
-412 -186 478 0
-105 112 196 0
459 333 36 0
332 338 -114 0
301 499 344 0
-291 147 275 0
334 -185 -369 0
355 -201 -476 0
458 -357 68 0
-140 309 343 0
-19 -148 -452 0
402 -138 -367 0
48 -339 -62 0
-166 -312 -464 0
37 -185 313 0
364 48 -440 0
-364 -123 500 0
372 -157 -477 0
-170 -281 -440 0
-288 -407 -98 0
37 133 -417 0
468 267 497 0
380 430 289 0
260 188 231 0
-384 -39 -480 0
-224 -337 221 0
-404 175 8 0
40 143 173 0
124 488 487 0
-410 -494 -431 0
155 134 -16 0
457 -341 -144 0
193 -247 -368 0
-166 282 -201 0
122 46 -500 0
406 -418 -405 0
162 -103 -248 0
-41 -445 301 0
-215 11 467 0
-32 154 -471 0
214 159 340 0
348 336 470 0
-85 -461 184 0
273 469 -226 0
28 390 -466 0
260 354 37 0
337 114 -249 0
12 -182 175 0
-230 -264 81 0
-201 363 -380 0
64 -1 -333 0
-30 403 345 0
283 26 -31 0
418 -381 160 0
-447 98 -105 0
-78 167 174 0
179 -364 -374 0
-478 -287 -75 0
-65 258 -235 0
-482 -477 68 0
17 -322 42 0
-66 -455 -56 0
-397 -106 96 0
480 -35 -345 0
-264 -461 179 0
99 -372 409 0
412 44 -169 0
-467 -415 -266 0
-295 385 -426 0
-206 356 149 0
424 -401 349 0
-105 471 164 0
115 -472 -354 0
321 386 429 0
-188 126 -442 0
-113 122 -119 0
-474 239 183 0
210 97 364 0
58 148 -82 0
318 350 402 0
333 -172 351 0
-297 193 386 0
354 -206 277 0
-105 434 12 0
-298 -429 -4 0
220 199 436 0
-89 181 -97 0
498 -181 -215 0
-97 31 32 0
-270 -4 37 0
172 -305 -55 0
-158 -357 -482 0
294 188 398 0
-390 -268 120 0
58 -481 108 0
-127 16 289 0
6 458 -48 0
38 480 71 0
-450 -111 -498 0
420 86 -87 0
-342 -204 -468 0
-333 -357 -309 0
-295 338 236 0
-466 -161 -181 0
198 408 -455 0
298 -76 -1 0
430 459 -411 0
-385 -437 86 0
-491 252 -99 0
-402 367 -96 0
-127 -449 197 0
-225 -472 -427 0
-107 -315 405 0
-360 -4 361 0
43 -340 329 0
328 176 174 0
128 166 45 0
-417 -281 425 0
365 4 -190 0
349 -254 -83 0
-434 -302 49 0
-213 -60 36 0
-173 473 480 0
-8 -216 151 0
-102 8 -489 0
-178 -184 -353 0
36 -223 343 0
130 228 327 0
226 389 -494 0
-48 -264 396 0
34 -466 -497 0
246 69 163 0
-238 -20 30 0
-470 -283 -405 0
-254 295 386 0
248 439 145 0
-451 -63 398 0
-41 -251 417 0
192 169 -493 0
338 171 67 0
-321 -130 -409 0
177 4 -396 0
472 -411 428 0
-54 -90 -105 0
83 170 395 0
123 135 -194 0
340 105 -423 0
330 115 -72 0
290 -157 286 0
211 266 416 0
-149 -322 -379 0
410 160 -461 0
269 403 -313 0
134 487 84 0
254 -201 -45 0
-465 351 52 0
349 14 -319 0
208 -315 -202 0
449 -374 307 0
391 -363 168 0
416 -81 -260 0
-381 -339 83 0
223 -4 25 0
483 -164 -240 0
-335 -4 201 0
-385 228 2 0
468 59 -150 0
203 31 330 0
-341 -56 132 0
-303 136 -87 0
-345 -207 329 0
-313 141 423 0
288 -254 -160 0
-278 -185 -297 0
-411 -176 162 0
-161 102 192 0
-86 70 123 0
497 -355 352 0
339 253 110 0
-244 171 482 0
198 -236 -5 0
-261 222 -476 0
-448 -482 486 0
-143 275 184 0
-191 -208 -176 0
-387 227 74 0
102 498 -84 0
168 216 148 0
-269 -301 -387 0
335 268 -161 0
325 -39 -52 0
-195 106 116 0
-472 -312 133 0
-490 414 -444 0
183 -48 200 0
9 -52 376 0
364 362 386 0
308 58 448 0
-334 -52 402 0
371 -339 -64 0
-145 490 193 0
148 -367 66 0
-107 -342 382 0
59 31 -307 0
-220 -397 -229 0
371 484 138 0
-73 316 376 0
27 -422 305 0
371 -55 -311 0
-242 226 205 0
-99 430 -421 0
-434 461 -364 0
-170 -163 147 0
-95 144 5 0
-134 -96 201 0
97 -482 -107 0
-345 85 313 0
-240 -212 -138 0
81 -158 44 0
-378 113 -85 0
147 363 232 0
-195 498 -59 0
426 -151 -321 0
-168 218 128 0
313 -96 137 0
6 -214 73 0
-322 406 350 0
113 -374 -329 0
465 -196 -180 0
-103 -261 -237 0
-327 362 -347 0
-441 -371 231 0
-320 318 -223 0
-248 404 -240 0
492 251 -411 0
478 -100 -212 0
310 324 68 0
-296 -197 71 0
231 -457 -385 0
419 188 -456 0
-393 -496 312 0
-430 -284 -497 0
-6 -291 248 0
470 -267 -456 0
-403 492 -497 0
-19 194 178 0
-310 447 -321 0
270 -471 -468 0
315 375 -71 0
480 -456 -482 0
-201 237 121 0
-261 -355 66 0
97 343 -341 0
-426 277 -146 0
394 171 142 0
174 -473 463 0
424 -220 93 0
-278 475 -489 0
-128 -377 213 0
-352 325 -473 0
-444 -288 -17 0
-282 351 301 0
327 47 -228 0
38 71 121 0
68 243 -161 0
-433 127 -393 0
129 368 -297 0
16 463 419 0
199 -255 175 0
-273 472 -479 0
31 -270 64 0
467 445 -270 0
-217 493 -450 0
319 119 -164 0
-354 -250 -348 0
-8 410 87 0
-136 -274 -216 0
-284 425 217 0
222 81 212 0
-367 59 -238 0
-219 -375 231 0
63 166 403 0
-141 -301 124 0
-79 365 196 0
114 403 63 0
-57 444 -135 0
-323 -342 307 0
307 359 269 0
48 -488 416 0
-296 270 -428 0
380 -301 197 0
400 -428 -465 0
210 216 209 0
-450 447 -123 0
-314 -433 299 0
-267 196 -271 0
165 232 442 0
-187 22 331 0
212 -232 15 0
-257 241 -316 0
-1 -128 475 0
-21 -43 177 0
-394 -314 -125 0
-499 -54 -145 0
-100 210 455 0
-367 -362 445 0
33 -293 272 0
136 265 125 0
-98 264 -101 0
-178 113 445 0
167 -287 -309 0
239 -312 85 0
-329 -273 474 0
260 482 498 0
-273 99 -466 0
-325 375 114 0
195 -162 248 0
47 153 36 0
-371 324 -18 0
428 -317 119 0
481 185 -186 0
-231 -135 213 0
322 95 104 0
427 -5 -201 0
-204 80 -373 0
172 85 -498 0
-244 -223 -448 0
-63 -73 -321 0
-150 469 490 0
286 -479 76 0
-152 -207 -260 0
223 288 34 0
-117 -60 -469 0
-451 -174 -184 0
156 -180 -87 0
-15 -87 297 0
340 201 293 0
61 -421 326 0
-75 -271 72 0
-160 -99 -304 0
-215 484 -2 0
-228 104 15 0
-451 456 135 0
128 -253 342 0
-7 278 451 0
109 -484 -399 0
-171 -402 177 0
85 -15 440 0
-235 131 -337 0
-492 310 239 0
-429 -138 -294 0
162 -10 -476 0
39 287 -255 0
155 44 -338 0
427 200 -14 0
227 -4 236 0
-261 -224 -334 0
180 -285 430 0
-278 443 135 0
-305 -104 149 0
-453 -459 -67 0
-198 266 -285 0
-461 -460 155 0
-170 173 48 0
13 -377 84 0
313 356 -170 0
251 471 -259 0
387 388 22 0
-293 308 -402 0
-130 268 -162 0
-130 -217 381 0
-281 -457 24 0
-259 -203 439 0
-285 -60 88 0
-56 278 -164 0
340 -449 -128 0
-445 -179 -70 0
242 272 426 0
458 320 15 0
-296 -81 -386 0
84 -122 -497 0
422 -296 188 0
104 -10 -105 0
-297 129 227 0
151 259 -255 0
-231 -420 207 0
-201 265 -146 0
-460 331 -10 0
331 498 -420 0
495 255 -167 0
-340 355 386 0
213 -203 329 0
-16 429 450 0
-141 184 -251 0
427 42 66 0
97 -467 300 0
294 -73 492 0
-136 210 -449 0
419 -116 177 0
-181 -187 -442 0
-111 -122 402 0
-278 194 39 0
284 -345 54 0
260 178 -63 0
-219 90 479 0
239 -278 -182 0
-70 -48 432 0
31 -199 283 0
-351 12 196 0
300 24 -460 0
-495 -385 367 0
-16 -449 434 0
-112 474 414 0
376 166 75 0
141 -442 -357 0
-403 210 -328 0
-157 135 -140 0
-95 235 76 0
461 -234 -349 0
428 99 -118 0
443 -422 385 0
75 -146 151 0
-379 -204 416 0
-297 -50 -335 0
198 -244 395 0
49 499 117 0
-124 -42 -398 0
-466 470 -235 0
159 -331 -364 0
132 489 473 0
-102 -268 290 0
200 370 -280 0
-392 465 -367 0
-69 -290 -493 0
-164 -132 -28 0
356 258 -19 0
178 -13 170 0
-275 151 427 0
495 -52 110 0
-470 -22 -138 0
19 -499 -225 0
158 380 297 0
288 305 232 0
133 -490 -77 0
-214 -19 -322 0
-24 -378 236 0
-331 -387 477 0
436 -30 448 0
-271 101 -268 0
303 -256 90 0
107 392 -407 0
125 -217 437 0
-285 280 -107 0
21 -478 -207 0
-326 -331 320 0
307 177 315 0
-54 -355 -439 0
36 -440 462 0
140 -301 -8 0
-221 289 -67 0
-30 -270 7 0
-235 144 -301 0
-267 -110 -345 0
-158 286 -44 0
-194 -454 -152 0
469 -271 200 0
-139 -402 -319 0
26 -351 410 0
-120 -246 444 0
273 35 -261 0
-443 -50 131 0
-275 409 -103 0
-136 296 -143 0
-487 141 200 0
-322 -464 -383 0
492 -240 -165 0
-149 -307 -341 0
316 -331 -115 0
417 -461 367 0
-282 383 -138 0
100 407 -303 0
-344 256 -253 0
206 -321 -295 0
483 -114 -212 0
113 215 152 0
-57 -114 -92 0
14 -320 -283 0
51 -188 -329 0
-303 260 221 0
-45 -194 354 0
-259 -86 -474 0
-101 358 432 0
66 -421 -382 0
-447 -163 140 0
-56 395 413 0
-180 -54 263 0
-347 492 -162 0
-287 -382 -442 0
-288 -480 -308 0
98 -43 214 0
-488 -457 -70 0
49 312 -288 0
369 462 -403 0
489 -308 -157 0
-113 -422 -95 0
32 43 -499 0
85 -9 -456 0
452 -279 97 0
-256 439 -93 0
-10 -47 173 0
-271 -88 410 0
147 -293 -56 0
65 -391 475 0
131 91 -127 0
-430 -162 -69 0
-483 237 320 0
-169 383 -12 0
358 -497 -496 0
173 61 -228 0
44 195 -253 0
243 380 414 0
-115 7 168 0
205 444 43 0
-160 356 -319 0
-180 -296 -141 0
-82 127 -39 0
-483 -360 14 0
-367 36 -176 0
364 81 -493 0
166 181 435 0
92 78 -269 0
182 -66 -268 0
-446 -330 -120 0
446 387 32 0
9 -24 450 0
-284 -160 419 0
-64 260 333 0
229 -171 -188 0
169 -253 474 0
185 -187 116 0
90 473 252 0
-175 -300 -249 0
-318 62 -268 0
137 -391 -461 0
-13 -446 -493 0
344 -38 325 0
348 -81 -303 0
-268 190 336 0
-70 188 197 0
-153 -450 243 0
-431 6 73 0
137 -200 466 0
-210 -139 -320 0
339 -138 -235 0
-332 149 236 0
419 199 -56 0
355 3 -368 0
-60 341 365 0
467 -480 426 0
-76 146 -104 0
-353 331 -62 0
-461 -115 312 0
43 63 56 0
336 382 259 0
460 93 -288 0
-367 -466 298 0
138 70 82 0
81 154 -391 0
271 -201 3 0
165 -205 290 0
-254 271 -74 0
-60 -107 -426 0
107 -181 303 0
-469 334 -62 0
-306 308 27 0
5 -239 183 0
-121 -362 409 0
436 128 -237 0
-383 295 223 0
-66 -237 -251 0
424 198 -197 0
316 277 -315 0
306 464 315 0
-40 -86 338 0
-73 -451 276 0
-262 413 49 0
118 -445 -487 0
456 -499 414 0
58 -110 -256 0
177 444 -173 0
142 489 -435 0
289 320 -391 0
347 220 472 0
487 -82 473 0
-143 -213 360 0
-134 168 -333 0
347 21 319 0
497 464 135 0
279 315 -159 0
-107 -60 -168 0
19 383 -74 0
434 69 110 0
-242 371 -8 0
-433 -157 -331 0
65 -137 -179 0
-271 409 387 0
-365 -161 302 0
-237 449 8 0
-387 -398 241 0
89 -444 -250 0
371 264 -404 0
-118 211 -299 0
469 231 116 0
-191 76 -244 0
163 -194 -286 0
-41 220 289 0
132 180 16 0
-8 -11 86 0
-240 294 -483 0
-135 -452 495 0
53 -342 483 0
185 -4 -336 0
53 -312 -161 0
377 92 -149 0
-78 -93 -490 0
304 309 -447 0
278 39 -438 0
165 -120 486 0
225 -442 116 0
212 288 463 0
404 361 330 0
311 -402 428 0
4 -274 416 0
129 45 -192 0
402 34 -279 0
27 416 -427 0
433 -255 316 0
265 -381 -28 0
-118 406 -298 0
346 -386 464 0
-198 -252 -374 0
85 57 141 0
-402 -276 -164 0
361 -69 476 0
178 -197 300 0
69 -102 -101 0
253 -74 140 0
467 -429 497 0
-176 -451 332 0
-180 -125 -396 0
-454 -111 43 0
-45 404 295 0
-45 97 459 0
-483 463 7 0
113 147 191 0
407 425 29 0
162 -488 -89 0
401 201 -73 0
-123 380 -297 0
55 152 -343 0
-113 182 97 0
-414 -274 452 0
-71 198 -244 0
-134 215 321 0
100 287 -427 0
485 248 -351 0
295 -391 200 0
327 -211 218 0
91 -368 -315 0
-262 403 -338 0
-393 251 -384 0
-377 -185 -343 0
439 327 477 0
-27 -397 -242 0
488 -388 222 0
-133 144 291 0
109 -363 373 0
35 -134 45 0
373 -235 185 0
50 105 -194 0
-125 -304 411 0
-294 15 315 0
-461 265 114 0
-317 -327 333 0
297 -390 431 0
-368 338 -15 0
-459 -489 214 0
188 -72 403 0
122 345 -292 0
458 427 152 0
-22 126 317 0
-47 258 69 0
-189 -93 136 0
-161 442 138 0
93 -438 -57 0
-465 402 -8 0
187 -284 -426 0
485 -322 109 0
222 -125 25 0
-346 -401 449 0
-38 -147 -183 0
87 452 -327 0
67 -10 314 0
404 -366 -267 0
-356 -20 93 0
-397 -69 362 0
-180 209 451 0
-422 2 -396 0
440 45 163 0
364 100 -239 0
217 -497 164 0
-297 194 448 0
-27 -19 183 0
-482 206 292 0
-2 382 -447 0
485 -70 471 0
311 248 121 0
-30 107 -392 0
319 -100 133 0
160 191 -185 0
48 -298 118 0
-46 133 -317 0
-254 -322 455 0
244 472 390 0
152 -289 422 0
15 281 -178 0
-60 -462 129 0
367 -168 95 0
92 -388 -154 0
295 266 -17 0
-134 2 -108 0
230 198 56 0
-31 -200 -326 0
92 -20 -73 0
224 116 91 0
152 380 -151 0
119 183 -26 0
-219 70 11 0
-109 -13 256 0
-14 -15 480 0
118 -414 212 0
16 305 209 0
106 -38 -424 0
412 146 -365 0
-398 -252 5 0
-372 401 -212 0
139 214 -291 0
-24 119 -446 0
-243 -453 171 0
44 -385 308 0
-457 -485 -25 0
254 381 -87 0
-110 349 -474 0
-336 -181 437 0
-415 -231 -301 0
259 -69 -136 0
458 -254 -420 0
-387 -34 8 0
-365 353 215 0
479 -169 -21 0
-357 -296 -31 0
96 -49 423 0
-314 -378 443 0
232 372 -381 0
-295 -394 -380 0
-212 -343 -384 0
-383 203 -222 0
-453 423 -39 0
494 -198 71 0
-301 468 -181 0
490 -121 114 0
-343 166 210 0
-396 222 280 0
225 -419 -211 0
331 -113 119 0
186 -116 -55 0
331 -430 412 0
26 -352 -76 0
-382 -235 331 0
-472 -6 -65 0
-185 -104 -164 0
-82 378 -313 0
-311 200 292 0
397 -136 56 0
358 -234 -357 0
3 -76 173 0
-113 -394 -242 0
361 -103 -374 0
-448 -200 -391 0
97 292 445 0
357 404 -340 0
107 276 46 0
220 -157 335 0
-23 437 19 0
460 -195 -490 0
179 60 -131 0
111 199 300 0
48 -477 433 0
446 469 -158 0
-265 261 -128 0
-445 156 -32 0
-474 7 -370 0
-290 -117 -383 0
212 -223 -290 0
385 226 -285 0
-215 189 -335 0
54 -384 -485 0
279 284 -500 0
-63 -259 -418 0
-87 -454 -447 0
435 -108 294 0
-169 -336 427 0
-320 -314 187 0
-110 -464 -158 0
-427 -422 -251 0
214 90 -91 0
78 -121 -498 0
-41 -194 158 0
373 72 -238 0
438 77 315 0
-290 -386 -354 0
-31 430 -433 0
-321 -83 338 0
-286 -241 264 0
92 230 -479 0
288 250 -299 0
413 -178 -443 0
200 19 -309 0
-151 392 89 0
-254 -63 174 0
109 -223 -390 0
-358 427 -429 0
-196 -477 -292 0
480 -265 457 0
245 -483 -424 0
-210 40 385 0
81 496 1 0
-369 -50 -240 0
294 -402 251 0
91 -50 -431 0
-137 -413 454 0
213 -38 -168 0
-66 -308 -19 0
-313 -306 -473 0
237 -172 383 0
-195 70 -150 0
340 248 87 0
-178 99 152 0
207 266 -115 0
180 -5 -208 0
43 -492 -273 0
-281 500 -191 0
315 -154 298 0
99 -355 -331 0
330 -204 43 0
380 48 271 0
-34 -105 -162 0
8 436 246 0
183 -43 -269 0
-408 -280 328 0
-56 -243 -388 0
-234 -385 -398 0
-87 340 122 0
-93 -362 53 0
-332 -341 -361 0
-359 211 -83 0
-398 116 55 0
11 246 438 0
434 -156 -215 0
127 474 452 0
324 344 159 0
200 -387 463 0
-186 -43 -440 0
414 -180 276 0
-128 309 -253 0
424 489 -267 0
-312 -314 73 0
17 -312 -172 0
-391 319 -474 0
14 383 -129 0
97 -402 295 0
-148 -244 140 0
-2 56 13 0
-121 -25 490 0
264 -202 472 0
-141 -259 -110 0
-403 210 92 0
-101 -14 -456 0
-489 466 152 0
465 -116 -347 0
-38 413 -153 0
-91 167 -29 0
-248 254 -415 0
-406 -198 436 0
-29 272 -75 0
179 438 -174 0
123 -233 485 0
-176 -284 -188 0
445 -387 286 0
-443 187 -482 0
195 371 187 0
-158 -126 -77 0
-90 -419 -369 0
50 -121 372 0
141 -78 224 0
76 -166 280 0
68 276 174 0
-321 -319 331 0
-161 500 196 0
136 142 -300 0
295 -491 -369 0
-484 -466 -64 0
341 40 -235 0
-97 -113 353 0
-114 9 28 0
421 117 -258 0
-113 401 -218 0
400 -52 201 0
-403 55 11 0
-63 139 81 0
419 -248 85 0
325 -198 193 0
283 499 -476 0
212 310 81 0
53 -287 80 0
-369 -41 408 0
-470 240 -103 0
473 -12 7 0
-55 433 102 0
-305 -480 164 0
-366 -148 305 0
267 -334 -455 0
499 -406 -49 0
10 -325 316 0
-278 -309 -33 0
455 -308 196 0
-299 -352 143 0
437 43 440 0
-448 -420 13 0
-439 408 484 0
397 304 -23 0
251 -198 192 0
-399 294 419 0
287 -216 -246 0
-134 407 114 0
394 102 -373 0
227 417 -423 0
93 -131 -242 0
140 90 -366 0
142 -358 83 0
454 234 19 0
26 -163 -379 0
451 -42 -216 0
488 397 4 0
497 369 292 0
-403 -212 -266 0
257 -500 -414 0
5 191 -494 0
-375 -301 407 0
-248 187 -89 0
-128 -316 -378 0
-199 115 133 0
-299 -273 428 0
109 -486 -250 0
-497 -325 367 0
415 -229 161 0
-445 -19 256 0
443 177 -224 0
-301 77 326 0
194 -90 -49 0
-127 -373 95 0
-229 -26 -293 0
-141 -69 -444 0
26 200 467 0
77 -155 227 0
-471 497 266 0
-498 240 -405 0
213 -195 -460 0
-345 393 -274 0
132 222 326 0
16 -51 358 0
56 326 -197 0
-412 373 170 0
-61 -299 -81 0
-185 242 100 0
-442 -56 207 0
-87 -402 428 0
331 -450 97 0
-197 -385 -370 0
421 220 -130 0
-339 -10 230 0
-61 163 -324 0
-172 -414 -364 0
421 404 382 0
-495 -100 -64 0
-290 334 -50 0
103 -94 59 0
-149 -466 485 0
-338 -273 -194 0
-327 -439 -451 0
-430 280 -167 0
49 118 221 0
48 135 276 0
-164 427 -188 0
436 178 349 0
371 267 -453 0
-408 -409 -346 0
-34 -24 -31 0
80 21 -175 0
-137 -163 469 0
-376 246 205 0
-41 384 145 0
-171 265 -165 0
-217 390 -346 0
122 40 -321 0
376 86 -387 0
-216 -225 62 0
118 -70 -180 0
-291 225 200 0
207 229 256 0
-309 -336 159 0
45 -380 84 0
449 444 451 0
166 178 429 0
-140 364 260 0
-324 -376 -282 0
47 254 217 0
-387 -181 -349 0
-174 -180 -491 0
104 337 -22 0
315 90 -105 0
-278 -249 -53 0
-490 -305 226 0
-14 396 246 0
-39 -21 -456 0
-81 -312 301 0
-426 -216 180 0
449 57 -40 0
274 -391 191 0
-60 -72 -143 0
-27 -465 -372 0
-300 -288 318 0
-401 -224 -332 0
70 281 86 0
-330 -112 297 0
-476 -367 363 0
245 188 329 0
-372 -94 228 0
358 349 -179 0
431 341 273 0
-169 305 30 0
-395 -491 -60 0
-104 -246 -411 0
-185 -267 469 0
347 -333 -176 0
144 417 390 0
-102 -34 -143 0
-253 220 -53 0
427 435 300 0
-349 -166 201 0
306 262 205 0
310 -21 -404 0
-152 -176 -146 0
440 281 -381 0
423 442 -27 0
-367 -207 -116 0
288 473 -53 0
499 274 -377 0
253 298 -36 0
-373 90 99 0
-27 -435 114 0
198 274 454 0
435 -391 -281 0
-224 464 368 0
301 -176 311 0
-213 61 -70 0
-416 150 -341 0
-170 -479 -364 0
229 78 -364 0
267 -227 323 0
-178 -183 364 0
-489 -298 -373 0
39 -448 61 0
339 -353 205 0
-192 500 -247 0
-413 -89 -360 0
208 120 -126 0
-241 -178 -109 0
-394 396 55 0
-345 449 -395 0
328 -199 191 0
125 -473 -260 0
-331 279 -343 0
210 -157 -66 0
-458 -426 -413 0
-204 -307 393 0
103 56 -496 0
285 451 326 0
-314 494 140 0
444 -41 81 0
-418 -89 -282 0
-431 -117 -374 0
400 -346 -336 0
-71 27 -314 0
-285 -474 68 0
-282 -465 403 0
160 50 -359 0
-221 -405 326 0
-69 -409 275 0
-250 -306 67 0
121 397 300 0
-312 -303 97 0
-53 406 168 0
41 482 -3 0
264 -336 -153 0
313 145 -359 0
-50 321 85 0
-106 -337 -102 0
-140 -230 406 0
-59 -494 -20 0
189 93 -20 0
-68 -84 113 0
-411 2 396 0
-451 55 222 0
456 13 -434 0
-443 -36 113 0
303 402 294 0
19 193 -374 0
376 -306 -175 0
-161 -150 -181 0
295 -349 -41 0
-222 -146 175 0
-210 -85 172 0
-151 -154 53 0
-142 -472 -289 0
477 -156 102 0
48 17 477 0
-249 -382 256 0
-494 247 -140 0
-126 375 10 0
279 -96 -363 0
-107 -46 -189 0
-126 272 69 0
-318 95 68 0
-203 -355 -77 0
2 -156 -462 0
-363 -166 222 0
-203 195 353 0
41 59 314 0
-26 -237 368 0
-483 283 238 0
-259 -353 -296 0
182 487 -200 0
446 -304 279 0
247 77 253 0
369 347 186 0
389 81 -404 0
-466 -324 -354 0
289 -62 170 0
-177 78 68 0
447 391 210 0
-404 -36 -252 0
-431 -182 287 0
-314 -384 -311 0
-93 -313 491 0
-479 -396 -166 0
428 223 -321 0
-17 424 -131 0
-94 64 106 0
281 -291 -169 0
228 372 -215 0
73 208 -428 0
166 213 461 0
389 -28 169 0
-361 -437 206 0
178 303 181 0
-427 -445 -395 0
386 91 -63 0
109 125 262 0
166 202 -136 0
216 389 -97 0
-490 -423 209 0
-128 -87 428 0
-44 -274 -217 0
126 -477 402 0
-150 173 98 0
-365 -225 -372 0
472 180 198 0
-58 -322 89 0
274 -124 228 0
-340 436 209 0
378 47 -73 0
276 -337 -31 0
362 -52 11 0
444 -172 11 0
-345 -286 219 0
-241 327 -462 0
-122 -420 315 0
-284 -473 92 0
-270 -37 -235 0
372 267 -382 0
-32 209 -197 0
196 319 5 0
-210 -360 -2 0
-234 -378 -209 0
-284 225 447 0
447 -275 453 0
264 -166 -375 0
-238 87 -296 0
-401 -221 392 0
-472 330 321 0
68 273 24 0
-94 415 304 0
-115 -100 219 0
277 -123 -481 0
274 -408 -317 0
-380 305 248 0
-310 -161 -198 0
-268 235 293 0
322 -399 -5 0
-288 -356 -32 0
-473 170 -253 0
335 -478 339 0
-456 -98 -397 0
498 59 266 0
338 -441 320 0
-78 46 -104 0
406 47 489 0
-149 -110 287 0
-248 -351 -270 0
479 140 -234 0
-277 65 -71 0
-39 66 323 0
324 -262 4 0
149 -340 307 0
-433 -156 -54 0
-109 -347 -86 0
-176 -2 469 0
-331 479 -306 0
-354 184 -100 0
-443 363 497 0
115 -24 472 0
429 -428 377 0
-202 -7 -383 0
-403 -500 204 0
8 140 168 0
399 -428 -129 0
153 -231 78 0
-157 -105 -403 0
-72 62 332 0
-41 82 -166 0
-160 -109 -253 0
53 -250 -152 0
342 -72 166 0
214 336 491 0
167 -377 -95 0
461 331 193 0
160 -448 266 0
-425 -472 159 0
-162 160 437 0
393 -190 -327 0
279 22 -302 0
205 113 -124 0
-198 -291 242 0
405 97 259 0
-441 16 216 0
-406 60 334 0
-109 -68 264 0
-95 405 -206 0
368 -308 -112 0
-17 -232 81 0
310 337 235 0
384 -156 251 0
126 -344 465 0
437 -62 272 0
8 -153 422 0
156 -133 93 0
307 -128 -40 0
-8 -356 242 0
15 -388 -36 0
306 444 -350 0
452 99 -19 0
-142 238 78 0
-218 84 392 0
337 -441 -286 0
398 116 -226 0
18 -455 207 0
146 -36 369 0
-100 419 189 0
310 289 257 0
-159 291 109 0
427 -232 -369 0
419 -301 305 0
408 -437 -373 0
-363 -307 -90 0
44 -445 -405 0
458 -92 281 0
-281 142 265 0
251 490 -195 0
490 -448 175 0
-154 243 239 0
467 138 133 0
458 -131 46 0
79 119 419 0
-122 72 136 0
-82 258 -403 0
165 51 374 0
82 -135 -412 0
263 55 -290 0
-420 68 -256 0
-396 -263 -455 0
-334 -455 120 0
224 84 -353 0
346 163 -358 0
96 -251 449 0
-419 31 479 0
49 -62 -176 0
-248 156 -402 0
-26 -256 -77 0
52 336 -438 0
368 9 153 0
298 450 377 0
-476 463 -438 0
391 -304 256 0
315 -70 -119 0
-199 69 -246 0
-253 333 -319 0
80 249 -383 0
-55 -110 -341 0
238 -296 395 0
259 6 38 0
-191 -193 113 0
-232 217 454 0
460 -353 -420 0
191 -169 119 0
187 446 -207 0
440 -469 410 0
-163 384 418 0
-199 46 -153 0
298 -247 41 0
82 -161 -293 0
-272 -111 180 0
-4 366 -105 0
271 -292 267 0
167 6 377 0
418 -307 283 0
-176 -27 -318 0
15 -374 -392 0
-309 63 -226 0
458 -157 -37 0
358 178 -52 0
-367 -110 179 0
-432 350 -378 0
63 -398 237 0
-131 18 330 0
63 -90 38 0
225 -62 462 0
57 -274 495 0
-96 -428 -70 0
97 -396 75 0
426 -51 260 0
-214 -88 -294 0
-277 -316 -233 0
-111 -100 -348 0
-192 -69 375 0
-345 68 200 0
333 209 -148 0
307 176 -185 0
-479 -339 337 0
454 70 307 0
-263 -291 -3 0
-458 83 390 0
-429 422 -32 0
183 92 -98 0
-305 -55 -393 0
-125 157 -491 0
-85 -151 -348 0
19 -340 151 0
-431 322 -120 0
-478 213 -474 0
-351 10 -340 0
-349 476 -322 0
-186 20 238 0
394 -229 -400 0
-192 293 -227 0
153 -137 2 0
456 -377 413 0
-102 -29 -196 0
-250 -430 -245 0
81 282 163 0
395 -153 337 0
436 218 401 0
356 -203 -30 0
-337 -494 239 0
-198 418 -57 0
439 -386 335 0
-410 -295 -236 0
-337 -137 -358 0
-212 318 308 0
131 -301 -56 0
-141 -246 189 0
285 -166 26 0
-378 259 -18 0
460 -407 -157 0
36 147 -431 0
-140 -352 466 0
-356 378 425 0
387 134 -457 0
-348 -96 63 0
87 39 -363 0
378 209 -217 0
257 -344 -239 0
-469 -234 -18 0
393 369 -334 0
284 -95 -381 0
-150 197 -299 0
35 232 -381 0
453 -195 365 0
-169 195 373 0
335 -488 37 0
465 -55 -52 0
-78 386 -496 0
24 -75 86 0
-101 -99 286 0
299 468 -5 0
52 -124 -282 0
336 208 267 0
-183 22 430 0
-394 401 407 0
256 -10 -135 0
59 -173 156 0
220 337 411 0
227 -43 -189 0
-359 -57 -45 0
-29 -137 -473 0
-322 209 -326 0
393 -144 -182 0
369 -153 258 0
-247 421 -217 0
452 -222 242 0
303 8 453 0
-332 -205 -41 0
-350 -449 245 0
-359 -349 310 0
232 -480 253 0
-373 484 -54 0
135 433 108 0
157 396 -285 0
96 -241 -252 0
306 -203 -450 0
300 241 462 0
9 249 350 0
456 287 142 0
62 9 -410 0
-143 303 -235 0
187 4 485 0
-179 364 143 0
272 -3 169 0
-234 -97 -333 0
-179 -223 -400 0
-79 15 -405 0
464 -359 215 0
35 -325 -18 0
-437 209 -191 0
302 332 211 0
280 -434 268 0
-376 488 -470 0
-20 11 480 0
323 -462 -487 0
-388 405 -138 0
158 -414 41 0
259 -266 -369 0
-89 114 -133 0
125 -181 -195 0
463 -297 51 0
-180 411 -383 0
262 -183 259 0
-438 -89 -363 0
-365 30 214 0
252 88 232 0
272 198 430 0
-336 250 -393 0
233 7 -424 0
-480 117 -175 0
262 -412 400 0
-441 328 157 0
15 485 335 0
-252 -31 372 0
-243 333 -117 0
-379 -20 302 0
-363 128 125 0
-298 -36 112 0
-211 -235 -319 0
292 -123 129 0
16 344 -145 0
36 276 -178 0
-455 -161 -126 0
-387 82 -423 0
-314 184 209 0
180 275 137 0
476 164 -483 0
152 -92 -318 0
316 125 -412 0
303 -56 -68 0
-245 73 -171 0
-460 -307 -317 0
-234 -500 67 0
-432 156 -58 0
-156 310 193 0
-309 -78 130 0
-60 -436 -86 0
40 -497 64 0
-204 410 360 0
-185 -58 -207 0
-22 403 -104 0
68 110 -410 0
60 88 196 0
483 -115 -378 0
189 79 -451 0
426 19 146 0
94 -481 43 0
465 439 -304 0
411 -191 92 0
2 196 393 0
204 295 -183 0
-130 67 -170 0
-213 183 -360 0
-395 116 57 0
5 -423 58 0
-435 -479 -131 0
434 207 258 0
142 442 469 0
381 451 252 0
-36 -331 27 0
-115 -496 500 0
146 -35 322 0
-415 -423 -78 0
487 385 301 0
-443 -8 -347 0
-213 479 71 0
275 -380 -202 0
320 19 173 0
151 -483 -474 0
-398 -479 111 0
179 -118 343 0
-316 237 -28 0
376 -78 -353 0
238 376 314 0
162 420 -188 0
-19 -280 -123 0
22 442 -78 0
-343 -299 -248 0
3 -385 95 0
-29 323 -429 0
150 -191 -391 0
17 -66 33 0
470 490 446 0
119 -421 434 0
-66 459 -487 0
163 -323 -288 0
52 298 467 0
-304 140 -41 0
-361 278 126 0
321 472 -183 0
340 -12 239 0
372 7 -461 0
-460 -394 -108 0
-326 285 133 0
242 -26 -122 0
-360 -96 264 0
278 425 -282 0
-331 149 143 0
-270 250 342 0
-271 101 49 0
-295 265 462 0
391 -182 -305 0
-191 -470 -490 0
163 238 -258 0
399 -288 -218 0
287 -305 -492 0
-303 155 136 0
-36 -275 119 0
-115 -156 -149 0
166 -213 -476 0
-129 24 285 0
-44 -197 -473 0
413 303 -253 0
-292 117 -168 0
-284 297 -282 0
198 411 228 0
-227 406 -205 0
-202 131 -438 0
66 146 296 0
-40 -406 -276 0
283 85 461 0
-489 -110 300 0
167 72 -187 0
-28 479 -88 0
136 -211 -149 0
-239 -112 395 0
183 -402 -32 0
340 -41 486 0
319 -124 -476 0
435 499 387 0
277 -99 -390 0
-35 28 392 0
-327 -34 204 0
-415 434 -445 0
392 213 276 0
295 -240 -312 0
-341 -426 -229 0
-342 -392 -416 0
202 -253 140 0
-492 -450 175 0
96 262 210 0
64 -289 50 0
46 -120 166 0
285 436 -205 0
490 495 -101 0
-207 -294 469 0
112 289 108 0
-71 41 443 0
-83 76 -305 0
166 -445 11 0
-338 386 47 0
56 322 -296 0
95 402 462 0
-93 22 -41 0
-83 -6 98 0
384 -238 -302 0
364 -226 395 0
364 323 70 0
136 -10 -214 0
-377 294 -457 0
-40 -231 406 0
455 142 -91 0
498 84 340 0
-23 337 -333 0
159 178 403 0
330 276 -225 0
-200 359 325 0
318 -64 -45 0
-431 -332 113 0
18 356 250 0
36 -248 -317 0
276 306 -261 0
240 -270 -24 0
36 -322 83 0
90 -410 228 0
276 -404 88 0
383 450 -113 0
35 474 145 0
-302 335 -296 0
-240 451 1 0
265 277 145 0
-251 39 171 0
427 285 -65 0
465 96 -198 0
-237 181 411 0
-61 -211 390 0
