p cnf 500 2400
-159 -405 137 0
-135 -308 225 0
-433 -358 170 0
474 -85 35 0
-428 -386 -279 0
-296 -42 -333 0
-263 -32 -168 0
436 -70 -185 0
450 -473 254 0
350 380 41 0
-66 -396 -429 0
-365 -230 428 0
412 -288 -454 0
88 -229 350 0
176 -156 59 0
284 -336 -110 0
355 257 26 0
236 -21 -126 0
-295 -339 343 0
-40 119 -230 0
-321 126 178 0
285 61 -479 0
253 41 -110 0
340 186 261 0
-129 19 -190 0
-7 -426 -177 0
103 246 30 0
-303 -139 119 0
373 239 454 0
344 -46 160 0
-78 -328 -315 0
-470 310 399 0
65 427 409 0
368 472 -348 0
120 178 199 0
467 299 -347 0
-440 365 237 0
30 -9 444 0
154 242 -404 0
-369 222 238 0
278 35 -82 0
376 287 -410 0
348 127 316 0
-164 -255 -398 0
426 -14 -23 0
447 -404 493 0
-469 86 -256 0
174 -410 -370 0
-365 8 -238 0
256 287 230 0
-476 -216 279 0
265 -73 330 0
-25 152 -146 0
186 -60 -228 0
67 -459 342 0
-340 444 -149 0
108 66 312 0
-261 114 -299 0
325 -430 465 0
-16 348 -355 0
-332 -79 -118 0
-103 -274 102 0
329 -12 282 0
326 -60 -409 0
496 -139 430 0
98 -325 41 0
-450 418 51 0
-232 -406 222 0
-402 -368 73 0
-243 -427 -353 0
340 -236 406 0
-278 468 -366 0
19 234 190 0
-496 158 469 0
349 -194 408 0
-140 348 -243 0
140 -346 88 0
-221 83 -354 0
-148 456 286 0
489 -450 102 0
134 -392 -358 0
306 21 -188 0
-17 111 -287 0
-70 -365 -453 0
-1 -90 -5 0
107 270 396 0
-156 50 -113 0
143 350 384 0
363 -264 275 0
-82 -311 -229 0
-257 -137 219 0
194 235 -116 0
370 301 -59 0
123 122 7 0
279 -405 -343 0
407 440 -167 0
304 -289 449 0
92 72 442 0
360 235 197 0
48 -96 413 0
78 -182 -130 0
-235 -366 388 0
-62 -226 -344 0
-79 283 -395 0
-92 385 -400 0
11 217 429 0
-16 -142 -49 0
-379 -342 124 0
-334 106 23 0
-76 -318 349 0
-301 -469 -120 0
224 -158 -131 0
-449 131 -341 0
-484 -457 -435 0
-186 -7 319 0
74 -473 -2 0
417 412 -3 0
-482 219 65 0
-117 388 408 0
279 -253 469 0
-29 -265 19 0
-49 -125 126 0
476 236 114 0
-415 269 -189 0
-305 -41 -385 0
364 -187 331 0
76 -243 -219 0
451 424 270 0
-359 -60 461 0
460 319 -394 0
-270 -139 -389 0
-167 307 463 0
-254 325 -293 0
-351 -420 180 0
98 -267 -76 0
-449 423 442 0
-130 339 -417 0
496 -431 -254 0
-217 -8 25 0
415 -83 24 0
73 174 -46 0
-379 -480 11 0
-361 -453 413 0
257 324 52 0
58 -390 -231 0
-319 -463 -97 0
-141 -402 -247 0
-200 -64 -405 0
317 224 142 0
-234 468 -442 0
-457 -62 -246 0
-383 218 301 0
-127 -477 -451 0
188 -282 -53 0
79 113 128 0
324 -56 393 0
222 -401 -7 0
397 371 26 0
-70 -224 -154 0
68 -442 -366 0
219 77 -359 0
-459 372 344 0
272 -110 388 0
-377 179 -63 0
140 -30 205 0
-448 -390 -4 0
-61 158 192 0
42 183 25 0
-437 430 -391 0
-327 -176 201 0
47 -72 128 0
77 383 376 0
375 221 -400 0
452 -439 458 0
107 -214 186 0
40 -366 -249 0
217 -345 1 0
-356 -123 -220 0
281 496 -407 0
-326 -334 388 0
354 -408 -247 0
67 -346 250 0
-63 -327 -176 0
-82 -222 -274 0
40 134 -18 0
483 -312 -322 0
2 -49 319 0
375 30 -38 0
306 280 124 0
-453 -73 251 0
300 -466 384 0
-110 255 300 0
358 26 3 0
478 330 -244 0
467 -209 -481 0
-452 -497 -157 0
416 -102 141 0
-103 105 -182 0
128 -73 403 0
313 -319 274 0
265 353 -22 0
428 -144 249 0
-301 93 492 0
338 67 133 0
-202 455 418 0
164 419 -216 0
-127 375 -200 0
-191 -255 288 0
-407 484 462 0
465 -98 228 0
-431 -225 378 0
415 2 -332 0
318 362 69 0
287 -58 -112 0
-2 -291 -426 0
-332 217 406 0
266 132 336 0
303 12 371 0
-473 497 165 0
398 -278 191 0
177 493 471 0
33 269 -135 0
451 -379 103 0
-185 -392 195 0
233 495 355 0
308 365 -280 0
50 -180 233 0
479 110 -420 0
-287 -269 -42 0
-207 -411 39 0
291 116 91 0
123 -374 -347 0
452 -178 76 0
100 -114 53 0
451 233 -478 0
334 -431 471 0
356 -311 -233 0
-250 -437 -214 0
475 250 480 0
26 413 126 0
199 -212 193 0
-227 469 276 0
276 484 -45 0
-275 -37 136 0
91 -72 326 0
-387 455 -277 0
36 -225 -157 0
-151 -152 -146 0
-238 298 234 0
233 173 -206 0
-322 81 -211 0
231 322 -73 0
-41 -303 11 0
205 -363 403 0
208 -412 -44 0
482 266 -429 0
-392 419 -187 0
-41 48 -488 0
-377 -69 -479 0
381 -263 -301 0
-388 -253 499 0
483 380 -328 0
-264 -305 123 0
-89 41 -107 0
-444 333 191 0
198 391 306 0
108 241 -290 0
116 -143 -475 0
-288 -355 194 0
-340 -263 439 0
226 -209 -208 0
-473 -278 122 0
408 324 452 0
230 494 6 0
-115 436 98 0
-319 -482 -27 0
-45 305 -35 0
184 -44 399 0
-189 60 -107 0
136 191 197 0
499 -357 137 0
-70 -207 -192 0
286 451 382 0
8 227 -195 0
484 379 -174 0
-185 -416 -50 0
-368 205 -463 0
-347 -190 -302 0
274 -183 324 0
330 -385 221 0
-435 122 -10 0
-62 -163 -98 0
-6 -19 302 0
99 -397 -478 0
-116 140 420 0
61 -405 173 0
-293 -483 155 0
-472 450 292 0
20 119 -168 0
-193 290 393 0
-313 -136 -328 0
-417 -23 350 0
348 -142 398 0
323 391 372 0
-132 97 -169 0
-91 -447 79 0
77 433 -324 0
-467 186 478 0
41 380 -385 0
488 -249 -196 0
197 19 37 0
259 -18 -339 0
420 253 -358 0
-423 74 8 0
130 -60 -172 0
-358 -348 343 0
80 -443 -428 0
-21 -365 50 0
-363 182 -185 0
441 -497 -385 0
-26 -338 90 0
-416 216 425 0
96 -449 28 0
158 464 490 0
116 80 125 0
-117 -87 490 0
205 -147 22 0
-354 375 -132 0
-156 -394 -469 0
-363 -409 461 0
451 -184 -476 0
-278 13 157 0
-425 323 -203 0
-297 -393 458 0
399 158 -478 0
474 51 -250 0
-106 -190 358 0
-130 26 417 0
-368 -235 10 0
64 -151 -355 0
81 -227 -263 0
-161 -115 -256 0
417 -313 -235 0
-180 287 244 0
179 -281 249 0
31 -471 295 0
148 -445 272 0
20 493 438 0
51 -384 352 0
-295 76 -116 0
101 -277 392 0
400 430 -84 0
46 200 -413 0
334 470 155 0
-368 95 74 0
90 73 -474 0
15 155 403 0
-252 -395 -41 0
400 438 412 0
77 -280 190 0
-200 -37 241 0
-348 -393 48 0
412 69 266 0
471 -353 107 0
-418 317 -251 0
-312 13 -14 0
-54 -96 378 0
166 -192 -406 0
443 -131 -467 0
-453 -131 262 0
317 490 142 0
415 12 -419 0
199 -365 -354 0
49 129 -110 0
430 367 -241 0
53 -171 -84 0
-165 400 152 0
-242 -264 159 0
175 450 71 0
474 -39 -101 0
401 -26 -493 0
-280 -461 -499 0
49 264 -280 0
-303 346 -337 0
-22 469 -261 0
167 -227 -267 0
454 -65 -153 0
444 -498 35 0
153 121 281 0
-69 9 440 0
-358 -98 -400 0
-477 -164 440 0
-34 360 -50 0
-408 305 -153 0
417 47 125 0
54 -33 -121 0
338 -51 -158 0
-183 21 242 0
430 -495 166 0
129 -247 355 0
278 298 173 0
-326 182 -409 0
-209 -276 -394 0
-169 -63 -475 0
234 233 -133 0
-490 30 148 0
-5 321 69 0
-38 375 265 0
-468 -221 -214 0
447 -271 457 0
363 -213 -298 0
48 275 491 0
231 139 -470 0
-19 246 138 0
368 -377 3 0
277 -246 148 0
50 134 -195 0
384 77 -8 0
365 -403 -226 0
234 -114 25 0
333 -353 361 0
-152 -118 -223 0
149 153 285 0
-234 -254 327 0
-12 -252 -454 0
448 99 -76 0
-429 -132 -72 0
-264 446 304 0
184 -411 421 0
-434 -102 185 0
-376 -472 -465 0
-392 -86 429 0
222 137 -394 0
266 469 -112 0
332 -41 -54 0
-493 -312 -159 0
-93 462 245 0
500 -195 476 0
405 -12 28 0
169 136 259 0
360 205 236 0
-404 189 262 0
235 477 -313 0
-430 432 41 0
-176 333 -252 0
29 472 64 0
484 -470 -42 0
-451 -58 276 0
-476 34 -229 0
-453 163 -184 0
153 -122 155 0
-384 419 -146 0
-65 -284 -83 0
-127 153 -85 0
490 335 449 0
-35 472 -53 0
-6 -469 -71 0
-424 232 306 0
120 344 419 0
-477 -27 104 0
-465 -115 -9 0
-315 25 -301 0
152 372 183 0
-492 301 51 0
480 -185 204 0
459 360 365 0
-353 -208 -358 0
-106 48 -455 0
-99 -106 400 0
-444 308 407 0
-261 -236 88 0
-364 -83 422 0
-267 -320 326 0
213 -334 -313 0
-286 101 175 0
-111 203 2 0
-180 -38 -65 0
319 110 -59 0
-112 144 -430 0
-414 454 -381 0
477 86 -341 0
-132 -46 -166 0
158 294 -26 0
26 -451 -151 0
146 183 157 0
-69 201 500 0
394 -61 -183 0
210 282 -99 0
-135 449 -21 0
-358 419 156 0
387 -346 321 0
11 287 -56 0
-87 -170 500 0
381 3 314 0
-163 -208 394 0
417 -177 319 0
93 -98 271 0
-461 28 499 0
-120 69 75 0
-112 400 -168 0
-465 488 -453 0
469 -478 246 0
-225 361 411 0
-119 -4 151 0
-463 101 -97 0
-335 -482 35 0
493 175 167 0
119 65 46 0
-328 -459 97 0
407 179 -262 0
-150 -295 140 0
463 -256 270 0
222 112 -360 0
-136 477 -36 0
-305 260 289 0
249 -52 -16 0
-484 -296 -214 0
-460 282 103 0
291 415 -323 0
101 240 -290 0
470 255 167 0
11 -396 -280 0
-40 87 293 0
-216 -233 279 0
211 -208 -5 0
-403 348 -336 0
-413 -272 414 0
-44 -164 -469 0
317 72 279 0
174 -268 322 0
230 217 -480 0
420 -488 -274 0
-409 337 140 0
-79 -411 -361 0
-267 206 210 0
-470 452 23 0
416 -109 -315 0
241 -39 -494 0
-313 254 -88 0
380 -68 -60 0
-210 -429 -288 0
-150 385 -41 0
-249 -304 -24 0
7 477 82 0
-12 191 -169 0
-74 -236 -425 0
-302 52 442 0
-328 -131 -157 0
135 -132 -89 0
-421 -467 -96 0
-457 301 191 0
-492 -59 4 0
-70 81 -43 0
-221 -476 -392 0
-319 -237 62 0
-217 435 -430 0
383 447 -44 0
-157 -159 19 0
-326 -469 500 0
-158 -34 452 0
416 -476 82 0
445 153 136 0
-200 495 195 0
-277 -85 61 0
365 126 8 0
84 411 251 0
-363 317 -369 0
-227 -133 265 0
387 223 -337 0
-259 -133 478 0
430 26 319 0
96 -475 61 0
127 -292 302 0
-4 297 412 0
278 174 402 0
50 -325 255 0
372 97 -124 0
426 133 318 0
341 317 -450 0
-275 321 -50 0
244 306 99 0
81 466 -402 0
-50 -373 7 0
-148 211 -2 0
333 383 -237 0
-253 428 -282 0
-145 72 -256 0
-288 -203 361 0
464 254 -191 0
-200 -111 278 0
359 -270 101 0
-120 114 -382 0
114 187 -333 0
-10 25 -91 0
-299 -367 -499 0
37 130 -157 0
-275 -308 -15 0
-479 -492 -496 0
448 68 100 0
-303 459 355 0
-209 285 454 0
-374 -244 -380 0
83 258 78 0
81 181 233 0
-44 -373 -488 0
483 500 -75 0
-485 -389 -166 0
-160 -280 364 0
493 383 -137 0
345 -411 -179 0
145 -319 118 0
349 2 458 0
379 200 -417 0
-424 -493 198 0
94 80 -472 0
463 392 -399 0
-500 374 -99 0
-430 463 -52 0
227 355 -463 0
140 -159 -241 0
109 30 201 0
-279 289 479 0
-246 277 -449 0
-462 67 -382 0
-22 -119 -464 0
-406 -195 297 0
202 -472 -414 0
81 307 -352 0
476 196 441 0
175 93 -15 0
-183 -114 -327 0
-221 -29 -191 0
-58 26 -325 0
418 -271 317 0
420 150 -433 0
-499 215 354 0
238 48 239 0
-476 283 52 0
73 137 92 0
-189 304 115 0
-293 -404 -414 0
-104 226 414 0
417 -43 -488 0
-28 -32 -260 0
-116 108 191 0
397 115 327 0
-346 -3 -500 0
340 -173 -369 0
248 -45 -163 0
-467 -387 -462 0
-31 -108 338 0
-239 -73 255 0
-474 424 427 0
64 -279 382 0
-119 -22 194 0
375 -118 257 0
431 -278 -356 0
-411 -128 -32 0
81 73 149 0
80 309 306 0
402 -184 186 0
-339 -421 252 0
-292 -289 362 0
458 -174 -98 0
143 -313 262 0
297 -71 268 0
-128 -321 -46 0
-304 350 -145 0
-177 -291 -298 0
-494 -481 -292 0
-56 387 -412 0
-350 172 -255 0
232 470 407 0
-71 -254 133 0
-282 -358 -272 0
-26 371 -5 0
316 -84 -317 0
-250 6 438 0
453 371 -495 0
71 -390 -385 0
-387 -336 -440 0
-295 -463 -382 0
26 468 -435 0
302 -169 74 0
-119 206 189 0
47 119 -75 0
-194 -469 271 0
-395 470 166 0
-497 342 -272 0
222 339 -229 0
-297 429 198 0
-278 -81 -22 0
-410 -468 -185 0
-153 345 -9 0
278 159 -223 0
-178 -471 133 0
458 -66 168 0
61 328 -427 0
-204 394 496 0
-220 320 237 0
127 109 492 0
-182 50 -48 0
383 -264 465 0
383 236 297 0
-244 152 -58 0
-114 65 203 0
121 248 491 0
497 -31 267 0
311 -336 -356 0
362 -225 -36 0
190 447 -9 0
-83 -413 355 0
-176 -357 -447 0
-468 359 305 0
171 -310 26 0
-138 -303 -311 0
157 70 -500 0
469 -294 276 0
-391 139 -426 0
483 132 304 0
-328 -225 -158 0
54 83 324 0
-449 322 306 0
-358 40 -179 0
-139 -374 -405 0
-414 279 -246 0
-13 460 -115 0
-68 196 -56 0
35 -231 299 0
318 222 445 0
341 -81 -275 0
293 222 491 0
-150 -78 -20 0
-307 206 77 0
-322 -104 495 0
394 -68 379 0
437 -57 422 0
281 78 -89 0
-423 349 -191 0
-36 198 145 0
-335 -153 -466 0
-407 -335 498 0
36 -422 37 0
-454 346 337 0
431 370 -233 0
394 -95 160 0
-304 -309 -468 0
-140 -330 -434 0
117 423 -291 0
299 51 155 0
-9 -144 226 0
388 86 -295 0
126 -244 -202 0
67 -128 293 0
103 12 -11 0
47 304 -479 0
-98 -195 -208 0
-132 9 418 0
-224 -115 117 0
4 -419 128 0
-492 -162 -110 0
-411 -373 423 0
26 199 -403 0
61 462 73 0
-91 -423 -123 0
249 440 -45 0
151 -229 64 0
-212 -377 -429 0
326 61 397 0
-156 -173 239 0
262 -488 -155 0
407 210 -443 0
-168 -156 142 0
445 111 483 0
-488 -30 -18 0
43 35 400 0
-152 159 191 0
-53 -346 -469 0
321 196 -478 0
317 -4 -20 0
-286 254 -208 0
-185 -334 98 0
-273 -301 153 0
-338 -161 112 0
359 99 281 0
383 -344 59 0
287 479 265 0
147 -123 18 0
184 496 -453 0
-178 -169 -419 0
-86 199 -433 0
3 178 -35 0
64 -280 -188 0
-456 199 109 0
-45 17 150 0
-376 -409 150 0
-225 -26 41 0
351 -113 -129 0
497 -35 149 0
-334 351 455 0
-292 -165 41 0
134 -444 -126 0
289 343 431 0
-263 -268 -180 0
-15 382 220 0
-244 338 -388 0
-417 -395 -182 0
115 393 254 0
-126 -66 53 0
293 413 322 0
233 365 186 0
250 -286 57 0
363 -218 -84 0
-141 -67 -435 0
-481 439 374 0
-369 -413 -279 0
-346 -52 227 0
23 -433 278 0
359 473 -73 0
-388 -37 136 0
-148 317 134 0
-248 -382 211 0
452 -437 -18 0
256 -174 -292 0
480 195 325 0
115 -241 -286 0
-37 -341 305 0
239 327 409 0
-413 -159 -485 0
-242 -113 -197 0
-116 407 79 0
-340 -434 -145 0
-30 180 189 0
447 237 -425 0
-266 475 327 0
8 -384 -447 0
454 -468 226 0
-112 400 457 0
391 -338 -255 0
56 343 -40 0
493 70 -81 0
-5 -127 478 0
331 -85 -168 0
244 -139 483 0
183 59 337 0
-241 384 -201 0
468 -77 187 0
131 123 -154 0
-402 367 -232 0
-414 -416 -243 0
287 -252 249 0
-379 -221 -352 0
412 317 -13 0
80 -210 186 0
-183 -375 -419 0
-131 176 -380 0
-403 141 -92 0
-263 -427 186 0
450 180 -167 0
-441 -263 385 0
269 -264 -295 0
-191 382 420 0
-379 266 326 0
-23 295 -363 0
-383 412 -188 0
-215 126 -189 0
-138 -109 -336 0
79 393 96 0
89 57 -386 0
38 -200 -377 0
-316 265 82 0
415 178 38 0
6 461 266 0
-369 -112 228 0
-87 -153 198 0
261 -390 247 0
372 46 89 0
135 -145 451 0
76 269 -465 0
59 -79 466 0
491 322 274 0
238 415 -197 0
-221 -191 452 0
393 306 38 0
-86 -257 368 0
128 -103 337 0
39 113 -181 0
45 449 20 0
-307 -28 35 0
-281 -393 237 0
-120 -106 17 0
409 407 268 0
34 -142 471 0
42 377 -281 0
28 -136 -135 0
83 -167 -170 0
464 45 -275 0
-440 453 246 0
-463 105 -360 0
65 -188 -161 0
455 -365 205 0
-157 442 -420 0
488 -209 -262 0
15 487 185 0
-360 230 -487 0
-263 -494 15 0
-297 409 429 0
-499 -449 -428 0
-274 -208 33 0
-495 -233 -306 0
-381 101 393 0
260 238 -49 0
133 -402 70 0
-450 208 -341 0
442 -365 -85 0
-199 -407 -433 0
26 -381 -316 0
-214 121 247 0
274 -154 -131 0
345 281 -484 0
128 492 -468 0
-459 -361 153 0
53 152 86 0
11 -148 -128 0
11 441 -40 0
109 139 65 0
110 -246 -60 0
-70 -386 145 0
-451 234 -44 0
77 494 263 0
41 -256 -279 0
269 58 282 0
122 -291 -117 0
-185 256 202 0
-471 20 -31 0
-347 21 -267 0
244 338 282 0
433 260 -416 0
-231 426 -173 0
-3 231 324 0
206 285 249 0
94 -440 223 0
399 65 226 0
-99 -428 -297 0
472 464 328 0
-396 -280 -109 0
-297 139 210 0
412 77 -289 0
-123 166 -382 0
-191 127 202 0
474 -188 -264 0
-148 -364 -11 0
155 -176 437 0
271 -347 -292 0
242 300 79 0
-216 -407 -349 0
-182 397 -224 0
148 223 385 0
429 421 -160 0
401 -39 198 0
-220 -410 -319 0
182 400 498 0
182 -333 294 0
-493 -433 -378 0
376 411 357 0
499 383 -55 0
133 259 -415 0
452 -315 47 0
-358 -417 -142 0
-432 462 -144 0
-102 472 -358 0
348 -386 -493 0
428 473 -383 0
-252 -37 -66 0
-99 82 -461 0
-31 334 429 0
463 18 53 0
63 386 8 0
205 193 -23 0
-278 392 321 0
-395 59 332 0
-445 -162 -361 0
-348 378 -459 0
500 -353 192 0
349 485 260 0
-397 114 211 0
365 397 115 0
99 -214 -402 0
378 414 348 0
-37 -58 -59 0
418 123 62 0
-35 -357 -482 0
383 36 470 0
16 -65 -8 0
47 177 -208 0
460 -257 376 0
297 -137 433 0
-144 239 105 0
293 -146 -66 0
-24 50 -140 0
495 110 234 0
466 478 -85 0
205 27 55 0
120 173 -80 0
-66 -91 496 0
294 -89 304 0
312 47 2 0
-468 -133 229 0
276 453 -31 0
-397 240 -120 0
195 492 -216 0
310 260 367 0
-336 -276 -384 0
-392 -97 95 0
111 -490 268 0
-300 -487 -21 0
-84 -485 -348 0
393 101 416 0
-430 -402 -234 0
331 -410 341 0
223 54 222 0
-162 -38 401 0
-52 239 -221 0
-388 130 -327 0
145 136 -83 0
339 453 -193 0
67 -217 -267 0
482 198 470 0
278 -243 68 0
477 466 -33 0
214 -336 441 0
-308 168 89 0
436 233 112 0
369 -162 488 0
500 367 401 0
-339 115 34 0
-223 253 498 0
136 495 -430 0
341 -305 49 0
-44 60 -404 0
-96 -334 192 0
-153 159 387 0
-146 232 -68 0
307 -27 75 0
62 -131 -242 0
266 58 -99 0
-294 -259 176 0
132 103 57 0
-397 -274 -131 0
-484 -394 -396 0
39 434 -70 0
-97 98 -120 0
104 173 444 0
-59 20 -298 0
-311 378 -357 0
231 -304 325 0
-233 400 -225 0
321 -414 -294 0
-31 -91 298 0
-398 116 470 0
496 -105 93 0
-31 -127 29 0
313 -124 -438 0
-161 20 396 0
-19 106 -138 0
-38 -246 78 0
421 -118 -218 0
-46 33 35 0
28 80 -450 0
326 312 -253 0
-60 391 -215 0
-222 -362 -361 0
-306 454 32 0
153 228 -332 0
488 429 273 0
-189 243 -372 0
378 413 -478 0
155 -17 -25 0
432 353 -362 0
-48 474 140 0
262 -484 159 0
-294 -56 -381 0
-358 111 357 0
-211 218 123 0
449 124 171 0
-373 144 -413 0
-492 308 -315 0
467 424 173 0
-498 -149 454 0
-65 243 363 0
-325 396 -309 0
229 -418 -256 0
107 -35 -23 0
-332 -242 11 0
-38 -325 -485 0
-92 -212 70 0
27 363 -414 0
-396 -167 -67 0
-428 487 -332 0
-173 -443 -242 0
14 -344 -313 0
-296 376 -178 0
-425 -427 -389 0
-435 -444 396 0
-459 172 -429 0
493 -345 -204 0
24 366 -358 0
42 7 -443 0
-350 60 440 0
22 -40 -3 0
454 -219 -1 0
-474 -211 155 0
-58 492 264 0
-387 482 -122 0
-120 210 170 0
-170 195 -137 0
-404 145 -19 0
324 -32 379 0
276 86 -309 0
165 -333 -272 0
-313 305 492 0
-154 -346 -44 0
354 92 478 0
-110 190 171 0
289 154 -243 0
-369 -417 92 0
483 273 -370 0
191 194 -472 0
7 295 -138 0
307 -238 166 0
332 428 -392 0
11 360 304 0
264 12 312 0
-461 -240 -484 0
400 219 -86 0
253 -126 -353 0
-323 -442 270 0
341 -309 -131 0
342 -31 135 0
-305 128 115 0
213 312 166 0
-492 -362 -143 0
29 -328 -37 0
73 116 -104 0
338 -433 16 0
59 265 69 0
-3 -68 -141 0
-460 -41 219 0
389 263 -372 0
43 -376 -295 0
214 105 59 0
-402 -114 -90 0
-39 -60 -440 0
181 -26 -59 0
-3 -450 -259 0
89 -223 -110 0
101 209 -317 0
464 466 126 0
-163 -195 -65 0
327 186 48 0
351 223 230 0
-55 -425 173 0
-371 46 -239 0
-87 -420 -151 0
-446 57 456 0
-241 -432 104 0
-220 359 491 0
-275 427 -149 0
-468 -80 282 0
392 -160 -291 0
263 -65 -291 0
-247 -21 -129 0
345 337 213 0
-113 -280 487 0
-346 -251 -53 0
-75 468 -113 0
343 425 -310 0
492 -481 -103 0
-411 -325 489 0
111 -338 442 0
463 433 158 0
409 -316 -367 0
-316 -46 -71 0
421 -383 427 0
-109 -162 330 0
150 322 302 0
-260 83 -26 0
278 -299 -474 0
37 45 164 0
439 -432 120 0
-249 482 476 0
194 400 264 0
365 189 -202 0
-252 462 256 0
-220 46 -19 0
-393 247 332 0
-363 87 -219 0
-197 -141 334 0
-497 -33 469 0
78 159 -274 0
191 68 281 0
-476 148 -110 0
-442 420 179 0
-266 -118 -312 0
-190 216 96 0
82 -436 -306 0
386 123 -186 0
-196 236 186 0
90 -356 -338 0
211 -386 -114 0
178 -455 -21 0
73 -337 -398 0
-455 -71 172 0
40 8 337 0
59 -392 -241 0
169 13 -491 0
185 259 17 0
371 -424 452 0
-155 -144 189 0
-245 208 -18 0
11 92 -457 0
394 436 -450 0
209 384 387 0
150 -290 -210 0
326 494 -432 0
455 -370 -431 0
288 -499 175 0
152 -274 21 0
-90 -170 -495 0
471 -30 403 0
-220 191 291 0
-245 -290 365 0
464 73 431 0
-234 -220 456 0
-54 -136 -301 0
-25 -90 83 0
331 -205 211 0
-243 144 426 0
498 -361 -312 0
-166 -295 -493 0
-411 254 -89 0
-123 96 -175 0
-149 -178 94 0
-399 381 -337 0
248 -419 476 0
-336 374 -165 0
248 -363 346 0
210 258 -406 0
-291 319 -477 0
-448 -338 283 0
-311 318 -205 0
357 113 -338 0
309 448 46 0
-378 -53 -91 0
-499 332 -440 0
312 375 15 0
36 283 -240 0
-328 -485 -443 0
-499 -195 -68 0
-198 -475 -177 0
-128 -130 -216 0
98 -317 -394 0
244 281 186 0
-125 -187 152 0
-499 53 -471 0
-292 249 -308 0
192 378 311 0
-199 116 -277 0
-254 269 98 0
-284 -416 -214 0
-385 21 -469 0
-223 103 -477 0
54 42 -400 0
-269 169 152 0
446 188 -297 0
-388 359 373 0
134 71 487 0
-378 -244 94 0
331 -457 1 0
-484 -291 -299 0
42 -260 384 0
14 498 -55 0
258 -82 -122 0
-205 381 -413 0
-462 -490 39 0
-24 53 -367 0
467 53 -46 0
-276 227 236 0
335 -349 -472 0
-373 -245 -135 0
249 -232 -347 0
-434 476 -272 0
386 -55 311 0
-8 -160 -163 0
352 184 413 0
-295 -270 -146 0
-327 226 184 0
14 -137 265 0
-146 -90 468 0
430 -282 246 0
31 200 -440 0
331 94 -287 0
-176 -423 -77 0
-414 -91 53 0
369 360 -233 0
326 473 -114 0
352 65 375 0
-404 425 -20 0
-372 189 -171 0
-456 -37 -12 0
353 -216 -36 0
-300 151 482 0
79 -112 288 0
-107 182 -331 0
-288 126 -173 0
-190 192 -137 0
-270 301 449 0
-64 132 -250 0
75 -406 310 0
1 264 -232 0
-76 -356 -409 0
107 -342 68 0
265 -110 76 0
-134 452 -128 0
257 74 -475 0
-119 200 96 0
-170 92 -19 0
-10 -386 -14 0
178 419 -205 0
240 89 204 0
107 -129 -439 0
88 -171 -77 0
-356 -171 53 0
455 -267 117 0
-472 286 467 0
-231 305 -429 0
133 -145 64 0
396 299 445 0
29 271 143 0
-398 78 -297 0
-245 -423 -363 0
-76 -184 -490 0
-128 -218 -452 0
-474 60 313 0
245 -382 -262 0
295 -316 314 0
260 -57 -88 0
-63 -223 -393 0
142 409 -435 0
103 499 -423 0
-84 167 -207 0
-20 215 -216 0
-191 -176 25 0
-97 278 -70 0
5 111 322 0
79 337 -280 0
333 493 5 0
-222 41 187 0
111 -88 -472 0
-1 -24 374 0
446 -49 68 0
379 173 -339 0
-15 211 428 0
300 -351 -168 0
445 307 -400 0
-221 -392 -331 0
-105 158 -224 0
-120 -109 -332 0
-256 -394 413 0
-152 -188 -405 0
467 429 -363 0
55 -158 -253 0
-284 465 24 0
-104 7 -179 0
98 408 157 0
234 -312 -260 0
279 -197 22 0
351 -452 -327 0
313 384 365 0
241 456 134 0
-319 249 -278 0
-33 237 -463 0
401 416 233 0
-58 371 444 0
338 395 -500 0
-433 455 426 0
145 -82 -306 0
-155 -400 -395 0
-83 336 390 0
-226 92 311 0
224 -335 48 0
36 -395 -315 0
478 301 245 0
-293 396 -252 0
416 198 -251 0
186 -333 189 0
6 -308 -131 0
-23 -340 -314 0
493 445 18 0
405 165 189 0
322 66 -364 0
-262 210 -256 0
-473 483 -345 0
-186 137 -200 0
161 -264 -336 0
-5 -342 365 0
14 -249 -162 0
-80 -138 278 0
86 -34 373 0
292 -426 354 0
-175 -17 6 0
273 -86 -330 0
438 -318 -477 0
-83 243 -267 0
-216 35 -208 0
-69 -430 379 0
-316 330 270 0
275 -132 -185 0
49 51 397 0
-466 324 226 0
-213 -331 -409 0
149 -439 390 0
-261 -464 185 0
492 413 258 0
439 42 428 0
-338 -328 -180 0
133 316 -160 0
-373 61 -97 0
-59 -51 -128 0
-494 386 43 0
-254 267 -393 0
376 -143 -125 0
19 328 -330 0
-53 -219 -463 0
487 148 -308 0
27 149 465 0
-91 198 139 0
265 -105 395 0
349 -138 285 0
-474 -467 97 0
-171 -270 -165 0
471 329 -135 0
-395 -344 479 0
422 200 -63 0
-257 -328 56 0
431 -175 -190 0
11 -305 450 0
136 22 -100 0
-88 -243 -320 0
-76 -113 57 0
40 450 -306 0
-310 450 283 0
228 110 111 0
-188 71 -403 0
-337 471 5 0
395 -367 -334 0
-82 165 -361 0
80 313 415 0
219 203 265 0
-17 -363 -346 0
-252 -214 147 0
500 -312 139 0
-444 -17 -133 0
255 -109 -299 0
-410 239 -464 0
455 271 -5 0
191 -462 -422 0
270 -230 -194 0
486 -448 36 0
219 103 -449 0
-152 -128 -460 0
-300 -455 -277 0
165 -219 -68 0
-155 70 292 0
127 378 374 0
-462 -113 320 0
189 319 -492 0
6 268 436 0
-241 -458 488 0
308 96 106 0
-258 477 -301 0
-486 107 425 0
-230 -117 422 0
72 -324 -454 0
112 258 -367 0
27 89 458 0
464 -62 364 0
-208 -89 -491 0
-412 93 60 0
471 218 -416 0
57 -435 -25 0
444 -163 -208 0
256 -410 -150 0
-259 448 -440 0
423 -51 -383 0
114 304 364 0
-244 63 -195 0
-62 -371 -489 0
-308 418 -100 0
86 -148 162 0
299 -339 -147 0
82 -113 47 0
-33 -138 -197 0
-346 -450 -131 0
-480 -295 127 0
479 -496 278 0
-285 -159 48 0
77 357 -330 0
355 -268 500 0
-272 -188 -476 0
-253 -432 -259 0
292 45 145 0
-179 -189 71 0
-187 -93 108 0
-90 -83 -202 0
-408 -323 -313 0
-445 -482 -83 0
209 -389 -461 0
13 303 -418 0
320 314 113 0
-83 410 493 0
89 -360 -324 0
48 149 -341 0
469 421 287 0
-94 -8 -4 0
-336 -340 12 0
118 -214 -402 0
67 -172 -332 0
401 -344 -267 0
23 -474 -309 0
223 -144 -290 0
-420 292 -95 0
-460 270 -49 0
-48 453 292 0
498 -118 192 0
193 -25 -225 0
-94 414 -105 0
125 256 222 0
-342 -228 294 0
-201 -321 -86 0
-479 174 -468 0
418 -52 47 0
-372 -476 -403 0
391 113 270 0
373 11 -226 0
-364 303 108 0
-267 -218 -184 0
402 -97 -346 0
-203 254 -395 0
-381 -483 118 0
-378 253 85 0
7 -308 127 0
405 440 125 0
97 -339 -187 0
-265 317 -395 0
-440 206 -123 0
-137 -310 43 0
329 232 -7 0
-60 378 110 0
-180 -500 -288 0
266 345 -414 0
-181 441 273 0
50 -28 24 0
-319 -37 469 0
206 339 147 0
-38 457 -484 0
480 23 171 0
-99 141 -389 0
-439 -101 230 0
259 -387 -432 0
-187 450 -347 0
-410 -162 -320 0
40 226 -227 0
498 13 144 0
-289 19 -102 0
-217 233 -103 0
422 436 465 0
139 115 250 0
11 250 22 0
353 -377 -273 0
-354 16 -440 0
-78 -465 184 0
-3 -277 -36 0
-424 311 174 0
-41 -285 421 0
26 -75 439 0
498 272 -220 0
-489 -32 -138 0
355 225 -372 0
220 -323 -217 0
458 -197 500 0
-18 -367 -497 0
-408 -51 328 0
-492 -221 50 0
-254 80 -497 0
339 -369 45 0
233 166 -93 0
-207 216 7 0
-312 -129 -339 0
146 -183 -195 0
-215 449 -247 0
81 -195 -41 0
-418 165 132 0
296 -346 -457 0
-49 47 -7 0
374 254 401 0
264 204 7 0
130 -4 -281 0
372 -258 -272 0
-364 -100 -470 0
455 -174 293 0
408 16 -200 0
171 363 -433 0
49 -161 244 0
310 -48 -338 0
396 -246 -387 0
397 -443 -499 0
-334 -88 -202 0
-36 -133 -143 0
-417 184 349 0
147 -158 481 0
271 -16 -482 0
-153 -110 -109 0
-220 -13 -281 0
49 143 116 0
240 -60 -396 0
-313 -409 166 0
-190 99 356 0
-71 375 211 0
-184 212 -485 0
219 214 124 0
-278 -435 38 0
215 371 -113 0
-239 394 372 0
361 80 148 0
-262 -246 -103 0
-269 93 294 0
364 500 -49 0
116 -271 357 0
245 -53 26 0
495 184 201 0
-171 304 300 0
42 402 -400 0
211 -245 60 0
-348 233 -9 0
450 458 -182 0
-299 -490 -188 0
-285 -176 -476 0
-402 205 74 0
499 149 343 0
-163 42 469 0
-242 -301 -414 0
202 -95 83 0
452 128 -240 0
71 217 394 0
-74 460 -92 0
3 -274 -159 0
193 -299 -56 0
-335 -158 -415 0
218 -61 -358 0
-308 337 -413 0
-355 -197 -493 0
415 416 115 0
-444 -30 106 0
8 -104 300 0
276 476 222 0
407 328 135 0
-425 -199 194 0
-12 166 -272 0
411 -134 341 0
381 345 -453 0
-431 173 180 0
242 -413 -384 0
-209 -24 -150 0
-291 483 195 0
-239 -155 264 0
-109 71 179 0
-272 -60 4 0
359 43 95 0
-19 -309 423 0
456 468 -187 0
388 -253 -213 0
120 429 -399 0
-396 226 -394 0
-123 289 361 0
405 206 281 0
-444 -185 49 0
-57 266 194 0
217 235 -13 0
-344 156 -39 0
115 -465 310 0
46 447 -458 0
154 116 -444 0
-497 15 261 0
-454 99 394 0
-100 106 453 0
-266 -340 417 0
161 137 -327 0
-113 442 -491 0
-211 231 -491 0
-5 58 389 0
-330 -37 3 0
-72 327 -477 0
26 -338 89 0
-158 -416 116 0
170 233 -59 0
179 55 488 0
-446 -374 -342 0
-405 -315 310 0
188 20 -228 0
198 225 -359 0
298 -235 252 0
12 433 -321 0
115 -23 90 0
-11 -73 -31 0
-474 141 4 0
225 331 114 0
-111 -412 196 0
340 -109 -263 0
-27 -3 82 0
374 -143 93 0
442 119 34 0
-397 -436 338 0
-305 -326 91 0
-100 -86 330 0
-176 189 300 0
391 404 -11 0
-434 479 -427 0
262 363 54 0
440 329 87 0
49 158 -375 0
-423 -458 -365 0
-307 89 -436 0
364 171 -111 0
133 -318 415 0
-54 255 -15 0
-288 74 106 0
471 -144 337 0
243 289 174 0
-359 -493 17 0
-161 5 -432 0
-250 -70 454 0
248 191 449 0
420 126 331 0
-165 217 129 0
109 376 353 0
-381 193 191 0
353 -93 361 0
288 87 27 0
-10 243 4 0
-280 342 266 0
-162 338 -77 0
-253 -13 144 0
-373 -132 174 0
299 -165 261 0
453 218 -320 0
24 464 212 0
132 37 392 0
-449 -314 442 0
254 494 -424 0
-241 97 416 0
137 361 471 0
376 432 222 0
266 499 -53 0
443 20 -398 0
-358 -151 -439 0
447 167 -186 0
-395 458 -308 0
-52 133 -223 0
42 -297 107 0
-366 159 -265 0
6 341 277 0
-486 -275 459 0
147 -280 -97 0
-369 -207 364 0
-347 -448 268 0
-198 110 -226 0
330 -46 17 0
-143 -489 140 0
206 211 431 0
223 -212 447 0
-241 56 430 0
99 47 -209 0
319 94 -86 0
-82 -446 -332 0
-395 71 347 0
-202 -73 -118 0
297 415 -346 0
-247 -346 -182 0
370 -405 463 0
-320 484 63 0
-432 -86 33 0
386 -296 372 0
-204 145 -341 0
407 -410 -339 0
-457 428 415 0
-204 268 300 0
-57 -499 -44 0
475 -409 166 0
336 414 478 0
-485 310 346 0
383 387 -335 0
189 -76 280 0
-333 194 -405 0
-355 -115 336 0
462 116 400 0
-374 -195 465 0
324 74 -4 0
373 -492 273 0
-80 188 49 0
-391 39 -320 0
-6 132 282 0
-302 453 -98 0
-146 -25 -58 0
40 -258 39 0
438 108 -300 0
117 -63 -401 0
-292 484 -486 0
-422 238 -284 0
383 -315 -317 0
270 -28 418 0
43 -465 -360 0
-136 -241 332 0
-42 322 -348 0
219 434 473 0
-152 -388 190 0
-85 -19 28 0
-262 -321 -131 0
-45 -416 -297 0
-276 279 -101 0
-48 330 -103 0
-380 253 484 0
-61 126 -75 0
-189 11 37 0
-459 -135 -149 0
-135 -388 191 0
143 -55 395 0
-480 147 -184 0
94 -29 370 0
-83 -101 -285 0
93 494 104 0
420 99 100 0
-149 -88 -478 0
-320 -442 250 0
142 423 10 0
108 -143 424 0
219 -202 -178 0
-340 -192 477 0
252 470 -445 0
337 -305 310 0
386 -383 -261 0
167 -324 -109 0
156 493 -125 0
-80 321 -336 0
114 -304 -253 0
110 394 -237 0
132 -86 -343 0
-204 -289 -54 0
-467 -93 221 0
-361 119 238 0
379 300 -372 0
-78 -174 300 0
190 26 -352 0
37 464 216 0
119 -212 -472 0
69 -287 67 0
-128 148 353 0
-285 61 280 0
101 -282 -150 0
-473 170 -220 0
359 -343 136 0
492 -343 259 0
-280 255 488 0
388 114 271 0
291 329 -265 0
-272 -334 -14 0
465 384 145 0
128 409 288 0
147 83 -441 0
-419 -429 -334 0
254 182 153 0
462 -65 -439 0
-125 -86 33 0
-366 185 402 0
417 170 68 0
-237 -496 -137 0
259 -431 -85 0
264 -473 -112 0
449 -278 470 0
138 -324 202 0
243 366 290 0
-390 -119 -74 0
-13 106 -357 0
-53 294 296 0
-27 307 5 0
213 -377 -394 0
56 -359 -121 0
-61 -462 38 0
-63 -239 495 0
-123 -414 41 0
-15 -215 486 0
391 479 -358 0
-31 -181 -440 0
-431 -204 -425 0
182 61 -168 0
121 194 276 0
210 476 443 0
-463 -17 -270 0
15 350 -103 0
-111 295 425 0
118 307 -458 0
385 -66 247 0
-453 -320 205 0
118 489 -387 0
-378 -135 381 0
-152 77 213 0
-188 -154 -362 0
100 -55 -41 0
280 -271 -55 0
-451 312 -196 0
23 -414 -7 0
-152 -156 -112 0
314 460 103 0
266 160 -403 0
378 -311 -306 0
-45 -428 -389 0
443 -373 -48 0
-294 -496 -309 0
-451 -398 409 0
-253 -31 301 0
-199 4 -431 0
268 129 -116 0
403 -393 -260 0
80 -280 318 0
329 166 -111 0
427 -116 294 0
22 461 -420 0
-121 307 -422 0
-219 -173 -243 0
-195 -447 476 0
66 149 490 0
-145 -395 66 0
-480 -223 125 0
-219 -144 -75 0
-138 -230 -368 0
-140 141 189 0
-471 -269 458 0
-200 -297 162 0
-375 220 -454 0
-336 263 -26 0
-106 -362 -336 0
123 -120 -144 0
202 274 -7 0
129 460 -273 0
-25 -137 336 0
-420 134 188 0
-468 -181 131 0
-369 450 484 0
-2 -228 -112 0
-71 129 -464 0
-473 -301 380 0
-17 41 -241 0
-186 -434 354 0
-6 59 86 0
217 345 132 0
-190 -45 347 0
476 394 57 0
381 -142 305 0
230 -140 169 0
356 -82 402 0
400 331 -172 0
-448 64 263 0
341 -231 500 0
380 18 489 0
-52 274 286 0
-362 -402 -9 0
460 -353 -283 0
12 423 -270 0
334 -24 -116 0
384 380 -400 0
-260 42 107 0
-417 -348 -432 0
451 -134 -256 0
-375 -270 99 0
-249 332 123 0
33 24 249 0
110 341 -360 0
-305 46 -221 0
498 179 430 0
-3 227 74 0
-114 -218 -98 0
-95 -375 -133 0
415 -33 -30 0
-230 394 -457 0
-425 184 -430 0
187 372 -54 0
-484 215 -122 0
-283 364 -269 0
-180 -208 -421 0
86 47 -438 0
362 -449 280 0
-235 5 -99 0
-485 465 -128 0
-15 108 331 0
-194 93 -28 0
-471 -339 487 0
-148 429 -45 0
261 -328 -478 0
293 446 135 0
-298 -183 231 0
-280 -32 460 0
69 125 -494 0
-427 219 261 0
-230 -352 -353 0
-436 -367 -296 0
-260 -468 -492 0
-98 -377 -5 0
-455 -365 473 0
-109 337 301 0
-181 -13 344 0
-160 -11 -494 0
283 -229 308 0
417 -426 6 0
-152 -189 246 0
116 -247 462 0
-216 -255 487 0
-279 -365 -202 0
-55 19 -58 0
383 -69 44 0
309 119 67 0
294 -60 -335 0
244 -373 158 0
472 -391 458 0
320 -144 -191 0
-5 -493 382 0
113 342 297 0
6 -314 20 0
158 106 180 0
-60 -125 185 0
-109 361 61 0
-5 -272 -148 0
-366 -250 301 0
431 -319 -135 0
289 90 -353 0
-72 -246 -140 0
-488 -402 -248 0
152 -305 -345 0
218 -290 -451 0
-445 -110 -333 0
-308 467 298 0
285 243 486 0
-337 165 215 0
125 -176 -354 0
198 210 374 0
-283 211 -410 0
-421 62 19 0
-76 -148 64 0
-372 198 229 0
-338 -298 170 0
370 8 337 0
391 67 -32 0
278 -317 -266 0
435 148 293 0
-284 -170 -47 0
-150 263 291 0
-410 295 -187 0
-165 -475 24 0
274 197 349 0
-211 302 -451 0
60 203 -355 0
233 31 218 0
-319 174 -368 0
399 473 101 0
-52 277 451 0
-170 -273 64 0
-217 45 -397 0
18 -464 325 0
-203 -185 376 0
488 -133 -314 0
-80 131 450 0
-340 -202 -413 0
342 209 -81 0
-211 230 -367 0
-378 177 41 0
-146 462 38 0
-284 -275 38 0
153 406 325 0
343 -359 108 0
472 -223 495 0
223 -371 -143 0
-320 -349 220 0
-347 261 -202 0
226 -395 -7 0
18 -429 -26 0
220 177 146 0
-156 394 288 0
-369 -222 140 0
-500 -40 -179 0
221 -20 -283 0
231 491 206 0
296 46 323 0
-117 -444 312 0
-22 -430 -55 0
267 120 424 0
38 376 -146 0
-160 -444 -382 0
499 -264 201 0
-179 292 287 0
444 212 388 0
-46 -250 251 0
43 -369 80 0
376 183 -318 0
401 36 329 0
-144 53 417 0
-274 -387 -268 0
-50 459 333 0
290 326 -14 0
376 -177 -382 0
312 341 -113 0
-36 -429 479 0
-290 -276 -1 0
279 -23 -270 0
268 315 311 0
432 -411 370 0
-231 468 -130 0
362 -448 -286 0
-39 315 -303 0
-132 58 10 0
478 334 -481 0
370 -211 -32 0
223 -264 -219 0
410 -61 -451 0
179 -165 88 0
-3 -88 -361 0
295 215 347 0
260 -105 -59 0
289 -235 -338 0
-56 207 -410 0
-64 -463 327 0
-208 174 101 0
449 468 -495 0
-477 153 285 0
-467 86 262 0
-53 108 -411 0
202 444 -272 0
-497 477 361 0
60 -408 -85 0
-147 204 -438 0
-119 358 332 0
-440 279 -445 0
227 -56 -319 0
-485 34 362 0
411 -244 190 0
223 138 -354 0
-72 387 -92 0
-385 232 -204 0
427 -458 -375 0
339 400 -222 0
309 -364 418 0
131 -288 117 0
262 412 -174 0
-482 74 -362 0
-139 295 -156 0
-236 26 -490 0
309 -21 -320 0
-398 307 -363 0
-34 -402 -134 0
427 -440 19 0
-72 71 -114 0
-77 -42 -193 0
459 -301 -377 0
-285 -315 31 0
131 -318 -306 0
-432 184 253 0
-206 -161 490 0
-42 -47 427 0
233 -380 -423 0
351 -464 340 0
487 -224 297 0
352 -174 446 0
162 439 -184 0
81 267 322 0
63 287 -118 0
156 456 -494 0
-48 106 -307 0
-326 -350 -287 0
165 104 -275 0
255 -283 -469 0
391 12 10 0
76 -281 489 0
481 -212 397 0
-290 173 -145 0
-60 -460 337 0
-102 213 -240 0
38 63 267 0
411 479 26 0
-409 166 159 0
479 56 304 0
9 -342 23 0
-404 305 -481 0
441 -11 -36 0
167 154 -148 0
-191 -17 -429 0
89 365 192 0
112 -420 -319 0
365 -339 -291 0
-470 -427 -224 0
-252 451 399 0
432 -244 -207 0
474 457 291 0
394 224 -188 0
463 -367 403 0
-178 288 328 0
-335 -405 -376 0
-467 446 187 0
99 333 330 0
25 -122 -123 0
175 187 -234 0
235 471 472 0
372 78 185 0
412 60 -65 0
-267 -390 499 0
-367 24 -214 0
164 -373 -350 0
178 -214 431 0
201 -111 346 0
281 58 304 0
386 218 179 0
124 287 452 0
-120 261 -51 0
-55 359 -327 0
-369 130 76 0
-174 -218 169 0
-191 93 -418 0
-450 303 -85 0
109 386 -287 0
466 356 -196 0
95 278 305 0
-99 89 156 0
-357 -285 2 0
110 -124 -333 0
-239 -302 -86 0
-217 408 -50 0
16 -110 317 0
194 181 355 0
407 -422 449 0
-285 36 45 0
428 370 476 0
220 71 350 0
193 -332 56 0
403 -416 419 0
162 -126 327 0
-253 -469 175 0
-110 -470 116 0
263 331 97 0
279 -244 267 0
-430 349 224 0
-141 94 71 0
146 -66 253 0
-333 408 412 0
-480 116 -309 0
-470 188 219 0
-287 10 230 0
416 -485 -338 0
191 -58 -129 0
-447 -363 -208 0
-208 -355 -136 0
482 -82 -31 0
282 304 269 0
182 -254 -379 0
-149 -139 -435 0
72 485 42 0
-104 375 -165 0
356 233 -187 0
138 -72 -97 0
-407 -199 -227 0
351 496 310 0
473 -32 -8 0
-70 265 90 0
-268 -285 166 0
-44 -396 427 0
-317 -110 315 0
215 -197 238 0
-421 497 272 0
-412 48 178 0
2 471 171 0
-244 4 -382 0
193 -180 -56 0
88 61 -220 0
-470 -277 -367 0
475 -178 144 0
23 334 -223 0
39 -56 468 0
327 -341 -17 0
88 386 55 0
428 83 -401 0
370 286 -143 0
482 -317 -122 0
305 -234 -199 0
265 268 1 0
336 299 -68 0
-427 -252 -486 0
49 -196 43 0
204 213 -298 0
145 -380 -100 0
468 227 -54 0
-75 -379 -137 0
251 216 -85 0
-211 286 -39 0
419 -288 -435 0
-395 377 -328 0
17 235 308 0
-235 -179 23 0
-79 -320 69 0
-201 -260 133 0
246 -265 -55 0
-147 -161 -159 0
-188 109 -345 0
218 172 125 0
-25 -280 314 0
-448 -217 210 0
-143 233 -289 0
-271 -478 231 0
-47 -286 66 0
306 -333 477 0
241 -202 467 0
189 -46 401 0
-110 -262 -82 0
-295 496 -102 0
-114 204 321 0
263 53 271 0
-112 323 269 0
436 143 -309 0
295 428 -426 0
-366 279 214 0
-31 146 -384 0
29 -72 98 0
-281 224 418 0
242 484 -132 0
-71 -471 -130 0
190 -281 456 0
-453 222 -289 0
14 -414 -412 0
-157 -108 38 0
-187 -153 247 0
-367 -288 127 0
-444 -290 413 0
4 235 -489 0
-68 -414 -398 0
-115 -484 -500 0
-196 -98 -289 0
-104 -446 -267 0
499 194 -354 0
-415 -286 -205 0
-425 271 44 0
-426 -272 491 0
-23 334 -304 0
-439 466 -2 0
-473 -105 -343 0
435 -120 228 0
-186 -315 -375 0
454 345 -13 0
84 -272 223 0
-416 -336 152 0
387 487 -81 0
47 60 -205 0
-385 70 -203 0
499 -419 -264 0
106 459 119 0
-21 50 -223 0
74 -253 -243 0
15 -43 -457 0
451 -388 -174 0
366 57 -408 0
92 33 411 0
-498 -27 -238 0
-405 234 492 0
-283 -187 -399 0
-168 90 -188 0
317 -257 223 0
-476 -227 -353 0
-442 296 -425 0
-395 -380 -215 0
-453 102 449 0
431 247 -23 0
-425 -329 -422 0
110 -73 -297 0
192 175 -304 0
-40 47 -109 0
334 194 -21 0
394 -59 100 0
393 435 -329 0
-361 -112 84 0
-105 495 106 0
266 76 378 0
199 -496 87 0
277 -94 373 0
-153 400 45 0
-44 -102 382 0
-467 205 -133 0
