p cnf 500 2400
-57 221 -432 0
447 -200 -420 0
-169 340 -28 0
-119 -471 356 0
-287 -155 389 0
34 218 404 0
423 492 -482 0
214 -369 -52 0
-414 -429 12 0
-271 76 3 0
-68 246 456 0
152 -213 15 0
121 -397 349 0
118 492 362 0
500 -419 235 0
108 380 410 0
-389 -308 -221 0
-61 -240 256 0
61 -78 11 0
-190 100 -219 0
211 177 -300 0
312 -414 164 0
-266 -343 279 0
-253 -406 -431 0
118 -390 227 0
290 440 -362 0
-307 242 128 0
477 381 453 0
94 -301 -423 0
253 165 278 0
-57 -435 62 0
-268 73 426 0
256 -283 434 0
-368 417 487 0
90 405 96 0
-417 -52 59 0
61 -275 450 0
-69 -324 267 0
-224 325 181 0
-163 -52 448 0
-259 72 15 0
-348 -8 25 0
-432 -3 348 0
-34 -51 -7 0
427 -496 -313 0
-90 -153 232 0
389 -12 -367 0
-421 54 -277 0
90 63 -282 0
-239 351 -96 0
-238 455 114 0
-336 -427 -475 0
-217 -24 -469 0
214 406 298 0
437 -169 449 0
-380 132 228 0
-139 263 -55 0
-320 92 340 0
-173 -418 230 0
164 -398 299 0
354 232 229 0
298 141 274 0
129 449 454 0
-172 -112 -205 0
267 -98 480 0
11 382 96 0
-192 48 277 0
439 -219 -40 0
-61 117 65 0
-233 -40 151 0
-194 106 -311 0
-300 9 -449 0
-171 -178 -121 0
332 -210 -296 0
-350 288 430 0
-92 301 -472 0
494 -437 -300 0
134 11 151 0
-435 294 -174 0
-400 -51 123 0
466 465 2 0
385 -36 212 0
-264 327 18 0
394 -39 -400 0
-290 179 252 0
-208 -435 -49 0
132 -264 131 0
337 -255 157 0
-144 141 147 0
50 303 469 0
-357 -254 -54 0
-214 -7 -28 0
-101 436 -135 0
408 -385 488 0
61 -430 -36 0
-432 127 -421 0
398 -373 -161 0
196 158 -263 0
-257 451 302 0
151 346 142 0
324 235 60 0
445 -363 -119 0
212 391 -367 0
-469 60 -203 0
-57 -419 44 0
305 168 399 0
-260 -374 -391 0
-38 -451 356 0
-184 473 69 0
218 -489 50 0
-293 -209 -58 0
225 109 333 0
461 114 157 0
29 108 402 0
103 -193 -402 0
268 482 -493 0
-181 369 319 0
180 398 173 0
-26 187 -122 0
331 267 249 0
462 200 369 0
200 75 -492 0
-252 -304 -27 0
151 -83 91 0
402 -40 -207 0
-268 477 426 0
-283 -176 86 0
-113 335 -155 0
-150 -272 482 0
76 -30 -207 0
302 -277 449 0
-395 303 429 0
301 68 351 0
-403 275 -98 0
-374 204 -296 0
359 326 -203 0
237 175 367 0
-192 97 -387 0
-430 444 -77 0
-405 -406 -498 0
-352 -123 244 0
-202 108 -201 0
-328 72 -76 0
-143 -22 294 0
-460 431 -142 0
-145 -491 -161 0
-171 56 370 0
-386 95 237 0
386 384 373 0
483 -387 22 0
164 -85 -170 0
-148 359 304 0
-302 101 70 0
-149 235 392 0
-53 -227 205 0
17 -253 16 0
-93 -16 493 0
404 -435 111 0
-144 37 -458 0
-415 316 -491 0
165 -288 388 0
-130 -113 -492 0
-288 309 -271 0
307 -211 77 0
-235 -236 -354 0
23 193 -31 0
-192 -470 -483 0
-275 146 -170 0
-187 -354 -484 0
-280 385 305 0
-54 281 -25 0
189 36 -485 0
286 -122 -44 0
-86 118 161 0
-358 -51 433 0
12 174 291 0
-362 349 -484 0
114 -314 20 0
-196 -181 -442 0
90 -308 126 0
404 313 -476 0
-343 -56 392 0
-178 -340 159 0
138 404 -57 0
264 -479 -265 0
-67 -28 -49 0
61 193 176 0
-313 -78 -486 0
448 396 -221 0
199 -173 -404 0
63 68 -451 0
148 -395 -303 0
-268 -17 -85 0
-53 377 193 0
448 37 -388 0
392 -226 -212 0
396 136 270 0
-278 -257 110 0
84 -46 -256 0
42 -494 -219 0
320 473 322 0
15 136 -82 0
200 377 111 0
-300 311 438 0
-177 -199 -493 0
-280 -163 -316 0
-342 -229 -355 0
-102 455 366 0
-497 -67 -408 0
-142 229 -317 0
-382 68 248 0
8 -330 -28 0
173 -100 -220 0
367 -104 -20 0
387 -229 -441 0
42 -130 172 0
-397 387 -228 0
-32 393 177 0
-57 -150 -21 0
408 105 124 0
193 178 -13 0
-373 -472 -432 0
56 -331 273 0
244 472 103 0
161 -1 119 0
-247 -51 -272 0
-59 117 -372 0
-135 234 -452 0
459 48 -95 0
474 217 326 0
18 -289 457 0
55 167 259 0
-422 128 393 0
445 358 -1 0
132 -41 378 0
-418 401 496 0
150 -105 66 0
-65 288 46 0
319 453 -227 0
23 33 -392 0
300 370 163 0
-282 236 489 0
278 118 -103 0
-143 413 346 0
-11 358 -243 0
-371 -423 -212 0
-375 87 -299 0
173 -140 41 0
123 224 -370 0
-136 223 153 0
-260 -411 -177 0
-144 256 -393 0
-13 -168 -233 0
316 -194 -223 0
216 -238 302 0
248 203 27 0
88 124 -372 0
-301 -458 496 0
-459 363 -405 0
-180 -60 135 0
-171 -99 -202 0
-199 -193 -271 0
-257 -41 -80 0
-128 39 341 0
-450 28 -329 0
-198 -456 -329 0
-279 -393 -43 0
259 -304 -202 0
132 452 59 0
-346 -467 -385 0
-99 -129 -323 0
-187 103 -110 0
164 61 -473 0
108 348 -306 0
-126 -427 481 0
-375 185 -174 0
236 -37 274 0
-88 -238 410 0
-229 291 381 0
-92 404 110 0
-166 82 -467 0
90 106 260 0
331 329 -41 0
-13 -86 -139 0
105 -149 255 0
98 206 498 0
-485 -280 245 0
109 492 -132 0
168 -71 -344 0
-200 255 381 0
-230 -390 199 0
-304 143 -4 0
-257 491 498 0
-319 143 -446 0
-115 376 189 0
272 286 171 0
-94 403 376 0
-53 404 417 0
158 271 403 0
485 168 411 0
-182 -255 36 0
-219 -446 -45 0
410 -370 -303 0
263 20 152 0
149 488 304 0
-224 -306 -11 0
236 -203 -134 0
181 464 105 0
437 394 -40 0
313 30 -177 0
2 349 331 0
-217 -263 -7 0
-351 44 -449 0
-188 -436 -449 0
-70 267 -53 0
-448 -221 -28 0
161 76 333 0
220 -381 -156 0
415 377 433 0
114 -81 477 0
327 65 452 0
159 323 28 0
113 386 -373 0
-136 206 302 0
-464 -260 343 0
-419 378 85 0
-456 -34 -234 0
205 338 -325 0
-495 20 178 0
71 -3 468 0
468 421 378 0
78 149 164 0
-192 -305 -35 0
227 -400 -445 0
409 420 -132 0
335 186 41 0
-249 -188 104 0
57 -368 110 0
-422 99 172 0
57 -289 476 0
-94 -432 207 0
184 -374 -319 0
253 -397 369 0
-32 297 -211 0
177 -69 -74 0
50 -360 199 0
-181 -393 274 0
83 167 -124 0
-6 -333 458 0
414 -289 51 0
-141 323 96 0
-195 14 -439 0
-151 -193 361 0
-13 -412 -91 0
-13 74 384 0
-72 -80 136 0
-54 453 -60 0
266 184 348 0
45 34 -497 0
-404 -310 -5 0
310 258 110 0
-216 -309 355 0
98 217 122 0
12 -494 254 0
337 466 -207 0
343 -162 -55 0
-208 233 443 0
198 41 49 0
367 480 234 0
-429 215 252 0
478 -474 -255 0
-257 -110 413 0
417 -270 363 0
73 -479 -429 0
-425 -446 -193 0
443 272 47 0
62 491 2 0
-315 -415 234 0
83 -441 -452 0
51 489 95 0
365 155 306 0
-241 -20 406 0
-46 326 136 0
181 303 -77 0
173 -185 -468 0
-209 357 461 0
447 -187 -237 0
-375 -128 -201 0
407 -188 498 0
-101 292 -76 0
315 126 -145 0
-76 500 393 0
-458 -291 -50 0
3 97 -164 0
366 368 135 0
428 335 -391 0
-95 -83 -18 0
-20 -36 120 0
-379 -186 31 0
-486 -399 -174 0
-172 -407 -208 0
380 420 429 0
347 202 331 0
375 293 206 0
-206 209 114 0
-177 -163 -407 0
8 242 -43 0
10 -492 -142 0
249 -13 435 0
-414 377 -208 0
-81 -250 -4 0
-327 -449 166 0
-397 380 -57 0
449 -442 176 0
59 65 -447 0
486 442 244 0
-201 70 310 0
102 -167 122 0
-345 124 175 0
-252 66 -335 0
8 286 17 0
-89 -398 -126 0
395 41 1 0
261 -1 152 0
-70 326 260 0
-207 -194 279 0
-352 -473 93 0
52 460 -263 0
244 -325 76 0
121 -2 392 0
44 -126 265 0
-411 419 -176 0
-333 -299 -355 0
234 61 -356 0
-276 171 -153 0
-498 -209 298 0
-369 259 74 0
-423 248 67 0
-109 175 -268 0
-444 289 -277 0
-234 254 -427 0
-212 -7 -309 0
-492 -150 30 0
-59 -298 -77 0
-414 301 415 0
264 391 167 0
150 498 -27 0
-370 397 -349 0
499 -378 -480 0
-427 482 293 0
184 143 484 0
419 -58 -346 0
-306 337 443 0
-476 393 299 0
-448 -370 260 0
-24 -360 385 0
454 -94 -143 0
331 -419 -335 0
-238 -228 -424 0
-45 115 -500 0
430 156 138 0
-101 -473 460 0
-74 355 -174 0
158 -203 307 0
-500 -414 -397 0
7 474 291 0
30 -33 183 0
-300 -2 -361 0
-459 109 102 0
403 -59 -136 0
464 -489 73 0
138 -78 -473 0
233 452 -219 0
-273 -485 -144 0
183 163 -108 0
-160 -169 -233 0
277 4 -227 0
331 -255 73 0
114 -339 -42 0
371 -61 -228 0
179 -117 -305 0
464 321 237 0
-350 -109 -200 0
-456 52 40 0
489 -423 80 0
366 -383 -141 0
-144 -340 493 0
27 90 -360 0
464 473 -102 0
317 247 49 0
102 -268 -198 0
18 -41 -374 0
-165 -41 102 0
72 8 -179 0
-84 69 151 0
287 408 70 0
435 -15 -100 0
75 -33 342 0
97 466 129 0
-307 -12 55 0
-223 328 107 0
474 230 -395 0
460 148 363 0
-9 -307 -403 0
-455 42 145 0
374 275 -281 0
257 -121 -68 0
152 -77 283 0
396 -436 11 0
-398 -24 -387 0
-241 23 -336 0
-351 321 74 0
279 -364 -178 0
-174 -23 53 0
380 480 1 0
60 101 -48 0
-248 -498 360 0
109 417 214 0
107 296 450 0
388 161 -265 0
361 261 42 0
375 62 -43 0
-181 -240 -484 0
341 -107 -277 0
427 -497 160 0
-138 156 490 0
15 358 39 0
160 -264 -197 0
-324 431 6 0
440 186 -229 0
457 -475 258 0
-82 64 47 0
-108 -302 119 0
-440 -494 365 0
119 -107 9 0
-310 24 57 0
-350 327 -77 0
370 267 459 0
-264 4 227 0
144 -256 -68 0
-421 223 -360 0
-212 210 -277 0
44 351 184 0
-132 -381 -322 0
-329 348 272 0
-317 331 -439 0
-224 100 489 0
386 66 139 0
166 423 -182 0
388 387 -11 0
414 -382 -95 0
-301 101 -196 0
236 444 -406 0
33 -212 398 0
279 -37 29 0
99 -249 326 0
-431 -295 1 0
19 -489 74 0
-174 -245 405 0
473 112 -125 0
-27 -10 198 0
460 -264 -58 0
-385 22 234 0
92 220 -234 0
37 -262 -474 0
-433 370 -14 0
-197 338 -80 0
384 83 -278 0
131 161 370 0
-251 465 289 0
-327 -378 302 0
444 -62 266 0
346 -186 -364 0
-20 18 -219 0
-259 159 419 0
-71 -1 -134 0
189 -402 -91 0
-370 -450 293 0
-71 450 86 0
-321 22 -184 0
485 -342 -407 0
298 76 -402 0
424 -271 -67 0
461 -417 433 0
-99 222 -362 0
-489 379 385 0
-168 4 -254 0
-32 79 -40 0
468 103 288 0
322 395 305 0
45 264 136 0
118 387 140 0
-173 360 235 0
48 36 -442 0
42 -250 291 0
-21 -296 -391 0
-10 56 -407 0
174 -264 -64 0
-173 -364 -168 0
-123 478 273 0
189 -73 -212 0
346 312 -367 0
25 357 -358 0
-369 302 -173 0
137 -302 293 0
-99 180 -458 0
349 252 284 0
-325 73 389 0
148 296 -102 0
329 374 269 0
-231 -258 207 0
423 -92 435 0
214 -382 -310 0
-256 -257 377 0
54 62 -294 0
441 -99 372 0
295 -135 -352 0
393 110 147 0
260 90 -143 0
-307 -189 -416 0
187 -378 238 0
169 -153 -181 0
392 87 479 0
55 431 66 0
445 332 318 0
-475 376 78 0
-251 194 -105 0
32 55 154 0
-493 -431 -279 0
110 187 145 0
-367 124 213 0
-288 -149 188 0
141 -250 420 0
183 489 -112 0
255 53 -483 0
-156 -355 361 0
-263 184 332 0
-40 -493 -176 0
-265 -1 -26 0
-62 -32 -316 0
6 354 -271 0
137 345 -405 0
349 204 202 0
193 338 72 0
361 -159 -352 0
264 -430 49 0
314 152 39 0
471 -277 289 0
287 374 -271 0
-257 154 -166 0
-462 -246 330 0
-271 -429 219 0
433 -90 -319 0
-61 190 -152 0
-209 409 471 0
129 112 -90 0
-200 263 170 0
-493 40 474 0
-61 258 223 0
-293 136 174 0
363 -30 -188 0
154 4 385 0
52 24 -322 0
-373 438 210 0
479 60 -135 0
-147 -12 -150 0
-390 -389 431 0
110 -83 -224 0
-35 -329 -139 0
433 -420 74 0
367 164 323 0
300 69 290 0
-399 -221 -77 0
137 -106 -223 0
-355 -265 -47 0
-350 -187 -458 0
-142 -384 -92 0
-473 -169 123 0
-282 40 464 0
193 344 -210 0
467 142 -256 0
82 -422 -183 0
-221 454 406 0
130 465 -301 0
495 322 238 0
151 178 475 0
493 451 -262 0
-460 -418 -175 0
-72 66 -48 0
-322 221 96 0
55 241 -437 0
291 -188 403 0
161 -364 -46 0
98 -217 -272 0
-289 -181 207 0
396 83 178 0
-118 -3 213 0
-49 -79 222 0
-189 127 -63 0
24 -248 -193 0
-304 316 -388 0
-155 -472 236 0
-245 -418 -379 0
-430 -121 -175 0
-207 -54 308 0
424 -163 -115 0
335 -399 113 0
89 -474 136 0
-320 -60 -204 0
81 406 259 0
-338 -247 169 0
479 -35 -364 0
-107 254 253 0
176 151 126 0
-390 84 33 0
195 -276 236 0
-462 390 -196 0
374 -149 -170 0
-133 292 218 0
345 -424 -235 0
464 -112 469 0
-47 484 204 0
-317 342 -279 0
-304 365 -106 0
350 387 -10 0
252 -212 -136 0
178 438 425 0
-217 -375 -312 0
-96 125 -255 0
-263 -22 139 0
-439 -324 -136 0
381 -302 363 0
254 445 -124 0
320 136 -308 0
351 103 -306 0
-141 -179 142 0
-118 -131 296 0
-144 383 24 0
432 -269 284 0
-468 310 223 0
-418 140 151 0
30 -242 216 0
-121 112 -342 0
-137 -143 -216 0
203 -458 389 0
-244 317 -119 0
320 -366 43 0
256 31 58 0
-311 331 -387 0
299 -347 -95 0
-67 -262 118 0
-69 490 205 0
260 468 430 0
185 243 38 0
353 -357 367 0
-250 -49 279 0
-268 132 229 0
388 -116 -270 0
386 -255 396 0
-117 -337 -419 0
392 435 -178 0
294 448 282 0
-1 -368 83 0
-38 -116 18 0
400 359 -473 0
-44 -278 -99 0
-159 55 361 0
-438 361 330 0
90 -127 390 0
-110 -79 -331 0
425 -288 274 0
132 -328 -156 0
241 -455 -268 0
-254 -327 -337 0
196 116 286 0
-112 -16 374 0
203 -391 460 0
-377 -433 -347 0
198 -330 -480 0
62 -59 289 0
-325 259 -168 0
-381 359 -485 0
146 -388 -483 0
328 -163 -490 0
-260 276 -315 0
-150 -86 381 0
197 354 -373 0
127 -454 497 0
18 -494 399 0
449 239 -14 0
-177 -424 -49 0
-230 151 -283 0
-388 -121 -276 0
-411 207 350 0
-374 -342 478 0
426 -342 227 0
95 280 242 0
160 -69 304 0
-70 -79 162 0
-16 482 20 0
369 106 262 0
256 -447 303 0
-60 -176 345 0
375 279 -129 0
-394 449 494 0
96 -178 -84 0
186 297 -17 0
266 145 -46 0
278 -105 280 0
-177 316 494 0
45 -143 69 0
335 -498 168 0
311 235 207 0
478 -101 -232 0
-252 500 34 0
9 263 373 0
-470 485 -252 0
-111 -316 -394 0
280 -229 60 0
170 -204 357 0
445 118 -415 0
-425 -230 -243 0
421 -317 -355 0
257 271 266 0
98 131 417 0
268 365 -83 0
-176 -211 -336 0
-286 159 -8 0
74 -359 -159 0
18 -430 110 0
154 -326 -299 0
-357 -103 462 0
250 -25 65 0
-418 158 -155 0
-352 2 -367 0
-21 -282 424 0
-500 24 332 0
-26 -409 -100 0
159 28 -352 0
209 148 286 0
106 337 377 0
-191 -81 354 0
-161 -412 -492 0
219 328 301 0
135 -255 52 0
-281 296 -132 0
291 149 31 0
67 -149 -265 0
-469 -97 28 0
-271 451 -247 0
-327 -149 -108 0
238 -246 174 0
249 -215 103 0
-244 -415 439 0
268 83 7 0
4 468 428 0
-441 19 -214 0
-258 30 -334 0
492 162 207 0
-1 -348 217 0
170 -304 296 0
-499 -163 -83 0
213 -225 118 0
-470 287 -240 0
-235 320 -145 0
464 -436 269 0
176 -6 -68 0
376 79 257 0
-429 462 453 0
422 312 68 0
464 81 110 0
-74 -489 -441 0
347 179 240 0
-331 -214 439 0
-248 5 364 0
423 422 216 0
-235 -10 -339 0
357 -114 -73 0
-86 139 400 0
27 127 152 0
-480 -207 -305 0
226 246 -178 0
-486 -443 17 0
-413 -117 -244 0
-425 36 -240 0
18 -44 -400 0
328 8 16 0
-19 4 482 0
455 -446 85 0
333 -107 25 0
283 -64 -22 0
233 -122 469 0
-395 -334 348 0
438 -276 345 0
31 271 -113 0
-25 461 -107 0
-420 -254 230 0
57 281 486 0
34 437 261 0
241 -492 15 0
-197 313 436 0
-396 297 -72 0
10 386 280 0
-16 197 207 0
235 -158 -346 0
-354 -423 -262 0
-462 243 57 0
-107 399 188 0
-46 -107 -426 0
44 160 -87 0
-260 -267 -74 0
-363 44 -200 0
-37 45 220 0
-265 -499 -101 0
-171 -118 -84 0
-126 -383 -399 0
-386 -2 432 0
-147 -181 361 0
-353 340 387 0
-344 -150 261 0
192 276 -159 0
247 273 -404 0
-437 13 -110 0
-255 -464 -77 0
84 486 -433 0
240 -498 -223 0
-459 -221 -50 0
-291 -34 203 0
477 -401 478 0
106 -17 -108 0
-353 -493 -446 0
57 341 476 0
-454 -370 -387 0
149 -314 47 0
-90 -461 -119 0
218 -73 -399 0
414 290 398 0
204 287 -183 0
-36 -81 -500 0
-308 -347 309 0
-365 -236 -126 0
133 231 -186 0
-66 442 -407 0
39 -321 -14 0
-250 -267 19 0
36 -296 418 0
-272 -99 -153 0
329 -152 -117 0
-227 447 142 0
-84 -11 -181 0
317 104 -229 0
-212 -343 -385 0
239 -199 -324 0
472 349 -236 0
200 -394 -43 0
-126 299 -178 0
-207 71 -318 0
-67 72 479 0
-107 -483 179 0
-341 -245 -371 0
459 -481 265 0
-246 -201 198 0
-176 -209 -414 0
-192 491 -212 0
448 -155 -477 0
-474 -491 -168 0
246 166 423 0
-165 318 205 0
-362 439 336 0
-39 174 -459 0
-275 -158 312 0
485 -268 420 0
135 404 160 0
374 91 -414 0
164 -322 -53 0
-97 143 -40 0
431 261 97 0
111 -354 -396 0
349 47 106 0
-403 -371 -368 0
-349 -471 -330 0
55 67 498 0
257 -392 166 0
288 -287 -30 0
-12 -75 -122 0
-421 141 90 0
-385 -50 -177 0
433 -298 67 0
-205 265 -6 0
270 118 341 0
140 -382 149 0
-403 314 365 0
61 -207 -227 0
393 162 -6 0
-227 -306 331 0
-492 19 246 0
219 424 -60 0
95 26 166 0
-493 -60 292 0
353 -260 296 0
-363 -438 377 0
-14 -260 -279 0
-115 -72 246 0
-122 162 -37 0
-92 -46 137 0
224 403 363 0
306 4 166 0
-146 458 404 0
87 -114 133 0
-204 -31 340 0
-324 -451 -338 0
25 71 -271 0
4 -273 27 0
473 299 400 0
-433 327 224 0
146 -142 449 0
43 -438 239 0
-22 146 386 0
-49 248 463 0
-403 33 -36 0
144 -391 -365 0
-34 -183 345 0
58 314 272 0
12 -348 367 0
127 -34 273 0
-451 -267 -173 0
434 405 -44 0
68 -389 -56 0
310 -66 279 0
-267 334 211 0
127 398 234 0
-426 341 44 0
375 116 -398 0
-5 384 -231 0
-453 -220 -379 0
298 -255 48 0
-415 453 -7 0
278 -239 214 0
149 59 481 0
-171 -235 42 0
-300 37 192 0
-475 -226 -361 0
-187 -109 141 0
493 -179 388 0
-448 487 -261 0
-268 497 425 0
-115 -104 -376 0
245 379 -164 0
-294 307 -273 0
-382 230 207 0
-351 -68 -203 0
-160 232 103 0
322 -242 -135 0
143 326 183 0
-294 -279 283 0
-328 -126 -245 0
-21 -176 -398 0
-335 366 455 0
-345 -346 167 0
-10 171 -462 0
-219 190 -95 0
259 364 149 0
-229 113 97 0
165 185 -129 0
-413 354 -15 0
-462 -67 444 0
-408 -438 -86 0
-29 -478 284 0
-17 -203 -210 0
-279 162 -78 0
-97 326 -188 0
-281 353 -387 0
281 -427 -497 0
-454 -147 389 0
178 -394 -199 0
53 -41 17 0
-277 485 236 0
-325 355 -335 0
341 -313 226 0
258 -225 -41 0
-262 427 184 0
464 267 493 0
-100 -94 249 0
-352 264 341 0
-461 -122 278 0
401 -262 294 0
471 -337 -321 0
333 11 -215 0
-412 18 -221 0
121 54 235 0
-383 -459 323 0
-81 41 -266 0
-456 401 32 0
-45 -353 76 0
141 49 -200 0
448 -23 -252 0
466 -122 -34 0
-225 -338 -159 0
291 218 468 0
382 -383 -92 0
483 -299 -199 0
-122 -267 17 0
24 -79 -197 0
194 -318 -377 0
21 -473 -65 0
-325 -135 -37 0
330 431 -428 0
-145 -235 431 0
141 344 -231 0
42 294 -447 0
-499 153 66 0
-23 -272 445 0
231 491 -373 0
-23 -340 215 0
500 -273 128 0
-393 152 121 0
292 -188 38 0
470 -140 81 0
-323 -50 -195 0
-298 474 -247 0
9 214 -245 0
-298 -379 -390 0
-480 -10 62 0
61 305 -370 0
-500 -31 399 0
-450 -210 442 0
344 -418 200 0
-48 -366 -172 0
474 379 -131 0
-127 -464 351 0
-293 -177 222 0
-322 337 -432 0
-387 -85 239 0
-190 -410 -227 0
236 163 -75 0
382 5 121 0
-366 -63 -327 0
-381 132 -219 0
-380 81 88 0
-298 -397 408 0
-487 469 -16 0
255 -421 405 0
469 -306 -198 0
-421 482 254 0
131 127 378 0
-237 -115 239 0
-152 249 -440 0
455 -376 -32 0
-115 -196 -183 0
-141 406 409 0
419 -281 -291 0
-236 91 -92 0
-303 469 -216 0
413 339 -172 0
-278 9 300 0
-437 463 -208 0
359 -230 -451 0
303 -403 -117 0
-138 -243 34 0
-124 -248 410 0
65 -487 -66 0
-176 -178 -413 0
61 198 -232 0
389 -458 391 0
-203 -345 -12 0
-298 -397 -63 0
-493 -28 -8 0
-250 -135 205 0
-168 6 125 0
-67 -337 -249 0
-396 220 218 0
-418 -83 -157 0
193 407 -154 0
-242 -202 -281 0
311 256 -194 0
-47 -221 -360 0
-156 301 -191 0
404 -133 -30 0
39 -302 -328 0
-49 356 382 0
37 -321 217 0
91 106 189 0
-118 -391 -182 0
-48 -373 -188 0
-403 3 -56 0
-151 443 -456 0
394 -26 -445 0
408 -230 -223 0
-113 -474 65 0
36 217 -410 0
-363 -156 -214 0
-334 188 106 0
225 485 179 0
-476 427 -448 0
328 17 440 0
171 -462 -473 0
-147 237 -391 0
75 441 -177 0
-372 315 -64 0
-21 -358 -227 0
175 -71 50 0
-7 -423 322 0
6 -52 408 0
135 160 -286 0
-361 -257 269 0
92 -246 259 0
232 270 -463 0
-163 439 438 0
336 72 90 0
-150 -132 367 0
234 -328 -189 0
-223 20 -359 0
-463 439 176 0
497 -140 150 0
-486 -249 -404 0
-367 -218 204 0
463 -425 225 0
-466 60 460 0
-20 464 -60 0
-493 -260 -174 0
59 -111 92 0
-221 -48 99 0
-77 -146 437 0
457 414 388 0
64 401 -399 0
22 456 -117 0
337 -354 482 0
178 -1 100 0
-127 -424 -224 0
316 252 70 0
-45 -4 -171 0
138 -136 -119 0
337 445 203 0
295 160 -135 0
447 185 360 0
304 -91 -472 0
-119 377 27 0
380 -275 -245 0
385 66 -240 0
-443 468 -334 0
99 112 -482 0
176 -447 35 0
-156 481 29 0
49 114 -370 0
-139 463 344 0
-200 -32 -43 0
316 -308 329 0
-215 83 -150 0
23 -69 -209 0
1 37 -393 0
-259 -248 -278 0
-446 -228 -363 0
-253 -61 424 0
15 -198 309 0
-157 405 52 0
344 499 -258 0
339 -176 -338 0
-489 128 -432 0
325 -394 205 0
-477 -323 360 0
-360 -22 -329 0
-134 269 -156 0
-177 -157 -495 0
-32 196 -216 0
-181 382 -272 0
303 -236 182 0
-485 -174 -326 0
-333 341 195 0
40 -393 394 0
295 69 117 0
-390 270 -265 0
-418 -324 -342 0
-68 -453 346 0
-408 23 210 0
315 462 -247 0
256 300 60 0
264 -212 45 0
-156 -474 -485 0
-96 405 22 0
474 -428 327 0
-264 -233 -452 0
287 447 265 0
-352 290 -447 0
-457 14 -338 0
369 184 346 0
141 409 -26 0
-272 204 67 0
349 412 -466 0
-146 67 -263 0
321 -443 -366 0
237 -255 46 0
-261 -205 275 0
372 82 -278 0
-439 80 143 0
279 296 97 0
415 -152 -352 0
225 -497 464 0
185 463 259 0
458 166 -197 0
-223 50 -76 0
434 -127 -74 0
-294 -202 -317 0
410 411 -154 0
213 342 207 0
-22 -338 -193 0
290 -13 -149 0
479 130 22 0
-169 -331 -258 0
-300 104 -276 0
-189 328 411 0
408 -367 178 0
-46 38 -180 0
437 -1 -292 0
-31 -181 217 0
180 418 437 0
-384 -17 -484 0
-335 -108 459 0
32 -299 -317 0
459 497 -275 0
-37 -425 466 0
-469 340 -2 0
70 -221 -92 0
420 -177 84 0
40 -160 438 0
-357 -157 368 0
-449 261 264 0
450 117 -459 0
-187 233 153 0
-433 336 285 0
156 -487 168 0
-336 -479 431 0
-107 226 335 0
237 14 352 0
-465 -241 -300 0
131 147 475 0
104 -371 -83 0
-68 -100 -214 0
-398 44 -70 0
162 429 -106 0
32 447 375 0
298 490 227 0
-102 250 -276 0
117 -217 -190 0
134 70 -12 0
371 43 132 0
-10 -419 -339 0
467 -51 133 0
-153 476 -67 0
231 243 -493 0
-150 -111 -465 0
260 459 -397 0
-237 -131 221 0
244 191 298 0
-346 -137 445 0
-281 75 350 0
-296 -460 -159 0
47 -90 261 0
-477 15 91 0
-157 435 -65 0
-286 398 70 0
80 166 -266 0
167 138 -247 0
-269 -391 161 0
-299 19 -185 0
-363 -209 407 0
475 -277 369 0
-140 304 396 0
-281 -383 -348 0
-329 -226 239 0
464 -186 381 0
302 -257 -385 0
389 -161 420 0
479 226 -422 0
500 -120 -435 0
-302 277 119 0
-317 -193 83 0
208 102 478 0
369 -333 -305 0
478 161 -158 0
-439 32 81 0
-179 -151 -458 0
-243 -29 -453 0
180 -62 -144 0
23 41 280 0
-309 -11 52 0
-327 -133 -150 0
495 -60 -406 0
48 155 -148 0
114 370 -242 0
-184 403 17 0
482 -120 -114 0
-342 209 -139 0
-412 376 -462 0
492 135 -442 0
-315 69 -417 0
133 -382 313 0
-185 -261 -476 0
-23 18 237 0
-392 -456 328 0
24 149 -231 0
-249 -218 -382 0
451 -391 299 0
-418 -429 -225 0
-356 213 -98 0
-410 -391 154 0
-345 422 410 0
397 185 109 0
-297 431 -462 0
110 302 309 0
340 -175 -415 0
-289 -377 -392 0
-168 146 500 0
-65 -281 388 0
-104 -254 -214 0
364 -34 146 0
-410 -15 -388 0
148 -141 -493 0
465 293 -460 0
-419 33 473 0
-327 -255 -429 0
-257 316 481 0
280 190 49 0
-338 -298 -218 0
-245 409 246 0
-345 -492 -272 0
-254 -433 -67 0
289 280 279 0
-364 44 267 0
-211 69 44 0
472 243 205 0
-288 65 -243 0
385 -458 -345 0
-27 -437 -338 0
-155 -456 -162 0
87 398 -431 0
481 -305 -205 0
170 98 -480 0
-377 285 437 0
205 -441 -158 0
1 234 480 0
-81 -405 27 0
-496 -347 408 0
-417 232 176 0
454 -376 -345 0
-446 -134 246 0
497 299 -341 0
373 -275 -316 0
203 485 -225 0
227 -33 263 0
-347 -278 -309 0
-274 138 74 0
219 45 -232 0
444 451 268 0
454 429 -347 0
215 367 -272 0
206 67 482 0
163 379 -96 0
289 28 474 0
318 -338 -349 0
23 344 -428 0
-165 -221 -398 0
211 -305 137 0
-8 -147 434 0
406 360 142 0
-438 -257 164 0
-192 441 -371 0
132 147 -287 0
490 -242 -403 0
175 223 363 0
240 105 5 0
-25 462 -308 0
-120 161 -437 0
442 450 128 0
174 34 279 0
-53 206 -173 0
-324 276 446 0
420 -447 370 0
-40 -305 432 0
262 217 -500 0
497 36 469 0
-226 74 467 0
-130 168 143 0
265 -123 130 0
451 -239 242 0
-331 370 -42 0
-417 -335 -443 0
-184 -376 -237 0
-401 -190 143 0
-281 -74 -428 0
-462 -494 -347 0
126 56 -257 0
278 337 291 0
419 481 128 0
357 468 165 0
433 196 46 0
191 302 -494 0
-332 -423 -223 0
64 -381 -363 0
5 334 -172 0
317 283 -29 0
323 -318 200 0
434 366 -250 0
-325 200 -125 0
-209 30 -363 0
429 19 -439 0
128 97 105 0
-155 -350 8 0
308 -382 -456 0
440 76 -103 0
-310 -340 -231 0
445 499 -154 0
395 466 -241 0
367 470 -286 0
-477 154 -437 0
-121 497 330 0
220 -113 -395 0
-163 -29 7 0
355 429 -68 0
-401 -62 422 0
-495 392 134 0
108 430 445 0
207 -101 357 0
-297 18 -75 0
326 458 480 0
468 62 -121 0
449 82 298 0
277 -272 383 0
-141 401 185 0
-36 279 232 0
210 -393 -424 0
410 89 180 0
-447 84 398 0
124 -120 138 0
-307 112 -207 0
-250 401 -198 0
168 349 -10 0
-126 392 336 0
-429 465 42 0
223 -358 135 0
258 54 469 0
171 -168 -359 0
-82 422 46 0
421 -110 -364 0
-39 -475 274 0
268 -420 -361 0
-193 435 8 0
61 416 111 0
332 -57 -114 0
-464 328 -213 0
-451 -15 195 0
30 301 76 0
-253 -32 -3 0
397 -316 13 0
398 458 -193 0
178 -363 -56 0
-251 328 -87 0
-183 -62 213 0
-497 381 -34 0
-311 487 189 0
320 -396 -129 0
224 32 236 0
-36 175 148 0
-227 -1 454 0
17 30 -339 0
67 411 462 0
-218 371 295 0
-430 288 -314 0
21 443 -136 0
-149 22 -177 0
-232 -110 253 0
-4 332 88 0
478 354 97 0
-135 -67 417 0
-217 -69 -428 0
-216 380 116 0
-228 157 -117 0
281 -83 -160 0
-168 237 -317 0
341 -188 327 0
113 292 409 0
-454 324 380 0
407 194 -481 0
10 291 -22 0
-411 -395 -334 0
190 -105 340 0
-147 -500 346 0
281 48 98 0
222 254 393 0
-467 -461 296 0
454 248 251 0
-150 224 458 0
-158 251 481 0
-287 -10 -42 0
-33 -139 38 0
-413 -283 268 0
106 -312 -306 0
-334 85 -150 0
255 449 -274 0
192 -363 68 0
142 184 -494 0
-406 -100 -335 0
307 296 -354 0
-285 -468 -256 0
-359 -238 440 0
353 71 -38 0
257 271 479 0
104 -411 91 0
-454 358 -122 0
-287 3 -60 0
328 369 480 0
388 -328 152 0
67 341 -375 0
485 361 348 0
-110 -387 80 0
490 -314 -265 0
262 -346 261 0
-92 423 233 0
201 72 -292 0
283 269 -315 0
-219 312 310 0
-231 60 333 0
-395 468 -94 0
-447 -299 -108 0
-45 72 -439 0
454 338 -316 0
295 -110 280 0
-12 194 459 0
478 -34 481 0
-208 -449 -22 0
46 498 -95 0
-53 -356 60 0
-333 -241 -405 0
-156 364 -342 0
362 -377 374 0
413 -445 -121 0
-13 152 -243 0
253 230 -236 0
188 115 -311 0
-240 225 285 0
-425 -381 21 0
106 -313 -459 0
313 -497 182 0
486 148 347 0
-215 -368 -175 0
-198 -121 -419 0
-334 473 -299 0
-315 -350 94 0
211 104 -216 0
139 -32 355 0
383 -47 280 0
38 161 -301 0
171 448 466 0
465 -141 32 0
-251 -470 -497 0
-47 -353 455 0
-453 184 -495 0
47 -162 62 0
159 -104 234 0
-37 311 95 0
-64 37 -313 0
-489 -424 4 0
-389 -423 238 0
58 -114 245 0
-457 -147 -124 0
-30 21 228 0
309 -285 305 0
-415 427 391 0
421 -30 472 0
363 338 447 0
10 -452 -99 0
241 270 -429 0
-80 -61 401 0
338 -22 384 0
66 243 -181 0
40 -10 45 0
406 -260 -56 0
13 253 295 0
301 281 -172 0
-1 -355 25 0
301 118 24 0
338 -277 -242 0
388 261 -493 0
294 -359 336 0
130 431 107 0
29 337 295 0
281 458 157 0
-499 -209 247 0
-391 -362 -119 0
-293 -343 -191 0
231 245 218 0
-392 -268 329 0
453 407 162 0
189 190 -325 0
-62 -465 -296 0
-362 -27 -435 0
396 -245 -260 0
-312 322 -247 0
113 -34 -375 0
-175 -52 -186 0
228 155 416 0
-177 265 -217 0
262 98 321 0
-91 -166 50 0
-225 158 292 0
426 -293 -197 0
-490 267 340 0
219 73 -119 0
-127 46 289 0
63 -74 -381 0
71 273 -333 0
-375 -34 -160 0
185 124 318 0
359 94 23 0
-128 467 -233 0
337 214 284 0
-173 456 -368 0
343 -100 -267 0
89 -331 346 0
-388 -230 8 0
-445 -51 -31 0
278 -400 -268 0
-376 -404 -407 0
-39 -402 -429 0
-43 -142 -451 0
-323 93 -206 0
248 232 -321 0
70 -297 114 0
-372 93 -276 0
269 -462 -169 0
-73 490 -22 0
-79 -29 -250 0
-435 287 -87 0
-317 -290 -128 0
-209 110 304 0
101 -35 -166 0
-254 234 278 0
107 169 -96 0
-20 -104 377 0
251 144 -102 0
-115 204 -340 0
-432 275 399 0
-123 388 -137 0
193 -469 -479 0
425 486 499 0
90 -82 -225 0
387 343 264 0
-236 141 216 0
454 167 -287 0
-458 -406 -30 0
63 -353 -314 0
101 303 335 0
-48 485 360 0
-293 186 410 0
-228 471 -357 0
399 244 497 0
56 -167 164 0
366 -138 -261 0
-92 -327 71 0
12 -267 -493 0
331 27 -393 0
-376 151 333 0
-105 391 228 0
-254 175 -146 0
184 -78 181 0
-366 -449 20 0
305 -50 -88 0
-267 -408 -156 0
-227 288 -54 0
-389 -432 324 0
38 110 -458 0
-385 315 -372 0
-205 -30 99 0
45 -120 -50 0
336 -496 -240 0
387 -172 -152 0
395 -260 -213 0
-228 -236 -320 0
-115 45 53 0
439 413 299 0
176 -366 315 0
88 -12 -95 0
124 -150 -151 0
-490 313 256 0
-254 35 151 0
274 -40 -151 0
-180 -335 116 0
55 -214 -148 0
-6 133 97 0
-329 139 99 0
-464 440 -173 0
-297 459 150 0
-275 -462 170 0
-480 -173 93 0
-44 -194 -310 0
291 -143 -12 0
-265 225 146 0
-233 -222 261 0
158 -144 69 0
-305 -279 46 0
-348 -155 465 0
-500 -323 -268 0
99 -182 -218 0
-211 -369 278 0
31 -59 -260 0
103 -104 230 0
12 23 -341 0
-325 424 307 0
415 307 239 0
-327 301 -107 0
-179 -251 169 0
-62 -341 -226 0
30 -56 141 0
-65 -348 73 0
-86 -292 -217 0
-465 -373 195 0
-188 109 -457 0
-208 -65 35 0
-387 26 -252 0
451 444 -291 0
-70 436 -230 0
-250 194 383 0
80 -330 494 0
-411 -12 -104 0
499 298 260 0
422 -409 -413 0
-169 -216 481 0
-190 159 -56 0
220 -195 263 0
396 -120 -215 0
-108 -5 382 0
-336 436 44 0
298 -163 396 0
328 291 -347 0
-493 398 -196 0
-272 407 57 0
-102 -374 -225 0
-7 315 186 0
-103 -391 408 0
-151 138 51 0
-464 -272 -118 0
-360 408 471 0
333 -332 -220 0
-99 -193 -220 0
92 -26 447 0
68 178 -11 0
-98 102 418 0
-60 -240 -3 0
-188 165 -168 0
246 -36 -88 0
-314 -248 -244 0
302 178 -360 0
-329 175 421 0
-294 412 402 0
361 -340 -351 0
-414 -22 468 0
317 81 216 0
-435 -394 -430 0
108 -421 -221 0
-202 428 -460 0
-307 110 -367 0
110 94 -368 0
-233 -36 299 0
19 70 -224 0
173 49 -221 0
-282 463 -429 0
-266 317 -133 0
31 -223 -64 0
394 -457 84 0
239 495 -134 0
-19 386 185 0
-478 -43 -240 0
439 422 -343 0
321 7 -259 0
-320 248 221 0
-169 488 -347 0
-65 -385 396 0
-451 225 -472 0
302 -483 259 0
18 7 -262 0
226 236 109 0
67 355 392 0
-20 166 -261 0
83 378 -84 0
-21 435 -315 0
-321 423 -305 0
-295 479 86 0
-472 -149 17 0
400 -207 -428 0
237 175 -494 0
256 -14 -493 0
-293 -296 -364 0
-1 -240 -372 0
456 428 253 0
127 306 -307 0
454 -341 57 0
105 -166 -175 0
-416 -491 453 0
317 -332 -217 0
97 -120 -428 0
429 -7 172 0
-75 108 227 0
480 478 488 0
81 -431 85 0
257 -137 466 0
-404 -306 -249 0
-183 67 -453 0
-174 -66 83 0
-130 321 282 0
-355 341 -226 0
391 266 381 0
-338 268 371 0
80 448 -5 0
-30 -217 -345 0
306 -245 -410 0
230 -331 -92 0
359 -117 -71 0
38 -298 243 0
439 -416 -219 0
179 361 -138 0
-409 -65 -229 0
186 -190 37 0
-308 -189 81 0
262 -448 -411 0
99 121 -13 0
-59 114 -435 0
165 260 306 0
155 -473 -112 0
-55 76 -237 0
-260 -33 292 0
442 112 11 0
463 406 462 0
-349 -344 362 0
390 269 284 0
187 195 79 0
-29 -8 90 0
-196 -103 441 0
94 173 -196 0
-330 -60 258 0
158 423 -266 0
-141 227 312 0
-155 269 -122 0
-345 445 475 0
-183 136 222 0
-252 63 498 0
237 -266 14 0
395 -338 473 0
-379 59 488 0
346 -131 -98 0
204 306 38 0
189 12 272 0
469 467 -209 0
304 7 -476 0
-438 349 137 0
193 -216 -365 0
-190 271 264 0
492 374 249 0
-422 -218 -291 0
-3 -99 -281 0
211 246 473 0
323 -339 -113 0
-223 -449 292 0
-120 3 -351 0
261 -323 182 0
28 392 275 0
423 -455 -183 0
343 76 -330 0
307 145 -198 0
-285 -29 -68 0
253 -329 499 0
-180 -488 341 0
264 24 177 0
-101 -470 318 0
129 190 -234 0
-58 304 -9 0
363 237 -398 0
-300 261 -106 0
299 -402 432 0
-211 -207 157 0
-43 285 110 0
-87 -32 -128 0
-45 490 71 0
399 15 -324 0
451 463 -343 0
175 81 -439 0
-123 -300 427 0
240 -467 -289 0
-41 472 -276 0
397 299 -11 0
395 277 -409 0
257 197 404 0
237 -115 -302 0
457 -486 184 0
-359 -6 -300 0
-194 -400 115 0
251 74 -59 0
369 -333 420 0
307 310 498 0
313 -283 31 0
288 -311 -232 0
-401 68 56 0
-174 -448 156 0
-428 -144 -95 0
-434 347 -124 0
164 -354 -45 0
155 -372 -119 0
-12 50 454 0
-384 314 -409 0
-61 238 113 0
-108 127 -27 0
377 248 -67 0
7 208 372 0
-187 164 -223 0
326 334 157 0
-320 -203 451 0
-416 -219 -480 0
-496 410 -422 0
-322 399 98 0
-101 379 329 0
97 -60 -346 0
179 -124 379 0
-195 354 250 0
-275 489 200 0
-393 -87 -273 0
-473 178 -437 0
483 354 485 0
142 382 -47 0
152 -328 -366 0
-235 -236 68 0
65 203 91 0
70 477 339 0
-263 -92 212 0
468 288 433 0
340 70 -418 0
144 -106 -492 0
-366 -76 215 0
404 -179 -266 0
-169 154 28 0
244 67 94 0
251 -76 -340 0
-53 -354 -312 0
255 44 269 0
209 191 -267 0
-284 473 260 0
-221 30 -344 0
-14 319 -312 0
483 -470 139 0
-24 355 28 0
146 117 10 0
-483 -494 422 0
-109 353 -413 0
358 148 80 0
-298 -219 425 0
316 -460 376 0
180 -327 231 0
-326 -385 209 0
111 142 -37 0
227 202 -309 0
259 319 -42 0
-459 -260 -339 0
-363 416 19 0
1 135 -495 0
-270 453 -251 0
446 319 251 0
71 -409 144 0
-146 -64 -58 0
137 331 277 0
4 493 -450 0
-408 330 41 0
46 -346 166 0
235 -499 -172 0
72 447 -215 0
-486 -319 196 0
-79 -217 324 0
-77 111 399 0
74 381 102 0
423 221 -428 0
-426 -492 156 0
356 49 -401 0
318 486 -294 0
387 450 -349 0
-465 -492 286 0
413 -303 322 0
221 397 -394 0
104 353 -419 0
157 482 -273 0
-373 451 -325 0
-30 146 275 0
489 48 176 0
46 -411 404 0
8 -22 42 0
387 498 201 0
-388 -32 -185 0
-335 275 -239 0
67 379 210 0
-250 -224 -410 0
-22 -52 -55 0
102 -371 178 0
-233 12 16 0
-494 434 64 0
-199 343 405 0
-13 -163 419 0
6 453 -40 0
-346 -139 -1 0
190 61 -441 0
-491 -289 -374 0
429 -232 -319 0
-241 39 -348 0
326 141 366 0
355 -141 -65 0
-1 15 -334 0
-59 225 -164 0
-174 495 -499 0
21 -64 341 0
-95 29 228 0
413 500 -498 0
-474 449 -335 0
-458 -116 -300 0
-72 264 -86 0
60 -73 86 0
-203 -340 298 0
436 245 192 0
-64 137 -428 0
-329 438 241 0
147 -230 357 0
-45 42 -191 0
-159 106 97 0
266 394 -28 0
486 -438 307 0
100 337 45 0
435 275 -6 0
-26 -172 457 0
-66 13 261 0
-296 356 -459 0
-6 219 391 0
102 -239 353 0
224 399 -235 0
-83 -39 97 0
-272 140 211 0
-353 -8 297 0
-70 14 -78 0
368 -238 250 0
-313 -385 -141 0
-325 -407 -239 0
-395 77 -442 0
-144 -65 -90 0
157 -12 460 0
130 388 2 0
-166 -8 190 0
324 327 438 0
-384 -382 487 0
117 -156 -353 0
-48 -330 -455 0
464 461 193 0
-278 -105 253 0
-367 317 -232 0
260 84 -206 0
-268 -321 -399 0
-319 -107 292 0
39 -107 -135 0
246 -329 471 0
144 -471 -199 0
-227 26 204 0
-32 453 -165 0
200 -166 95 0
-168 129 313 0
-55 -64 481 0
-33 441 -245 0
364 175 -246 0
278 228 273 0
-193 -378 -403 0
34 314 306 0
-93 176 -161 0
-263 289 78 0
99 -179 -100 0
80 -135 21 0
188 -250 -293 0
15 -135 169 0
-291 120 431 0
337 -243 30 0
-92 -60 -120 0
64 9 315 0
-328 264 -17 0
110 -310 127 0
278 163 -436 0
-263 390 -389 0
357 -10 359 0
-11 243 -215 0
268 -143 333 0
174 -8 185 0
251 -410 -413 0
372 -311 487 0
-389 -499 59 0
-172 146 78 0
-322 -194 167 0
-400 -59 212 0
193 -177 -489 0
283 -118 399 0
-337 -144 -355 0
-170 -405 -366 0
100 -169 333 0
-402 164 311 0
-151 -500 45 0
374 -104 -160 0
-285 191 324 0
52 -38 461 0
-211 -104 -294 0
425 405 137 0
437 370 389 0
61 -299 78 0
-252 -323 -325 0
-61 -152 -228 0
-56 -346 433 0
170 208 -199 0
-391 205 -188 0
262 340 249 0
-187 461 338 0
124 51 -385 0
436 -92 -338 0
214 62 -445 0
-398 -274 364 0
6 141 51 0
164 210 -329 0
-114 86 3 0
4 484 32 0
-309 347 355 0
-292 356 23 0
-191 -332 13 0
25 -15 -241 0
73 335 495 0
379 -135 -420 0
-68 350 153 0
-8 244 307 0
-35 438 410 0
-15 342 400 0
480 120 -210 0
-177 19 -489 0
-400 -472 -376 0
-189 -279 -61 0
492 383 -43 0
-207 474 -369 0
-214 -341 126 0
-8 259 -95 0
335 -296 -497 0
339 16 -322 0
-157 -467 -69 0
446 21 382 0
-478 -470 269 0
-117 215 -282 0
-355 71 -495 0
-106 -436 -391 0
-463 157 -37 0
-110 405 -218 0
-218 140 -255 0
361 179 351 0
269 338 118 0
492 199 -235 0
22 412 -199 0
124 297 -304 0
-386 -323 134 0
-493 -357 -361 0
-168 304 -73 0
99 -432 -275 0
200 -444 -466 0
-202 283 42 0
313 308 249 0
36 466 404 0
253 169 -59 0
-59 231 -106 0
-46 299 -251 0
466 -87 148 0
417 230 -96 0
-254 329 192 0
-197 -424 -485 0
388 -124 292 0
-217 -292 497 0
-44 -393 -96 0
241 -318 -343 0
-191 389 -32 0
342 103 -121 0
328 -439 -109 0
337 484 365 0
-62 77 -18 0
71 -328 338 0
346 -187 384 0
-268 -159 20 0
-254 -365 380 0
350 450 -81 0
455 -389 84 0
-440 -203 479 0
-443 -342 104 0
468 118 210 0
-41 -165 -463 0
-179 -189 102 0
471 -220 -241 0
361 276 380 0
33 -31 25 0
-280 144 -401 0
95 -239 -399 0
296 -340 -273 0
232 -120 295 0
-404 -13 -319 0
-50 -278 -466 0
-129 190 3 0
-391 -436 -484 0
361 -366 -70 0
-114 356 -322 0
431 209 329 0
-129 -449 -459 0
413 373 253 0
-340 -421 324 0
-211 -413 333 0
-480 147 -62 0
-120 -144 -60 0
-401 -435 -342 0
-478 3 -172 0
-464 240 -241 0
-499 84 -197 0
-434 283 291 0
-88 -413 -139 0
-194 473 -385 0
-68 190 -344 0
-102 298 37 0
169 407 -102 0
444 -353 -171 0
256 234 322 0
273 -237 -359 0
364 -8 139 0
157 -438 191 0
201 -481 -485 0
-305 -65 80 0
-68 -11 -351 0
10 -51 483 0
85 405 243 0
16 -489 171 0
339 324 -20 0
415 -408 192 0
449 286 282 0
485 -304 120 0
156 -214 412 0
161 -367 -311 0
-478 -266 -85 0
248 -301 -270 0
-378 70 -58 0
215 154 -372 0
417 222 -447 0
213 -291 431 0
-139 489 -210 0
-411 -480 -149 0
123 -348 149 0
-93 268 -325 0
1 374 -60 0
213 290 -75 0
-425 327 436 0
-286 -94 -259 0
30 406 -265 0
299 262 394 0
89 215 -164 0
-471 -53 -372 0
50 144 -207 0
-11 181 -391 0
-429 15 452 0
-366 -334 -375 0
-161 232 -178 0
94 -443 -202 0
235 486 -398 0
26 438 -472 0
391 -124 377 0
29 261 263 0
-470 289 371 0
484 387 -303 0
-436 -361 398 0
-29 399 280 0
177 296 89 0
-179 446 -265 0
270 64 -409 0
340 75 265 0
-98 -47 194 0
478 -287 288 0
22 -134 -237 0
-19 -326 -37 0
-357 495 216 0
-61 211 -482 0
479 493 -390 0
206 383 361 0
-197 -416 341 0
-7 450 293 0
230 206 285 0
-457 129 355 0
-112 -123 -150 0
387 126 315 0
452 -464 -310 0
-154 461 161 0
-460 -423 406 0
386 -454 310 0
429 -215 137 0
-38 57 11 0
455 444 400 0
-498 -38 452 0
-1 -284 -309 0
136 355 392 0
