p cnf 500 2200
-67 273 495 0
46 390 -72 0
-124 155 498 0
106 485 203 0
-347 191 -266 0
-274 105 -148 0
120 -61 268 0
-227 -431 391 0
480 333 -101 0
214 -152 -78 0
368 -95 -434 0
-211 -165 375 0
436 232 361 0
-268 39 327 0
80 221 -30 0
358 -45 160 0
-89 -164 -43 0
-451 351 -144 0
-341 490 335 0
95 229 212 0
117 -38 384 0
-135 -343 -443 0
420 -230 473 0
65 -168 -396 0
332 -50 289 0
-433 407 -385 0
-374 313 -167 0
-164 321 31 0
-112 275 -500 0
-208 9 -114 0
-231 39 -144 0
228 500 -54 0
-58 -409 -51 0
267 -311 -140 0
-492 -470 72 0
-343 177 -461 0
-192 240 98 0
41 112 431 0
-103 45 4 0
458 39 75 0
-184 -142 -357 0
188 423 282 0
337 355 -272 0
414 -468 -475 0
429 -136 -83 0
207 -301 -341 0
199 451 -459 0
-264 -50 433 0
-233 -102 313 0
180 333 -149 0
-17 165 51 0
412 -203 370 0
445 190 -316 0
-127 415 427 0
461 468 60 0
-258 330 291 0
-31 -385 -131 0
-243 156 -155 0
480 111 -417 0
-83 184 496 0
-113 -86 -468 0
227 461 254 0
-8 -35 -105 0
476 102 -471 0
345 -415 240 0
421 334 304 0
324 -84 -473 0
-352 198 111 0
-488 10 455 0
-9 -449 467 0
409 -177 -494 0
143 -69 -89 0
396 430 -447 0
-156 316 40 0
-474 158 336 0
-320 -89 -57 0
478 -491 -443 0
-473 -456 22 0
419 -405 65 0
-95 457 283 0
-32 -432 -211 0
102 -136 391 0
72 166 103 0
420 240 -365 0
30 381 481 0
212 247 -468 0
-281 15 -197 0
-438 96 -120 0
-136 158 434 0
252 -395 232 0
-381 -26 444 0
283 356 -335 0
152 -432 -370 0
-117 203 79 0
-39 97 382 0
-236 407 387 0
-430 -129 190 0
80 371 339 0
465 -46 32 0
-39 445 287 0
-345 46 313 0
-215 282 259 0
-190 -237 442 0
184 437 204 0
497 294 -472 0
297 -59 -430 0
-133 -145 -191 0
-283 -110 62 0
136 373 -328 0
-410 343 -465 0
-176 376 -74 0
102 -398 42 0
-210 382 267 0
355 35 -316 0
6 104 -233 0
-329 79 98 0
212 446 461 0
387 47 -196 0
69 -459 -15 0
-52 37 -456 0
-485 -417 -353 0
-80 -44 219 0
-448 473 -167 0
347 432 -335 0
-80 331 421 0
-249 362 -374 0
316 405 -483 0
449 -117 -343 0
-447 -469 -439 0
84 143 -500 0
-227 21 472 0
-304 78 262 0
-11 -69 -264 0
-128 312 235 0
-163 -300 384 0
-180 -288 -116 0
166 376 275 0
115 -172 364 0
111 459 155 0
-349 420 -19 0
-372 -307 -47 0
-123 -174 260 0
200 -496 -376 0
-295 -310 128 0
72 483 -190 0
206 -313 416 0
-365 48 495 0
-435 -378 386 0
-54 -184 -407 0
312 437 -348 0
95 489 74 0
362 -360 210 0
495 9 -154 0
-425 -274 -42 0
44 334 -201 0
312 -476 38 0
-31 347 415 0
80 26 -472 0
444 477 -175 0
390 -472 -160 0
-353 -185 256 0
-104 -14 93 0
-101 -45 287 0
47 -300 -206 0
14 429 -357 0
439 327 207 0
86 293 -134 0
303 313 19 0
42 372 299 0
425 -344 -467 0
-399 -35 -18 0
-173 -428 496 0
-363 -313 412 0
-162 -57 -386 0
-158 -401 125 0
15 -17 -443 0
-485 387 210 0
127 445 469 0
-43 410 -168 0
130 266 -28 0
-292 -189 -313 0
-489 -300 -385 0
76 -327 -290 0
-235 -321 184 0
236 364 -476 0
72 -89 166 0
-20 210 406 0
-305 -212 -474 0
-398 147 -446 0
-133 197 337 0
104 -374 -319 0
-293 -415 -32 0
82 142 -97 0
125 4 296 0
334 355 -211 0
328 -69 -204 0
-53 431 -428 0
87 -317 -33 0
302 -321 67 0
-173 -141 78 0
-461 -280 316 0
427 335 496 0
96 337 476 0
191 -304 14 0
428 186 -30 0
181 -457 123 0
-469 -230 57 0
-241 -5 316 0
-27 44 67 0
-11 -462 -303 0
-239 34 479 0
-51 -96 132 0
-221 -368 284 0
38 59 204 0
489 -128 389 0
421 -492 -440 0
7 418 85 0
-105 461 162 0
79 476 301 0
372 -465 -251 0
106 -76 -21 0
485 138 57 0
181 333 -474 0
-316 -6 -96 0
361 -473 -470 0
-367 391 211 0
-259 443 -83 0
-183 339 96 0
-389 52 247 0
240 438 321 0
-36 50 -371 0
304 -348 -265 0
-371 -470 -149 0
-188 458 -273 0
-348 -208 -366 0
140 -363 -375 0
488 -60 177 0
-485 129 -420 0
35 223 308 0
293 -399 81 0
102 -290 404 0
-74 433 138 0
229 -271 -124 0
72 -93 169 0
79 -99 183 0
265 -159 111 0
291 -325 176 0
-292 470 330 0
-261 -248 -422 0
4 -123 129 0
-260 -265 -330 0
-227 -381 232 0
352 -123 -244 0
-242 -393 443 0
-403 -333 432 0
-52 -219 -437 0
97 125 397 0
335 -221 288 0
-120 378 486 0
-189 -58 -124 0
202 396 150 0
351 -459 -131 0
411 -251 263 0
346 487 389 0
88 74 -263 0
-68 -311 114 0
-500 179 -274 0
-86 -33 483 0
-282 -139 247 0
-122 -126 200 0
78 466 244 0
457 352 454 0
-121 411 -427 0
234 284 -132 0
-497 -241 -246 0
328 426 -389 0
120 335 157 0
-231 336 -333 0
141 114 -334 0
-392 120 -35 0
303 57 51 0
15 -282 213 0
158 320 -447 0
371 66 -216 0
458 -34 -177 0
-6 320 -251 0
-409 228 -98 0
181 -387 -244 0
-67 202 -378 0
355 -58 -470 0
404 366 464 0
-380 -152 457 0
-111 -437 -464 0
-84 205 -435 0
-306 -316 206 0
170 178 -114 0
269 -64 197 0
164 47 -315 0
42 -104 430 0
-365 139 -304 0
-191 -133 -48 0
113 -201 172 0
-472 -435 -475 0
-289 -310 315 0
404 250 464 0
-414 418 455 0
-276 378 304 0
307 -332 -391 0
-48 105 -342 0
-352 127 256 0
129 -384 444 0
-68 -351 -304 0
-292 139 95 0
251 -169 -458 0
498 -384 -490 0
404 68 -198 0
357 -197 273 0
-402 -361 -203 0
318 -273 294 0
-379 -496 95 0
-111 380 492 0
-68 461 -91 0
-291 453 -366 0
176 30 200 0
-452 285 -393 0
-452 451 -240 0
471 440 222 0
-414 -409 135 0
433 -269 -51 0
-426 -408 277 0
13 269 -405 0
487 51 280 0
71 -445 363 0
-121 446 281 0
256 -356 -2 0
193 135 399 0
-12 146 181 0
104 61 -366 0
-375 200 -378 0
-354 161 -142 0
-481 -307 418 0
32 -134 461 0
-48 340 -428 0
330 300 165 0
464 -41 291 0
139 -485 -182 0
-499 -239 -70 0
-167 287 48 0
251 74 -419 0
-63 137 -312 0
-330 -353 -455 0
136 214 -363 0
487 -95 361 0
241 -396 344 0
53 248 104 0
-214 -457 -439 0
-186 -347 410 0
-373 277 107 0
329 439 -346 0
92 467 -413 0
27 -125 162 0
252 73 -136 0
196 29 -463 0
174 -164 23 0
-16 -39 265 0
-13 331 -107 0
-75 346 -348 0
192 -181 59 0
373 477 -9 0
157 -133 -177 0
25 -436 377 0
154 -459 -327 0
464 99 -479 0
267 204 -238 0
109 -445 487 0
-154 192 -78 0
-352 -146 -417 0
-284 430 -252 0
-416 -33 184 0
-419 -201 423 0
494 190 -67 0
208 340 -132 0
-121 -146 -315 0
-1 -483 -341 0
-402 50 441 0
-319 226 -9 0
300 -103 -153 0
-62 -249 302 0
-453 -117 -340 0
2 363 381 0
-61 -390 -269 0
-106 -453 -158 0
480 -263 374 0
-250 59 363 0
93 201 38 0
-71 17 -103 0
8 279 -263 0
-51 81 234 0
27 -339 148 0
-452 239 256 0
-266 -156 -336 0
297 272 -196 0
212 -56 280 0
285 -81 -167 0
440 298 479 0
82 -287 370 0
450 461 148 0
486 96 -2 0
-457 -334 191 0
-491 -444 447 0
223 245 485 0
431 329 134 0
22 -243 -146 0
-87 -452 -248 0
364 -188 223 0
-459 -434 -151 0
279 -234 342 0
442 417 -390 0
-214 -153 -363 0
-165 -142 -42 0
-461 -360 -7 0
-302 -231 477 0
-222 10 -338 0
330 284 -279 0
-451 486 279 0
396 -444 405 0
-423 187 308 0
-60 260 6 0
405 497 178 0
-426 -220 384 0
-327 221 -238 0
-450 -176 87 0
-309 183 458 0
-212 -236 379 0
47 46 -490 0
372 498 -223 0
-34 -349 457 0
-3 33 272 0
-65 354 199 0
160 422 158 0
175 466 -208 0
47 186 432 0
-302 -4 -318 0
298 276 -254 0
-383 444 -442 0
-212 122 -480 0
-53 -18 -211 0
424 428 171 0
415 -345 193 0
-178 269 -50 0
-130 405 322 0
-282 -220 285 0
435 220 194 0
-413 -99 3 0
-59 -399 -230 0
485 105 314 0
298 -64 384 0
-468 354 57 0
381 88 -467 0
457 -226 119 0
245 63 41 0
322 303 -124 0
-491 125 88 0
354 154 -61 0
-192 -389 359 0
-253 -443 96 0
-48 -12 -479 0
-16 -470 323 0
217 5 -68 0
76 210 -97 0
248 250 271 0
159 255 446 0
-458 153 -407 0
205 22 -485 0
153 351 62 0
-362 398 -247 0
-1 112 39 0
-89 407 442 0
-487 -217 -285 0
162 216 316 0
-34 -170 442 0
488 -434 194 0
43 56 -448 0
188 26 -293 0
-435 302 -485 0
442 382 -341 0
297 -147 -377 0
56 -499 -288 0
108 -43 -118 0
-398 -100 -315 0
-426 374 409 0
303 -101 255 0
-250 -198 -334 0
-394 408 -279 0
-68 -149 364 0
-195 5 491 0
-226 202 -104 0
-153 -269 -18 0
-30 405 -447 0
-121 -465 -135 0
379 345 -357 0
-158 -306 99 0
130 311 -147 0
-181 -371 343 0
303 -274 291 0
-247 326 -156 0
434 184 59 0
181 -324 430 0
216 -454 241 0
128 -89 52 0
368 140 -338 0
-149 -428 -94 0
118 -237 383 0
137 311 439 0
-24 -182 -44 0
254 -54 -344 0
-1 473 399 0
359 187 220 0
-499 6 -464 0
35 256 117 0
-241 156 145 0
1 -194 69 0
-214 -75 53 0
201 -158 119 0
362 -258 388 0
299 110 113 0
470 352 98 0
-434 432 325 0
-394 -423 369 0
-251 -326 -15 0
351 -399 339 0
457 -286 -366 0
-103 -313 179 0
37 184 408 0
238 243 -198 0
-86 236 495 0
452 215 457 0
475 -416 220 0
422 218 -129 0
-414 -320 361 0
-394 -147 258 0
-394 -176 247 0
-373 17 -402 0
-296 99 60 0
223 82 122 0
-38 -121 -96 0
-253 270 -302 0
433 393 -221 0
-47 294 244 0
-446 -86 176 0
-492 -187 356 0
-61 98 35 0
-236 -30 -71 0
-451 -287 227 0
-324 -477 -311 0
86 -245 322 0
-409 146 384 0
407 -114 -2 0
354 372 -32 0
-112 -496 48 0
-360 16 -446 0
58 -87 21 0
-272 388 151 0
338 299 -66 0
-359 -386 -11 0
-479 117 -66 0
484 -162 -157 0
5 73 69 0
-373 -247 -203 0
-455 -181 429 0
-40 266 120 0
-41 460 -286 0
-75 461 -466 0
-323 -384 66 0
396 -150 -415 0
-390 375 229 0
109 -183 -52 0
422 433 483 0
-90 -217 -59 0
133 -275 230 0
-390 -401 145 0
-247 248 -56 0
-354 -125 275 0
-41 22 252 0
-215 -465 -385 0
31 -172 -497 0
-449 265 -104 0
95 -369 477 0
-349 -209 -254 0
95 11 325 0
-166 -369 28 0
-228 -401 346 0
247 128 -317 0
-317 261 351 0
145 140 -287 0
276 -170 296 0
-231 319 -256 0
61 -475 -281 0
-32 -311 206 0
471 -58 154 0
301 -292 357 0
-154 -418 -435 0
167 305 -64 0
-20 139 -102 0
456 108 -86 0
123 216 -438 0
256 301 -389 0
-267 271 373 0
345 -60 416 0
-302 -400 -382 0
-271 462 -168 0
-362 -166 -480 0
233 -230 198 0
-165 -290 121 0
233 -318 89 0
-130 248 -309 0
-181 -477 243 0
-323 -489 42 0
483 -97 -350 0
461 -476 -312 0
-469 101 285 0
-426 195 56 0
-307 -18 322 0
-25 206 446 0
-464 -78 476 0
238 471 -181 0
-425 -1 -441 0
-327 170 -104 0
353 -478 271 0
146 -492 37 0
470 484 -35 0
222 -441 -13 0
88 -4 434 0
409 -313 347 0
181 227 113 0
10 -133 -21 0
175 322 500 0
142 -325 370 0
219 35 268 0
-389 -390 -265 0
277 62 483 0
276 -180 -320 0
46 169 -345 0
470 321 57 0
232 473 243 0
-400 345 -108 0
-66 485 -276 0
498 178 -271 0
238 -457 39 0
-264 -53 493 0
88 -450 -83 0
-97 368 376 0
482 429 486 0
-98 -46 311 0
-168 283 200 0
-246 31 -484 0
261 116 -117 0
-436 23 246 0
-123 -481 -73 0
475 436 264 0
151 -202 499 0
219 339 360 0
443 -26 -275 0
-101 407 339 0
-424 -412 270 0
173 212 266 0
-73 -7 -411 0
-147 26 -426 0
-438 -137 -353 0
-66 -72 178 0
338 -344 107 0
-210 245 -202 0
239 349 31 0
50 -436 -369 0
-193 -12 159 0
-298 -106 -166 0
155 33 74 0
-50 325 -46 0
354 67 -4 0
-492 -35 -317 0
-356 -132 411 0
-461 246 323 0
279 -193 469 0
328 -299 -30 0
-142 -378 -396 0
-152 -125 372 0
294 108 306 0
322 -391 190 0
29 346 127 0
138 53 -360 0
495 441 63 0
138 -150 -396 0
428 -208 229 0
198 -397 115 0
436 -475 38 0
136 -147 -324 0
221 -478 -233 0
156 381 -21 0
-386 -106 219 0
-8 454 -479 0
405 -15 -498 0
230 3 -464 0
-408 446 15 0
-191 -324 100 0
172 476 -64 0
-345 92 -109 0
287 -498 201 0
487 320 -279 0
496 -358 -306 0
-291 327 112 0
439 -416 -276 0
278 258 -356 0
301 62 459 0
387 -56 81 0
190 -464 217 0
174 37 -340 0
331 291 155 0
-394 -53 268 0
-330 -63 141 0
-135 -252 285 0
304 446 480 0
179 -268 448 0
6 162 239 0
24 -25 202 0
-247 386 253 0
194 413 -491 0
-125 460 -451 0
474 -102 431 0
327 -322 158 0
282 140 3 0
407 314 109 0
-363 -68 -15 0
-369 -370 248 0
47 386 -344 0
358 -296 -486 0
-30 117 -398 0
-252 334 227 0
-136 335 -304 0
187 -162 367 0
3 -106 -75 0
458 321 -340 0
87 -312 76 0
94 -262 -368 0
92 276 -468 0
-60 -483 -421 0
-121 261 125 0
-16 72 74 0
-33 363 -349 0
-455 79 -95 0
-454 -200 483 0
-57 441 -204 0
-262 -62 419 0
446 -139 -307 0
-33 -124 -297 0
167 -133 221 0
148 213 -176 0
19 140 -161 0
204 -21 -417 0
450 -297 103 0
173 -279 -10 0
-399 10 84 0
-464 -7 -267 0
-500 -231 406 0
160 413 -57 0
-348 -107 -434 0
-145 201 -305 0
315 142 -390 0
71 351 146 0
-319 -273 -329 0
214 -143 -120 0
480 -331 126 0
192 -404 392 0
207 -97 88 0
384 -308 315 0
396 207 347 0
-127 -69 -376 0
-257 276 340 0
453 438 95 0
440 -19 109 0
-318 341 -400 0
-288 272 138 0
302 249 -165 0
268 -341 -480 0
-389 -207 67 0
341 452 -314 0
-133 58 136 0
-243 -54 371 0
-45 -6 -424 0
-115 265 275 0
205 292 382 0
-397 485 76 0
-439 108 136 0
-304 367 -307 0
-18 -344 -13 0
421 262 247 0
439 491 -80 0
-402 259 -145 0
-54 -304 -198 0
-319 299 -271 0
-304 -219 212 0
171 -219 -361 0
-305 27 -328 0
-99 -272 401 0
297 101 245 0
333 84 99 0
-423 -411 8 0
-145 -36 133 0
23 -485 297 0
-246 -394 -283 0
3 -443 188 0
397 -111 153 0
-498 210 421 0
99 364 -473 0
467 20 81 0
298 -38 -315 0
303 -434 324 0
307 -489 443 0
-205 -412 1 0
-318 248 -176 0
111 -348 13 0
-356 -3 -21 0
-285 -293 341 0
426 -197 -22 0
35 24 -77 0
245 247 193 0
-136 -390 -111 0
495 236 104 0
351 -51 364 0
401 371 353 0
500 420 82 0
480 414 444 0
29 -398 195 0
-386 286 16 0
-214 245 171 0
-230 -474 72 0
-46 -420 -111 0
-161 422 125 0
-448 251 418 0
-263 -356 423 0
-330 -140 -384 0
76 385 -63 0
-331 -472 -474 0
482 -291 -36 0
470 -339 -152 0
-53 476 -267 0
-106 75 -153 0
-22 -78 467 0
204 462 101 0
-337 -11 -362 0
-108 -450 -85 0
-365 -183 375 0
-24 -10 2 0
-112 431 82 0
341 14 471 0
-9 233 -382 0
-472 -60 318 0
93 57 -236 0
129 -235 -106 0
-297 383 356 0
-368 308 -178 0
176 -379 220 0
75 216 456 0
260 -64 -437 0
346 -77 -161 0
-484 -243 -240 0
287 -170 -474 0
439 315 421 0
-307 -174 -316 0
460 314 -153 0
287 28 129 0
-19 -382 -494 0
-415 -370 417 0
280 226 232 0
-35 -431 463 0
498 -125 494 0
36 -299 67 0
373 -244 499 0
336 284 394 0
69 121 430 0
-27 59 127 0
96 274 312 0
-193 -449 -157 0
-291 -267 -279 0
-447 -195 178 0
-398 106 -26 0
-70 82 -2 0
473 -338 38 0
-249 291 497 0
-76 -438 -148 0
-9 -157 295 0
-118 -221 -360 0
307 -313 -311 0
122 314 -138 0
143 405 -244 0
294 249 -69 0
-241 401 -12 0
-399 40 -431 0
375 -62 -161 0
17 353 418 0
-383 -114 -410 0
-236 -84 -133 0
366 -184 -270 0
69 -267 324 0
-260 -338 359 0
50 -175 216 0
31 440 273 0
121 229 -185 0
-214 311 -425 0
50 2 -259 0
-403 -200 -475 0
-478 -23 -487 0
-300 -207 -371 0
-89 -339 141 0
-481 359 -234 0
245 86 282 0
427 163 -379 0
-496 -236 -262 0
-255 -317 -140 0
487 93 -364 0
-155 -444 -100 0
152 386 170 0
-282 494 -77 0
-162 -92 26 0
-79 408 -439 0
172 -374 -109 0
-385 -98 -389 0
279 92 -80 0
387 -19 302 0
278 -260 -233 0
-411 -370 86 0
-370 111 -130 0
55 -258 -146 0
61 252 356 0
211 -476 447 0
-10 361 -12 0
-428 158 344 0
468 -228 154 0
109 32 113 0
295 2 -321 0
-419 333 365 0
199 -377 -381 0
-413 -254 -33 0
395 -136 446 0
-285 -17 -86 0
2 -310 62 0
81 21 29 0
402 169 109 0
49 -97 -23 0
-352 -217 -327 0
59 -497 -113 0
19 -482 316 0
437 -132 368 0
-319 -484 245 0
-246 456 461 0
185 -311 -176 0
187 249 -394 0
-24 268 242 0
458 107 191 0
442 113 74 0
-142 123 272 0
14 463 230 0
-55 144 307 0
-298 -82 332 0
468 -326 390 0
212 104 16 0
-274 -480 -453 0
403 142 89 0
-336 -74 -442 0
-270 285 450 0
-452 279 296 0
296 231 106 0
494 350 408 0
391 -492 398 0
-132 298 312 0
-461 152 8 0
131 -381 434 0
-79 -240 -433 0
41 357 -322 0
-35 400 313 0
-294 -362 318 0
331 -500 67 0
59 237 -186 0
-74 383 260 0
-112 8 -218 0
-157 -281 -291 0
185 -65 49 0
365 -498 -261 0
242 219 373 0
425 -100 124 0
97 249 -15 0
422 67 -174 0
-112 -190 91 0
-43 -417 329 0
-46 -229 -117 0
291 349 480 0
-175 -303 53 0
477 94 -484 0
36 -254 -363 0
34 309 -227 0
-78 -91 -495 0
400 -307 141 0
279 -102 -55 0
471 -183 7 0
-90 -271 10 0
316 141 142 0
373 -89 -320 0
-109 -260 -292 0
-192 -179 -3 0
364 -232 307 0
-356 -141 280 0
-192 -182 -371 0
-186 67 -349 0
-314 -224 -426 0
-316 402 -163 0
-405 18 239 0
205 -132 -166 0
191 227 241 0
-377 133 -497 0
396 459 -44 0
-70 -428 145 0
272 94 -357 0
481 156 278 0
-263 -332 46 0
-75 -458 -204 0
-66 151 190 0
-108 -161 482 0
399 413 199 0
-348 -341 -434 0
-382 231 -160 0
-438 55 178 0
348 474 174 0
135 -62 -154 0
444 142 120 0
-37 111 -218 0
-487 -229 -231 0
98 118 186 0
291 -257 -105 0
-100 -12 282 0
100 -487 190 0
-288 -469 365 0
-404 -453 314 0
432 328 452 0
107 -97 79 0
428 -75 329 0
-180 324 433 0
-8 -77 466 0
338 262 461 0
9 312 -332 0
7 223 69 0
47 -336 -355 0
95 -84 184 0
-226 386 32 0
393 -411 324 0
155 -141 119 0
349 117 -30 0
42 -393 -146 0
-460 -317 338 0
210 408 -266 0
-39 -229 -324 0
-322 21 -165 0
-70 -3 -284 0
402 -178 -223 0
-415 -195 89 0
-480 -261 -184 0
-181 -435 -4 0
285 203 44 0
-90 422 -492 0
251 -303 -128 0
298 396 -444 0
398 -472 32 0
422 -93 449 0
133 -489 209 0
-194 354 -346 0
-73 -63 -199 0
336 -429 -292 0
-156 213 -24 0
186 209 162 0
-415 417 90 0
-45 291 -92 0
-460 -456 108 0
-416 -444 -62 0
30 33 -398 0
-385 425 254 0
224 138 348 0
-121 343 2 0
455 87 -484 0
62 350 67 0
-464 14 80 0
334 -451 476 0
-208 162 -379 0
-321 -176 -205 0
-64 -294 -436 0
108 487 -114 0
-369 -32 491 0
500 -252 -157 0
-150 -205 -72 0
170 -41 -441 0
-293 -382 454 0
-221 131 394 0
-68 -475 -447 0
454 255 129 0
49 110 -412 0
-303 28 -178 0
364 22 -247 0
-393 -103 185 0
-40 -125 -456 0
-203 130 -82 0
-259 -336 233 0
-6 274 -185 0
-437 -362 -175 0
-229 168 340 0
-28 -352 237 0
-275 497 182 0
76 60 -322 0
-190 291 -75 0
-475 414 -419 0
-212 -236 280 0
-460 -232 -456 0
443 300 367 0
-152 415 -494 0
286 184 41 0
-249 -380 -468 0
-266 28 -179 0
-434 391 -81 0
418 431 348 0
-396 -126 73 0
195 171 24 0
-141 -459 168 0
-432 -198 316 0
243 247 -65 0
-396 -401 192 0
440 -147 289 0
10 440 -136 0
-365 26 136 0
415 -391 -149 0
-215 -200 340 0
-425 363 14 0
347 -490 297 0
-209 -74 277 0
-50 -430 326 0
26 266 317 0
93 -179 233 0
420 -275 -283 0
-337 -466 201 0
441 -363 499 0
110 411 -78 0
-330 -184 96 0
-227 -362 -376 0
305 197 -42 0
369 -207 110 0
-383 -271 -138 0
182 418 -205 0
164 -90 -373 0
392 -113 -62 0
40 -316 -60 0
-140 -284 -30 0
-432 -164 209 0
337 416 -392 0
-113 322 398 0
-216 -272 -192 0
402 282 -109 0
-447 -190 442 0
390 -357 -340 0
-483 476 -70 0
81 482 118 0
-369 7 -490 0
239 -277 -153 0
-299 -380 -257 0
-258 463 374 0
175 -340 -96 0
-136 -15 121 0
452 52 206 0
-454 149 -309 0
-104 240 373 0
-343 -301 -363 0
-53 -420 131 0
-258 -285 294 0
427 -282 -467 0
239 398 -284 0
208 -142 259 0
-103 -491 379 0
-376 244 342 0
60 -66 416 0
-101 283 14 0
461 51 -109 0
420 173 91 0
-183 -184 27 0
484 -65 198 0
-164 -470 -16 0
-484 -37 269 0
-399 171 -82 0
243 251 -420 0
376 -229 -34 0
377 -216 -16 0
456 -371 -496 0
-457 -60 -426 0
-486 224 366 0
-458 132 -65 0
365 453 -416 0
-44 -7 -264 0
-359 429 -78 0
-72 48 219 0
298 212 201 0
-35 -245 266 0
-452 15 479 0
-44 262 271 0
-267 35 162 0
-179 -13 98 0
262 35 79 0
-224 -440 354 0
110 -434 498 0
-114 -497 -359 0
-420 -338 -43 0
427 54 -273 0
496 323 387 0
-465 -229 -93 0
-27 -329 -404 0
-398 -434 275 0
186 369 -30 0
-227 384 -324 0
355 344 471 0
306 122 -117 0
366 172 -473 0
-431 117 -131 0
-415 -251 12 0
345 296 -356 0
107 -243 -365 0
240 -276 -448 0
423 -268 347 0
-188 -204 -301 0
-51 171 170 0
27 442 290 0
-410 -214 -272 0
-489 -241 -127 0
-12 114 369 0
374 -215 364 0
231 113 372 0
-414 -365 456 0
172 426 -10 0
432 -237 -175 0
104 150 465 0
-179 486 -462 0
114 -196 -297 0
407 227 218 0
-89 -380 -347 0
-15 -207 -316 0
246 178 -357 0
-448 -288 424 0
377 -199 -349 0
-462 276 -132 0
-384 -499 19 0
375 61 87 0
11 -59 436 0
-292 -346 -398 0
175 -193 293 0
364 -237 -41 0
-305 -82 -308 0
-243 -277 53 0
-366 -329 378 0
-356 -181 -408 0
491 -287 191 0
63 -352 -338 0
-207 -400 -422 0
-76 -174 3 0
-340 437 -474 0
102 -190 -230 0
307 -246 477 0
-282 -289 -499 0
354 -260 -223 0
261 -268 65 0
-246 330 6 0
150 -324 -318 0
137 -228 -273 0
-82 275 134 0
-29 490 284 0
-476 -401 118 0
456 489 458 0
475 469 -289 0
-126 101 -342 0
-500 389 -127 0
28 -439 -230 0
485 302 -101 0
-41 -272 283 0
35 91 417 0
388 333 104 0
435 387 -73 0
-493 -471 395 0
-486 -295 259 0
-63 -485 -23 0
114 175 -314 0
54 -363 -449 0
278 -308 -378 0
81 -202 -72 0
-277 351 11 0
40 254 -1 0
-376 -245 273 0
11 -128 -332 0
-62 122 -108 0
-37 359 -247 0
-91 377 475 0
-182 -437 -309 0
76 134 -261 0
-419 -429 -159 0
-216 -123 -92 0
369 470 464 0
-348 -286 -496 0
-133 -168 -444 0
314 -338 -27 0
-319 -292 107 0
35 -291 -217 0
492 -362 266 0
378 333 197 0
275 -83 240 0
-338 -179 -89 0
-152 -166 364 0
-372 -468 -383 0
191 -467 -451 0
-455 135 -273 0
421 -482 -98 0
167 -65 405 0
179 416 21 0
-377 -461 364 0
479 -409 448 0
27 358 449 0
302 310 212 0
-380 406 -458 0
-428 -149 253 0
-358 357 480 0
240 -99 135 0
-419 207 421 0
-132 398 467 0
-454 -436 -337 0
-119 -212 53 0
162 440 498 0
-153 78 -395 0
375 -464 51 0
-473 43 6 0
242 281 128 0
-338 -271 -276 0
368 -45 182 0
467 -128 -137 0
-89 436 -475 0
-15 -126 121 0
-43 395 -191 0
220 -47 350 0
-41 44 -101 0
344 -244 238 0
92 209 -435 0
-425 -395 -186 0
42 234 -172 0
228 -482 297 0
137 378 431 0
482 -26 313 0
-57 -24 -198 0
-118 357 -305 0
-395 125 62 0
228 34 -491 0
456 27 -83 0
-203 242 184 0
332 173 357 0
152 -133 -288 0
-455 181 -496 0
-340 -471 -338 0
-400 -59 419 0
435 -360 -303 0
-4 -91 439 0
-383 -389 -446 0
-434 249 168 0
-202 293 331 0
242 -66 -75 0
29 -203 -276 0
-14 -57 434 0
-181 437 -490 0
430 323 -448 0
37 -354 176 0
-466 -70 -112 0
20 -262 -149 0
479 397 10 0
162 -101 490 0
480 213 -139 0
-27 -239 -277 0
89 -147 490 0
-187 58 -499 0
-363 135 -256 0
153 141 149 0
96 344 -21 0
296 392 -256 0
12 411 94 0
-40 -435 -414 0
-92 -193 -428 0
461 -473 -256 0
-276 -426 23 0
345 -417 356 0
-427 -128 -285 0
381 361 -476 0
312 138 347 0
358 -281 -93 0
302 387 -14 0
470 -197 153 0
484 94 -231 0
74 260 305 0
-196 192 419 0
-17 101 -141 0
318 -358 276 0
-218 -58 -119 0
-119 -376 477 0
422 -390 121 0
-121 -170 411 0
-278 166 -57 0
-60 250 -352 0
-84 62 -198 0
345 -365 -353 0
-225 -448 -145 0
314 -496 160 0
-152 346 374 0
497 337 366 0
-448 396 347 0
267 72 424 0
16 -239 95 0
-286 280 -222 0
-446 364 -292 0
259 -241 385 0
-184 237 484 0
484 -441 -221 0
-78 -49 -333 0
434 157 -198 0
145 -489 -359 0
-339 -261 -175 0
-445 459 -168 0
392 5 -372 0
-391 104 -145 0
172 498 -346 0
182 126 395 0
424 -173 364 0
486 302 -348 0
-473 303 -61 0
-482 223 35 0
-201 -177 -132 0
123 476 -429 0
414 259 321 0
-419 -92 206 0
-407 142 -393 0
-199 254 -173 0
358 -414 -145 0
-429 -464 -138 0
-127 -257 -23 0
284 -338 -64 0
-395 402 -470 0
443 312 -288 0
-354 337 379 0
241 -163 231 0
-381 332 -94 0
-286 -336 207 0
-108 -308 489 0
337 -248 -203 0
461 484 314 0
-491 -6 144 0
144 463 -21 0
422 165 336 0
213 293 -266 0
-249 -276 -392 0
-366 334 65 0
-252 -214 -29 0
490 -293 -11 0
-65 -271 448 0
298 236 -112 0
-336 -189 49 0
-308 -83 268 0
186 -16 -68 0
-8 210 -493 0
440 -337 360 0
429 -240 322 0
294 67 392 0
-258 -225 -410 0
-314 -315 433 0
142 269 -452 0
-339 -301 -103 0
15 -315 -374 0
-49 -319 17 0
-439 352 -318 0
-229 459 -433 0
-109 -468 2 0
457 -394 -166 0
-44 130 -348 0
-264 -500 -172 0
-223 11 124 0
-242 348 162 0
-428 311 -13 0
415 -243 256 0
369 373 -400 0
-249 -327 314 0
-181 -370 434 0
-234 418 177 0
-393 70 475 0
-153 285 260 0
-397 343 446 0
-315 -428 -379 0
133 496 213 0
-424 -234 -362 0
-236 -273 -454 0
400 459 278 0
-146 -222 -464 0
-214 -284 -414 0
183 -409 25 0
357 -496 321 0
-393 252 -408 0
21 178 267 0
-58 375 -91 0
110 480 420 0
23 423 -297 0
-233 205 55 0
373 -472 87 0
-379 395 364 0
410 442 272 0
32 -261 246 0
-54 64 -311 0
322 488 60 0
-324 492 -114 0
-52 110 355 0
169 -299 -71 0
-344 312 228 0
56 -352 166 0
346 109 86 0
-191 401 -178 0
240 280 272 0
301 72 -435 0
-397 -191 47 0
172 -141 196 0
-453 -293 -498 0
-495 233 -369 0
126 142 310 0
245 169 -288 0
104 -167 -387 0
61 178 -171 0
-136 29 -355 0
-229 -405 400 0
404 -98 -178 0
134 159 -101 0
459 -323 118 0
-331 376 -154 0
276 -340 -64 0
-282 -52 -107 0
65 472 228 0
271 -202 -100 0
-86 -398 -320 0
255 490 223 0
-42 -309 -202 0
159 -200 74 0
-368 -192 -132 0
-106 -367 -56 0
-317 -199 -366 0
-307 454 462 0
-280 308 491 0
-170 407 214 0
-158 -184 -39 0
48 36 -246 0
-328 -69 -227 0
349 445 -180 0
313 225 118 0
-238 -29 -193 0
325 469 198 0
66 -175 -151 0
282 109 249 0
-408 -335 -113 0
234 -178 377 0
-22 500 346 0
160 77 52 0
-53 -240 -390 0
-392 -484 2 0
51 -470 361 0
499 484 -445 0
289 -314 -486 0
-215 231 50 0
-67 384 -99 0
-328 -201 464 0
284 199 -171 0
361 -28 197 0
200 461 -95 0
200 -141 406 0
111 240 52 0
456 49 271 0
-133 143 -291 0
42 284 436 0
-435 -340 -164 0
227 332 -87 0
286 333 84 0
-16 138 258 0
177 -104 -481 0
-425 306 412 0
-365 -35 58 0
-54 158 -499 0
472 -477 251 0
109 63 98 0
-122 342 168 0
-119 -221 190 0
-459 382 59 0
470 311 84 0
109 -72 127 0
256 219 -473 0
-339 -132 -99 0
-51 -312 -380 0
-446 -232 -283 0
134 49 -250 0
381 -264 -48 0
-479 372 -443 0
413 -379 339 0
299 -353 -238 0
-323 190 46 0
-58 -126 -251 0
-409 357 346 0
19 -286 170 0
238 -58 -26 0
-47 -429 -14 0
369 -244 -68 0
-480 384 497 0
-207 -152 -480 0
286 -166 -370 0
115 -129 307 0
401 430 -314 0
-30 115 -153 0
78 -176 -249 0
490 -235 -6 0
-366 479 58 0
-433 125 -374 0
460 -367 -126 0
256 115 -42 0
-109 61 51 0
204 -272 -121 0
140 53 -427 0
473 16 -214 0
450 -164 366 0
324 194 230 0
117 349 476 0
345 -391 365 0
-382 -40 -286 0
365 457 191 0
387 -33 338 0
-419 -279 -256 0
-229 401 -169 0
218 219 -370 0
266 67 150 0
413 -118 386 0
419 -332 -64 0
-440 376 -387 0
-14 -390 47 0
492 -231 115 0
-29 237 -466 0
-372 -383 317 0
111 274 -100 0
-294 -115 -113 0
-336 -495 245 0
323 -57 -112 0
325 37 -315 0
378 -495 225 0
-82 -295 298 0
66 -269 350 0
-136 -80 -499 0
237 -421 188 0
195 -483 472 0
-329 -69 308 0
-237 432 8 0
282 96 -66 0
192 -154 138 0
-25 -210 427 0
-380 344 67 0
-87 404 -26 0
-447 51 139 0
-467 -208 444 0
-73 -311 488 0
-64 -91 -144 0
291 -36 -142 0
245 -18 208 0
317 -426 33 0
-379 -329 -110 0
134 -32 -193 0
-294 -394 191 0
82 -15 -383 0
146 -180 -133 0
59 244 479 0
-9 186 486 0
98 -121 -80 0
22 412 -430 0
178 -247 327 0
-306 -318 -172 0
-91 65 443 0
-241 441 -52 0
-143 -85 342 0
-1 -41 -190 0
49 -35 -462 0
195 444 -227 0
-303 -250 -201 0
429 220 456 0
-137 330 412 0
-315 187 -110 0
-443 219 14 0
45 -95 111 0
-338 -380 166 0
367 -347 -90 0
-294 414 319 0
150 327 -422 0
-208 -284 351 0
-115 -257 392 0
-397 487 197 0
-292 -458 297 0
-108 -182 71 0
369 240 -490 0
87 155 58 0
82 243 -126 0
-95 -375 -74 0
-445 -373 70 0
236 207 -238 0
-398 410 -118 0
-147 -336 187 0
195 -433 309 0
-433 -494 154 0
233 38 282 0
222 -472 -325 0
171 -169 125 0
-249 -26 267 0
-211 122 392 0
-463 -363 -133 0
292 -159 242 0
317 -133 -105 0
392 271 299 0
-343 -337 139 0
-158 297 -75 0
249 363 65 0
355 107 77 0
-311 284 -386 0
-309 -232 255 0
-470 406 -357 0
-276 -33 338 0
-1 -105 -40 0
255 -292 -134 0
-111 130 -58 0
-483 261 323 0
-306 59 -450 0
296 214 -147 0
191 204 490 0
-376 470 -370 0
-201 -357 48 0
228 459 394 0
-42 371 -263 0
-473 -239 143 0
436 62 -376 0
-405 422 103 0
-264 201 103 0
175 -370 205 0
-474 -466 -302 0
500 417 -78 0
-85 -317 142 0
389 -204 446 0
385 -191 81 0
329 -26 -359 0
356 -257 145 0
-68 304 -342 0
-74 49 -358 0
-449 -82 -284 0
358 -443 491 0
-256 -379 296 0
-27 76 -324 0
254 -460 -48 0
62 230 -175 0
376 -385 -151 0
-102 326 -33 0
32 132 322 0
428 466 -180 0
250 -395 -4 0
237 166 437 0
12 57 157 0
-33 97 -330 0
-112 -489 -336 0
455 -373 77 0
-74 -228 -313 0
-482 22 375 0
312 425 -350 0
-217 119 -151 0
-220 -385 257 0
-389 -311 384 0
-339 -236 -378 0
-67 -326 -97 0
-364 -213 129 0
-162 -119 -309 0
-214 -229 309 0
322 66 -410 0
-98 213 473 0
64 -362 279 0
34 -198 -99 0
-7 -335 5 0
-145 364 -360 0
301 436 447 0
-15 -378 445 0
160 176 46 0
362 -305 -398 0
227 379 226 0
214 21 -33 0
80 216 -294 0
119 268 -73 0
200 285 470 0
-67 488 -224 0
212 120 195 0
308 347 206 0
421 390 -146 0
256 -111 -116 0
392 398 231 0
-377 53 192 0
-129 495 390 0
105 340 316 0
22 107 235 0
466 -444 327 0
-454 75 116 0
256 -225 -131 0
-170 241 340 0
-388 -295 -77 0
286 -410 368 0
425 127 -456 0
117 253 -396 0
-434 420 -87 0
-195 -231 387 0
171 -196 -139 0
-38 377 -177 0
-122 268 -388 0
418 300 203 0
-209 83 9 0
-20 -251 268 0
432 -20 -282 0
417 9 -307 0
-9 -32 -448 0
380 369 -490 0
-228 -238 -339 0
62 311 -444 0
30 70 273 0
-440 43 470 0
-49 189 355 0
-212 229 108 0
-125 -211 423 0
-100 -146 320 0
386 275 28 0
344 -428 -58 0
365 -313 225 0
-75 154 -253 0
-442 -393 -429 0
472 -175 157 0
320 -311 297 0
181 -481 284 0
-408 467 340 0
171 -265 372 0
-205 208 222 0
-122 379 -16 0
227 -166 -294 0
440 48 -319 0
-344 -104 11 0
-275 261 -394 0
-448 -208 207 0
113 -394 355 0
341 -86 -44 0
401 32 377 0
262 -391 82 0
-6 -477 -150 0
393 -135 136 0
-240 -394 55 0
-55 402 -293 0
460 31 -409 0
-45 -183 -208 0
-105 415 -179 0
-453 -118 490 0
-275 -252 365 0
-215 -387 -152 0
-244 -361 83 0
161 335 206 0
-204 -241 -410 0
250 -130 224 0
198 286 418 0
339 99 169 0
227 -200 182 0
-301 -188 485 0
481 152 310 0
-451 191 138 0
-208 34 -351 0
-288 149 -74 0
307 488 -356 0
401 475 312 0
55 -422 268 0
-71 -289 311 0
-133 -399 -158 0
60 -317 -131 0
296 279 -198 0
-125 334 -422 0
-376 94 -314 0
-104 -265 -163 0
-43 208 -477 0
-215 -129 480 0
352 444 -335 0
-488 -493 -360 0
-467 337 440 0
-13 4 283 0
454 -254 349 0
208 -89 -222 0
-168 195 166 0
-128 -255 171 0
-355 213 477 0
-186 -97 -492 0
-216 -275 457 0
309 414 -407 0
-203 241 208 0
-385 410 421 0
481 193 166 0
-336 274 -122 0
-453 31 203 0
448 -82 298 0
431 -109 -432 0
-85 8 57 0
185 -294 -355 0
-179 -200 247 0
442 -14 274 0
372 -333 -335 0
121 122 65 0
299 22 -113 0
206 242 -306 0
-314 -317 -139 0
-247 -56 -377 0
330 -455 -396 0
-221 -463 -483 0
-454 20 -70 0
64 281 475 0
85 -274 -354 0
-197 184 279 0
-446 -336 419 0
-384 -8 -219 0
327 382 319 0
-207 246 70 0
-401 157 163 0
180 -166 388 0
240 17 92 0
-423 489 322 0
-279 -365 -401 0
-30 -214 -223 0
-165 251 74 0
-241 52 -106 0
86 385 -309 0
-246 -470 -120 0
-439 129 145 0
-2 341 339 0
-183 -128 290 0
-439 254 150 0
372 135 173 0
-279 -470 -413 0
-417 490 247 0
230 -231 322 0
284 -182 152 0
-313 335 307 0
-388 -448 -307 0
-443 -228 -406 0
-466 23 -13 0
-414 160 -234 0
81 -431 -106 0
293 391 -170 0
380 -269 252 0
121 269 -56 0
-430 256 -423 0
-52 -196 -111 0
-240 -150 -88 0
-121 473 -347 0
108 6 -387 0
-230 -315 -321 0
-203 -416 -167 0
405 -62 321 0
231 277 -33 0
196 499 168 0
261 -252 446 0
-157 421 -40 0
-187 280 338 0
312 -386 -496 0
-308 243 -272 0
253 -138 363 0
-90 456 173 0
-308 -439 127 0
-472 459 -65 0
18 339 193 0
-434 213 97 0
-304 -119 355 0
-461 -336 -445 0
210 278 78 0
405 -344 -428 0
-480 -482 -22 0
37 69 -309 0
123 340 80 0
-310 290 204 0
-384 328 156 0
463 -53 -222 0
-332 348 -334 0
491 424 264 0
-432 -273 -128 0
-287 -92 158 0
-72 459 398 0
-360 -426 320 0
401 320 -481 0
380 327 82 0
-162 -131 -173 0
-101 -134 114 0
307 -400 341 0
234 262 -290 0
38 68 -307 0
-143 414 -52 0
-300 -484 333 0
-472 369 419 0
-201 284 -226 0
-77 57 104 0
65 -132 266 0
304 -222 -300 0
-37 494 165 0
58 -355 349 0
307 73 -35 0
9 -19 -310 0
151 -396 239 0
237 -112 -458 0
446 -62 209 0
390 118 -379 0
230 -111 -38 0
162 448 487 0
-281 368 -415 0
-477 -475 -435 0
461 -88 -158 0
-467 -57 -237 0
-414 -17 1 0
416 -333 485 0
103 7 187 0
77 92 -129 0
215 499 -63 0
64 -274 169 0
236 30 -374 0
481 275 -402 0
-290 -245 452 0
362 -206 -418 0
-489 63 301 0
377 79 -440 0
36 260 319 0
18 74 -450 0
-114 -313 70 0
121 -139 471 0
-197 426 -162 0
311 13 384 0
-471 -296 173 0
20 -117 51 0
488 274 110 0
143 368 202 0
133 77 52 0
-102 -125 -328 0
326 102 55 0
66 442 93 0
-48 -91 -135 0
-116 -230 202 0
-37 77 377 0
-416 131 -12 0
136 31 -435 0
154 352 224 0
-32 -260 -355 0
76 -219 362 0
-477 242 -485 0
306 -366 120 0
-273 -354 124 0
130 -356 237 0
-480 -251 361 0
258 -77 269 0
-102 -222 161 0
-103 -205 -200 0
-87 -464 -121 0
-216 -69 -217 0
-300 -303 489 0
308 140 -392 0
-82 -51 10 0
-212 -180 -263 0
-131 304 363 0
-20 328 -315 0
-287 -43 425 0
-296 -289 16 0
230 81 353 0
207 -26 -417 0
-388 -119 -163 0
-68 -491 298 0
68 -390 -60 0
476 155 313 0
269 -362 -12 0
-173 128 253 0
-175 60 -406 0
-30 -141 177 0
-474 103 27 0
185 80 -308 0
-464 146 -408 0
238 181 -196 0
337 -284 -24 0
294 452 337 0
-103 -375 372 0
382 -63 -189 0
434 306 418 0
-493 -230 -49 0
-360 4 -477 0
197 289 396 0
180 -411 -332 0
42 -198 -233 0
213 -390 -297 0
-140 -132 -139 0
-467 -484 -170 0
208 -92 -39 0
186 310 -201 0
145 -30 8 0
-231 -37 153 0
-141 -201 226 0
382 -30 -190 0
-411 -234 -189 0
339 -459 -62 0
-195 -411 409 0
13 -267 476 0
319 -70 -467 0
325 -106 -215 0
-308 72 -362 0
222 -103 138 0
331 98 -332 0
155 437 446 0
-496 374 -28 0
238 379 376 0
-322 346 -124 0
-453 -367 -75 0
411 -106 344 0
-44 239 -396 0
245 116 381 0
-180 -424 -327 0
-435 -499 368 0
-300 53 -268 0
-487 12 169 0
-153 377 -411 0
-276 277 -346 0
-272 -484 19 0
303 257 -470 0
-222 417 -54 0
-410 220 85 0
-134 -316 -209 0
-471 -244 -57 0
-150 -154 189 0
254 -50 343 0
25 464 -248 0
423 170 316 0
392 431 -313 0
348 18 -244 0
122 -306 -225 0
68 -444 48 0
94 -48 -45 0
-364 407 -150 0
196 187 395 0
-411 -74 3 0
-397 60 179 0
-27 -71 105 0
-399 409 -472 0
500 -70 -260 0
-258 341 -360 0
-190 421 -410 0
87 479 -177 0
-49 -39 253 0
-36 -148 -425 0
-53 -172 362 0
-216 52 85 0
186 -253 -121 0
183 -265 94 0
222 -150 -73 0
-167 -338 -49 0
134 94 -389 0
492 469 -90 0
-219 -244 -472 0
89 -460 286 0
-450 -155 45 0
202 404 10 0
-477 -414 84 0
-88 -471 -167 0
-187 366 70 0
-12 -287 329 0
-111 -228 361 0
-106 142 -122 0
-110 -183 467 0
-138 192 -460 0
432 -254 -273 0
127 -115 -228 0
-425 235 203 0
218 90 8 0
-390 -420 -160 0
384 -248 -449 0
-305 333 106 0
396 -36 -400 0
-484 -124 -306 0
-186 125 -231 0
244 -373 -31 0
364 -329 241 0
-176 256 168 0
197 -86 250 0
-357 -122 405 0
138 -199 -219 0
-49 -439 254 0
154 121 -275 0
-58 488 194 0
207 -404 -331 0
-304 117 120 0
