c Modularity-based k-CNF Generator (V2.0). J. Giraldez-Cru and J. Levy
c   value n = 500
c   value m = 1100
c   value k = 3
c   value Q = 0.5
c   value c = 10
c   value seed = 14
p cnf 500 1100
-139 58 -151 0
-341 401 -247 0
-307 306 342 0
-463 -401 15 0
179 -104 423 0
180 -152 166 0
-478 -414 29 0
-420 418 -441 0
268 -15 109 0
432 73 -168 0
-183 199 -156 0
-338 -342 318 0
-137 147 105 0
-71 -220 -473 0
396 -365 -359 0
172 193 -166 0
382 399 387 0
454 453 492 0
364 -22 144 0
118 128 122 0
183 -180 178 0
-93 -73 72 0
103 -366 155 0
288 -208 425 0
-302 -339 -346 0
-473 -487 -492 0
15 43 -34 0
94 365 242 0
-456 461 479 0
47 107 -226 0
61 57 -76 0
494 -460 464 0
238 -228 244 0
-108 115 119 0
118 -500 -380 0
388 370 385 0
-479 93 -260 0
-324 -279 169 0
387 -156 -346 0
-114 347 -283 0
-24 15 41 0
-350 -334 325 0
20 -22 1 0
-488 -471 -487 0
352 183 487 0
411 -95 466 0
339 -495 -127 0
348 310 317 0
-468 -231 387 0
89 -85 -59 0
232 -205 226 0
112 114 134 0
-95 -439 400 0
234 448 -400 0
473 -459 487 0
151 164 -170 0
-5 178 -402 0
295 298 252 0
315 312 327 0
224 -233 -215 0
390 240 -12 0
55 428 -300 0
-8 -37 -26 0
-10 3 5 0
423 384 -76 0
-37 -20 50 0
-211 -238 220 0
-348 81 438 0
328 336 -339 0
422 95 -259 0
-169 187 -195 0
-269 -281 -276 0
394 -362 -397 0
80 163 303 0
161 188 -166 0
-407 87 -267 0
-52 -319 8 0
402 -405 417 0
-377 -462 413 0
323 335 -324 0
137 -105 -102 0
-147 -105 111 0
382 387 -352 0
-356 -267 41 0
-453 -480 488 0
164 186 159 0
112 123 -115 0
-437 -359 274 0
-461 -497 -475 0
193 -184 188 0
-417 411 -415 0
153 -190 -174 0
48 11 10 0
398 365 371 0
333 -177 56 0
52 111 361 0
-84 71 -82 0
-234 -207 -225 0
-212 13 404 0
-255 253 -274 0
-488 -454 -477 0
189 159 -156 0
424 -139 222 0
-136 111 -123 0
-176 -169 -171 0
186 350 131 0
220 -235 244 0
476 460 486 0
4 -39 18 0
-166 190 191 0
475 -460 -456 0
-191 -170 194 0
-163 -153 156 0
302 200 258 0
475 -470 -453 0
446 -429 420 0
478 490 -453 0
448 438 -445 0
459 68 -351 0
-500 -494 477 0
462 -256 -189 0
-309 -331 -304 0
-224 211 233 0
345 305 308 0
-144 216 -393 0
326 124 41 0
1 50 6 0
-217 -44 119 0
362 -300 190 0
256 267 -262 0
157 212 411 0
67 59 -96 0
41 -176 91 0
41 65 -363 0
-464 425 -331 0
-6 -201 348 0
-461 -393 34 0
-135 -145 -149 0
-68 90 -91 0
229 347 435 0
-240 -214 -232 0
-202 -211 -206 0
241 249 227 0
-176 -196 167 0
-323 143 -70 0
-333 -306 318 0
-411 -413 -440 0
-460 248 -427 0
-232 -79 160 0
312 156 83 0
168 189 151 0
369 137 -500 0
249 7 55 0
-383 374 -358 0
321 -333 345 0
278 -271 255 0
-382 -391 -367 0
381 247 187 0
-142 -143 126 0
73 331 -198 0
303 -254 387 0
-275 123 212 0
-131 -361 248 0
-224 242 206 0
372 -204 -3 0
-488 -473 495 0
-417 435 419 0
105 -273 28 0
-369 366 372 0
-200 278 134 0
61 97 -69 0
44 -33 -7 0
-177 -171 179 0
-335 -101 -427 0
159 247 428 0
59 54 -98 0
391 372 373 0
476 472 -454 0
-358 -243 -184 0
-447 -476 -8 0
-416 444 -429 0
-69 -68 -54 0
431 446 -441 0
-68 474 -1 0
-333 -301 338 0
466 -473 -490 0
38 -116 194 0
1 -108 166 0
-55 79 -78 0
-136 -113 -144 0
495 491 455 0
-260 334 386 0
-406 -417 -414 0
331 344 -338 0
-52 -361 202 0
-267 302 87 0
391 -168 -72 0
337 307 -313 0
474 71 -119 0
-121 -143 140 0
41 18 44 0
92 83 -85 0
104 -146 -121 0
-177 156 -200 0
-304 -302 330 0
-362 397 -373 0
221 -83 351 0
425 427 422 0
256 -204 80 0
309 336 337 0
78 -25 167 0
-187 176 191 0
-33 367 436 0
-98 -337 -104 0
341 -342 -317 0
-59 42 -364 0
-400 -388 -364 0
-234 -244 -221 0
127 -163 -364 0
-410 -422 -412 0
-245 -295 82 0
-479 -456 461 0
23 24 -4 0
-274 -300 -259 0
274 -266 259 0
-380 357 -358 0
81 73 69 0
-28 43 18 0
483 393 130 0
-380 388 371 0
-15 -397 -161 0
-234 -205 247 0
307 -332 -309 0
70 -61 -84 0
215 -229 222 0
-379 80 -120 0
-268 296 -270 0
85 294 -496 0
171 -189 173 0
-174 187 -189 0
402 188 1 0
-348 220 63 0
498 468 -455 0
-26 6 45 0
-19 475 -305 0
-206 -242 248 0
34 -17 -27 0
-296 278 -290 0
241 -429 -89 0
148 -127 144 0
318 350 303 0
-395 361 -396 0
164 -173 -159 0
-462 378 340 0
-378 -400 382 0
375 -371 -374 0
479 455 -473 0
289 -443 -19 0
158 -188 -190 0
-229 225 -222 0
153 129 207 0
478 456 475 0
492 482 500 0
-42 23 41 0
-479 499 451 0
-475 -469 -487 0
123 -102 -129 0
16 338 -246 0
468 459 464 0
293 289 265 0
103 -180 -418 0
235 -2 401 0
-385 -303 120 0
479 -489 -480 0
-168 -158 -176 0
16 334 139 0
73 -90 -63 0
412 422 433 0
-181 114 277 0
-349 186 221 0
-458 -274 402 0
-243 277 369 0
245 230 -248 0
-85 10 364 0
164 -156 154 0
341 311 -335 0
-67 -81 -78 0
280 178 -132 0
437 -129 -499 0
-6 87 286 0
-346 -318 -343 0
276 288 251 0
85 -53 73 0
280 491 19 0
-22 485 -365 0
-499 -486 467 0
-6 -256 -106 0
-479 -454 -495 0
-274 -270 -254 0
-73 93 -83 0
444 -429 409 0
-384 416 137 0
-43 33 32 0
-376 -352 -373 0
-134 352 -278 0
47 291 -89 0
-63 -58 67 0
490 495 -482 0
-319 349 320 0
44 -20 36 0
-84 203 -256 0
449 417 -423 0
-432 -416 -430 0
326 -315 328 0
-226 -212 228 0
-297 264 -284 0
-380 -487 -282 0
-349 304 -336 0
-304 -310 320 0
-284 289 280 0
-192 150 -344 0
-165 186 172 0
-140 154 -301 0
-56 -342 181 0
460 461 -496 0
339 302 -345 0
-338 -497 5 0
296 -273 -280 0
175 192 -197 0
79 64 -92 0
-216 -450 -158 0
358 -438 -159 0
-104 148 130 0
303 -104 182 0
360 -370 -379 0
-279 298 254 0
307 -348 -311 0
221 -207 219 0
-198 -154 -182 0
-420 192 -355 0
-35 16 48 0
151 -196 -170 0
-217 220 204 0
-460 -471 -465 0
460 383 153 0
159 163 186 0
-391 -134 457 0
104 131 112 0
-151 -166 156 0
81 261 -448 0
131 -136 -121 0
-15 21 5 0
-130 386 -206 0
-89 95 59 0
-90 73 -52 0
-101 134 -145 0
-17 -24 -41 0
-296 -258 259 0
-83 67 78 0
-419 430 404 0
267 271 298 0
126 27 -451 0
-277 289 279 0
-271 379 465 0
254 297 277 0
456 -459 468 0
287 -268 288 0
192 -210 437 0
-390 -438 305 0
-261 -260 274 0
126 -144 -103 0
48 -488 -434 0
377 -373 385 0
95 75 -88 0
156 451 415 0
-240 239 -247 0
458 465 500 0
-100 -211 -392 0
-355 380 395 0
208 -238 206 0
-106 -113 139 0
-187 338 358 0
-321 -82 206 0
232 -20 -147 0
342 254 159 0
271 -323 -449 0
-19 -265 422 0
-104 129 -113 0
485 456 486 0
-100 -62 -65 0
-10 -103 280 0
92 67 -72 0
239 -411 169 0
-227 -226 -209 0
131 145 -112 0
-471 455 494 0
-296 -258 -275 0
21 106 368 0
234 -208 203 0
386 373 351 0
-307 -249 -85 0
332 -344 -341 0
-284 274 289 0
170 465 336 0
205 -208 -247 0
-483 -499 -492 0
-328 -316 -348 0
391 -368 393 0
-255 -257 252 0
-220 -43 476 0
-73 -81 93 0
83 -241 479 0
482 21 350 0
356 354 379 0
-400 -393 360 0
36 47 45 0
-401 -449 415 0
-5 31 30 0
-154 -336 374 0
136 -315 -61 0
161 -252 -443 0
-95 -77 -56 0
-412 -430 -439 0
-125 138 -118 0
100 54 -88 0
-454 473 470 0
370 -389 -381 0
424 410 -445 0
-438 -243 -51 0
-430 -351 -20 0
33 -25 46 0
-275 285 265 0
-228 -233 -239 0
-411 -334 -178 0
349 302 -307 0
129 -115 145 0
40 -15 -36 0
402 -431 416 0
-244 -274 -364 0
-298 -486 356 0
-223 252 -198 0
105 -448 482 0
212 201 -220 0
-294 234 30 0
426 -34 -349 0
133 -120 -122 0
14 -395 94 0
-260 -168 87 0
146 461 154 0
290 273 265 0
237 -272 -368 0
-314 -311 -301 0
214 243 204 0
-167 172 159 0
-63 -85 69 0
-414 -169 222 0
-343 323 -325 0
269 323 -95 0
346 -345 317 0
-398 369 394 0
53 54 -96 0
69 70 81 0
-55 -93 80 0
-298 -266 -272 0
169 155 -188 0
429 -340 -203 0
-156 198 161 0
279 24 -66 0
110 150 102 0
142 -16 -457 0
-255 -263 297 0
-253 -451 -206 0
-106 334 -422 0
173 -162 170 0
-140 -137 -148 0
201 448 -27 0
131 -142 130 0
-297 -300 -284 0
-144 -125 -145 0
-336 -78 -20 0
-187 189 175 0
-431 96 320 0
-274 471 87 0
230 83 371 0
142 101 108 0
-482 -489 -480 0
-312 301 -346 0
368 -389 -351 0
-241 376 -295 0
-365 388 372 0
380 388 379 0
-355 -22 269 0
-46 -19 -49 0
-425 408 443 0
471 377 445 0
403 447 428 0
290 -268 -286 0
159 176 170 0
170 -171 154 0
-496 -478 479 0
-399 392 -353 0
-455 -467 497 0
-263 240 325 0
-244 213 211 0
215 162 -489 0
299 294 267 0
-5 274 306 0
-70 52 96 0
-336 -326 -322 0
287 284 -251 0
-362 389 -391 0
-334 -306 339 0
197 -191 -187 0
270 273 280 0
-159 -379 102 0
362 -203 125 0
-8 -29 -43 0
-385 -360 379 0
-402 -442 446 0
-448 -445 429 0
96 -86 91 0
452 -465 494 0
388 147 -482 0
-94 -122 -297 0
-433 437 419 0
-211 -404 62 0
218 -167 448 0
362 -252 350 0
345 327 -331 0
409 333 284 0
240 244 219 0
310 -332 -325 0
121 -216 198 0
448 -291 -196 0
-14 10 30 0
-109 -143 134 0
173 381 487 0
-141 127 106 0
-175 178 -169 0
-219 32 354 0
21 96 -106 0
405 -434 -431 0
-62 190 -475 0
-101 149 133 0
-144 -131 127 0
-137 -145 109 0
133 -143 -107 0
238 -163 454 0
441 172 -24 0
319 316 -340 0
-39 -59 141 0
24 -16 19 0
-112 -131 -130 0
159 -164 -158 0
231 224 240 0
88 207 382 0
320 -452 36 0
-84 -309 359 0
218 -331 -184 0
463 -483 -476 0
-82 -61 -92 0
-54 99 -53 0
-275 269 265 0
-324 320 -321 0
176 159 -160 0
324 334 -322 0
-234 267 -351 0
493 470 -496 0
-205 -238 -208 0
460 47 -297 0
-170 -192 167 0
-372 -389 396 0
-277 391 13 0
-47 30 40 0
202 -206 -224 0
-206 -116 -282 0
155 -170 161 0
-308 -304 -305 0
-364 459 -40 0
143 -127 139 0
-118 -26 222 0
403 450 414 0
477 -500 470 0
269 300 -285 0
-243 211 236 0
114 145 134 0
250 225 -230 0
-489 474 -459 0
321 -330 348 0
-103 -108 -112 0
-427 433 -439 0
-441 427 434 0
-88 76 -57 0
318 310 -320 0
118 -148 144 0
420 259 -325 0
15 11 29 0
-312 -333 -318 0
356 -293 -132 0
46 -44 20 0
-459 496 480 0
238 -231 212 0
322 -306 303 0
-473 -244 355 0
-27 472 373 0
13 33 1 0
57 73 -99 0
178 185 158 0
-365 357 374 0
-418 -449 -425 0
471 76 -318 0
353 364 395 0
-459 -303 -242 0
479 482 -476 0
272 265 275 0
44 21 -40 0
-406 -462 118 0
-338 321 343 0
-134 215 76 0
-481 -483 466 0
157 200 176 0
-466 -469 451 0
-278 90 479 0
-119 359 433 0
484 -476 454 0
59 -56 84 0
-323 301 -325 0
61 132 277 0
-59 -66 -55 0
-332 236 -95 0
-447 -251 -126 0
474 53 188 0
170 188 154 0
-275 -58 323 0
8 -32 -50 0
-380 222 -175 0
-95 261 -212 0
283 295 -279 0
-100 -92 68 0
205 250 224 0
445 -65 297 0
-86 -88 99 0
159 175 -191 0
387 365 395 0
-186 -196 -173 0
39 -72 299 0
-435 106 -487 0
250 -207 -213 0
499 484 -486 0
366 -376 365 0
-473 -444 -152 0
-157 -165 -156 0
-24 68 -346 0
-478 -55 121 0
-199 299 369 0
-55 223 456 0
106 125 -129 0
76 -62 74 0
317 -43 -188 0
-88 51 -80 0
-73 69 -79 0
136 35 424 0
104 -102 141 0
240 214 -228 0
-483 71 33 0
-294 -325 402 0
321 -304 -312 0
268 -467 -444 0
-473 452 461 0
-206 -126 393 0
-81 79 -98 0
276 255 251 0
466 -465 499 0
-165 180 -191 0
-97 178 -351 0
228 -218 201 0
293 -373 241 0
-190 -159 180 0
213 -205 -224 0
127 148 112 0
-262 -300 -260 0
-474 -438 58 0
-148 112 -126 0
-55 79 -67 0
290 -69 171 0
148 115 145 0
216 -238 246 0
-182 147 -293 0
83 66 78 0
-74 320 -438 0
490 488 454 0
-404 335 -351 0
484 -485 474 0
-357 -394 -386 0
-332 -318 302 0
-345 -342 346 0
131 -458 265 0
-149 121 -150 0
-232 -294 -160 0
31 -4 -14 0
-209 252 86 0
-15 -192 474 0
225 246 -219 0
402 -406 411 0
-391 384 -351 0
-378 299 -26 0
429 -445 -410 0
-358 105 72 0
-174 -175 -164 0
-156 187 166 0
-283 -294 -267 0
194 185 -193 0
-404 417 -418 0
272 298 281 0
343 -199 -371 0
259 -271 -254 0
218 -442 -146 0
270 -280 292 0
-480 461 -471 0
-15 -43 26 0
326 307 -342 0
264 287 -252 0
-201 -287 366 0
388 318 441 0
-394 261 100 0
167 -200 180 0
405 -294 -126 0
-47 13 19 0
24 271 132 0
367 374 -373 0
112 3 459 0
384 386 363 0
-441 143 -310 0
-382 -396 -368 0
351 321 61 0
34 -15 -42 0
223 -203 208 0
-366 -387 392 0
403 -232 -168 0
-98 116 279 0
304 303 310 0
249 152 -427 0
315 -308 -341 0
77 98 75 0
276 -278 -273 0
-101 -146 -119 0
380 375 -394 0
-441 -240 488 0
-429 402 442 0
417 402 446 0
-414 144 -27 0
-123 -423 -40 0
-178 173 -163 0
172 267 -118 0
-319 361 -198 0
-413 -437 441 0
-312 -346 311 0
-124 132 -135 0
6 -482 167 0
-80 68 -89 0
401 -413 -402 0
340 330 301 0
10 364 -227 0
-46 -323 -187 0
-159 -352 -429 0
-245 399 -2 0
-35 -409 475 0
-175 -180 -159 0
-199 387 332 0
-341 -315 -346 0
-466 215 -369 0
219 250 -239 0
-152 185 151 0
111 -386 -477 0
-493 484 -466 0
418 304 -270 0
-115 285 168 0
413 392 -89 0
-93 -277 -25 0
-217 -227 233 0
-187 196 -181 0
-36 -24 37 0
-4 -40 10 0
-101 147 107 0
239 249 203 0
305 432 -5 0
452 -480 -500 0
325 309 -339 0
180 -177 -171 0
-493 428 -131 0
109 146 -123 0
-329 312 -346 0
147 -102 -110 0
-75 -479 417 0
-146 -116 -102 0
-480 463 -457 0
55 -96 84 0
-346 329 -306 0
222 450 -386 0
-450 212 -144 0
-175 195 -180 0
-267 -172 446 0
440 -284 -19 0
256 259 -264 0
167 -251 -93 0
-387 372 -375 0
-323 -93 -148 0
185 -190 -163 0
-465 -234 -269 0
-426 -438 -405 0
-95 -55 71 0
-76 -197 -148 0
-206 137 -480 0
-46 -205 -58 0
-97 93 62 0
-416 -450 406 0
253 -425 153 0
99 213 471 0
-206 -247 223 0
-258 -294 254 0
324 -135 -393 0
464 -198 -380 0
-40 -268 103 0
-166 372 -108 0
313 327 323 0
311 270 42 0
-306 -332 328 0
-183 181 -163 0
-119 -146 143 0
-138 182 -492 0
151 421 -41 0
-125 -117 120 0
229 -398 -46 0
-74 289 -390 0
480 -470 -462 0
202 228 226 0
-396 -384 -394 0
103 110 122 0
421 433 403 0
378 -386 -389 0
270 288 269 0
-120 142 140 0
-85 -77 57 0
10 5 -45 0
-227 -218 226 0
-212 -205 223 0
210 -237 241 0
-383 363 -400 0
449 361 461 0
-233 -324 418 0
92 -272 155 0
129 -137 -147 0
392 -390 368 0
-378 354 -397 0
-453 484 495 0
5 -19 24 0
-274 448 454 0
275 493 185 0
224 221 238 0
-151 -400 98 0
-273 -287 294 0
-367 -390 381 0
201 74 300 0
374 -363 -396 0
438 221 -377 0
-52 59 -80 0
42 339 -186 0
453 468 493 0
500 -475 -495 0
130 28 460 0
53 -60 72 0
-322 -63 -478 0
-97 61 100 0
-135 410 237 0
-416 -403 411 0
-338 -145 243 0
-258 -162 135 0
143 -438 -302 0
440 404 450 0
410 -431 -425 0
-314 318 -309 0
174 155 -169 0
82 -83 -70 0
-20 391 255 0
8 20 38 0
420 442 -450 0
-273 -469 -188 0
301 -20 -260 0
487 455 500 0
244 469 416 0
365 -142 222 0
260 -9 388 0
10 -45 -43 0
126 -321 -400 0
289 -458 -48 0
-156 -62 -221 0
438 467 -368 0
46 61 337 0
-136 146 149 0
-287 -264 -284 0
-497 -455 460 0
160 158 163 0
232 -244 237 0
-132 -103 149 0
-285 424 58 0
180 313 -378 0
289 -263 -278 0
-309 332 326 0
-157 158 -192 0
-220 -445 -453 0
-284 357 -247 0
77 193 39 0
-120 140 -106 0
415 -406 -409 0
-269 290 -255 0
-84 -81 72 0
-280 392 -330 0
384 227 42 0
156 -172 -198 0
58 -98 52 0
-167 191 189 0
75 -349 -430 0
149 130 105 0
346 308 -340 0
412 -497 -212 0
186 306 83 0
151 187 -188 0
317 -123 37 0
22 84 -286 0
-361 -312 455 0
238 -498 -327 0
328 342 -329 0
-403 447 -409 0
-367 357 364 0
413 403 -428 0
-173 -137 386 0
-272 91 177 0
49 246 341 0
-65 318 4 0
-227 -232 231 0
-3 -19 -26 0
-290 300 279 0
-280 -282 263 0
58 -79 71 0
487 -494 453 0
31 -37 21 0
-457 239 -36 0
-364 -380 366 0
128 133 -145 0
-4 5 40 0
-46 125 -388 0
-201 216 -220 0
60 -69 72 0
-151 165 -179 0
64 61 -76 0
182 -165 -169 0
-465 -354 -171 0
42 -50 -1 0
-150 -103 -115 0
199 92 -332 0
365 391 378 0
-465 221 363 0
383 378 389 0
-30 -362 -405 0
-345 280 -86 0
-350 311 -314 0
-66 -388 209 0
-315 17 62 0
244 -236 211 0
79 -449 -364 0
-429 420 412 0
-214 316 15 0
76 -54 88 0
24 -396 -401 0
131 102 -138 0
-68 -81 73 0
-350 -304 -321 0
-436 446 450 0
-53 56 -92 0
-151 169 -153 0
285 -272 265 0
-149 -374 -257 0
284 486 -174 0
-428 408 -450 0
113 -56 12 0
35 3 -38 0
333 -241 -485 0
270 -257 -289 0
-219 -229 -217 0
-20 35 5 0
293 270 -281 0
-323 -474 -17 0
-259 300 -277 0
491 252 235 0
477 -461 -490 0
-317 309 338 0
-244 -238 237 0
106 131 120 0
483 -255 441 0
11 4 -18 0
230 240 -211 0
400 -376 355 0
229 -46 -92 0
74 96 -51 0
-362 -348 125 0
-348 312 346 0
224 161 -290 0
283 280 -254 0
99 -442 -218 0
-482 490 -497 0
-313 -306 -318 0
168 54 23 0
405 415 435 0
386 116 -152 0
-235 202 214 0
-378 -286 495 0
426 438 -433 0
113 -102 -138 0
-209 -271 -424 0
187 -4 393 0
-17 -87 -194 0
184 181 -161 0
-198 222 -78 0
100 84 -93 0
-177 84 -466 0
391 -376 -364 0
155 339 -425 0
59 23 370 0
304 -316 -309 0
244 -240 206 0
483 -484 -466 0
-84 -60 -100 0
402 -104 24 0
56 315 494 0
118 120 -117 0
239 241 207 0
394 74 -288 0
185 -95 -209 0
407 445 -414 0
389 396 -356 0
-165 -182 152 0
352 -262 -106 0
42 497 -393 0
-248 -247 213 0
-78 -137 10 0
-109 81 220 0
58 33 492 0
-213 394 459 0
252 274 -290 0
170 171 186 0
-227 206 -234 0
-258 -291 290 0
31 17 -18 0
-41 120 288 0
-420 -440 430 0
342 317 -303 0
-60 -3 -182 0
121 192 50 0
71 -179 41 0
-496 -12 201 0
464 117 -267 0
-42 -44 -33 0
471 288 144 0
-398 270 18 0
470 -471 474 0
-274 302 -471 0
214 201 -239 0
296 -275 278 0
478 -461 455 0
-471 196 387 0
419 475 359 0
43 -294 -156 0
83 77 -74 0
186 -157 154 0
-77 9 362 0
-361 -355 -396 0
-237 229 220 0
-20 257 380 0
-481 -451 468 0
265 -271 -276 0
448 -263 -105 0
38 -341 353 0
59 -441 -297 0
387 367 374 0
-155 -158 180 0
344 305 -309 0
-227 -250 217 0
476 -318 -427 0
369 -388 378 0
151 185 -198 0
200 422 209 0
255 288 -277 0
168 179 172 0
300 285 275 0
-163 -196 -199 0
-333 317 -303 0
-208 -228 219 0
-444 -423 427 0
230 240 224 0
-117 46 70 0
