p cnf 1000 2200
-808 166 938 0
28 985 58 0
-952 814 -370 0
-986 477 -890 0
898 143 -990 0
-52 5 -166 0
-305 -405 51 0
-842 -356 -479 0
-537 -534 -852 0
955 572 -300 0
282 -998 -702 0
-355 747 666 0
184 -766 889 0
-264 -889 768 0
-817 -796 966 0
-631 653 425 0
-240 -178 224 0
486 609 380 0
-516 953 527 0
69 -255 -539 0
714 437 -34 0
723 -617 -40 0
441 -351 -844 0
-572 -320 -472 0
510 -489 -274 0
141 122 -722 0
666 375 -939 0
-316 207 401 0
592 -461 -455 0
207 -967 919 0
-595 351 541 0
154 -332 462 0
165 508 -971 0
-436 86 -852 0
496 340 -92 0
751 -21 210 0
722 302 792 0
65 -656 335 0
-34 970 -737 0
-719 -839 157 0
835 -361 -231 0
-39 -492 816 0
308 -724 -380 0
676 635 384 0
901 476 29 0
180 510 -427 0
-52 -806 534 0
-884 153 -849 0
-58 636 -828 0
936 872 -283 0
-168 -103 -563 0
12 651 -89 0
-570 461 -569 0
-230 -444 173 0
-344 -248 725 0
-345 58 507 0
-973 802 135 0
-631 765 111 0
729 -630 -745 0
381 237 747 0
665 -7 534 0
746 377 -628 0
-335 -779 -691 0
973 -245 -49 0
761 329 185 0
76 -576 381 0
-144 -245 955 0
-151 -865 -17 0
562 665 617 0
697 197 -58 0
-146 -748 95 0
710 571 -406 0
358 254 -539 0
85 28 -964 0
58 -490 -780 0
-550 823 444 0
441 520 774 0
-962 562 689 0
49 -930 -823 0
-130 730 -399 0
219 828 195 0
-455 -111 284 0
337 -960 583 0
495 -491 -919 0
309 -149 393 0
-839 -214 -520 0
911 -329 -3 0
-361 104 812 0
-969 -826 65 0
-268 -611 -354 0
699 465 599 0
52 433 958 0
-343 880 -340 0
376 -888 -428 0
411 -583 21 0
-932 326 530 0
321 195 282 0
827 158 282 0
-927 -966 -758 0
436 547 -450 0
-710 -929 -184 0
637 384 663 0
-578 -235 127 0
-765 -264 568 0
594 -509 -113 0
-983 -118 411 0
303 -160 360 0
-124 746 100 0
-278 385 -214 0
-216 -695 285 0
395 -797 -886 0
623 -50 46 0
-757 -449 252 0
-827 -957 237 0
-570 -702 416 0
64 -479 171 0
154 716 -84 0
-14 287 -435 0
-62 -643 -618 0
-313 -62 -720 0
373 560 602 0
-704 -506 343 0
-823 959 -898 0
72 273 -238 0
48 -736 449 0
-979 -371 666 0
-413 975 454 0
-934 -764 -584 0
385 -65 355 0
-647 -318 907 0
-967 -16 482 0
-114 943 -907 0
-430 -248 509 0
951 930 -540 0
295 22 341 0
-250 -739 -444 0
777 915 138 0
-293 719 -680 0
-685 791 819 0
-726 615 892 0
-435 -426 -461 0
341 -755 -125 0
262 -94 486 0
292 -46 120 0
-20 -152 860 0
853 885 491 0
-344 258 -147 0
164 -72 220 0
118 -925 -200 0
-190 54 -583 0
-459 552 817 0
-43 732 -937 0
-249 88 425 0
60 226 533 0
-11 -920 484 0
-790 513 113 0
-287 14 -570 0
-649 469 -338 0
546 -969 289 0
-761 -108 119 0
-932 374 451 0
-522 -743 -673 0
-889 -572 -175 0
-28 -94 10 0
398 612 26 0
-49 164 745 0
-90 489 -116 0
639 -37 868 0
-971 726 957 0
1000 -905 -809 0
996 226 -681 0
989 -986 -112 0
614 -986 964 0
457 689 394 0
-712 413 -956 0
-670 -178 595 0
-427 -222 983 0
-129 166 -304 0
-191 187 -129 0
-486 -801 101 0
626 866 -896 0
572 -661 956 0
274 491 -240 0
719 37 -1000 0
-677 -828 -682 0
-836 525 297 0
-147 354 670 0
-903 720 -984 0
-160 -465 23 0
810 -646 -730 0
-437 872 620 0
108 -897 -822 0
-690 907 154 0
195 -277 -781 0
-269 393 -416 0
-797 -37 41 0
553 648 -173 0
96 -615 600 0
59 161 620 0
791 657 -4 0
730 -71 -626 0
-230 469 212 0
24 444 378 0
486 -494 279 0
-47 343 -804 0
-826 978 856 0
666 302 -725 0
394 -966 480 0
698 -276 -10 0
-837 865 -202 0
-192 -755 929 0
-15 103 -219 0
196 -941 202 0
209 -49 -600 0
-64 150 489 0
-213 -367 299 0
-209 320 -736 0
-365 843 -783 0
62 -614 -472 0
-326 -331 -895 0
185 -502 -768 0
-62 -838 393 0
904 -667 517 0
-294 -630 -235 0
-663 241 505 0
382 553 852 0
749 20 327 0
936 -347 -206 0
-4 -700 853 0
23 347 -550 0
503 -811 66 0
550 968 -866 0
-158 456 290 0
-958 20 -737 0
-275 -67 -333 0
402 -460 -255 0
-457 98 510 0
949 -567 -648 0
454 577 769 0
-896 95 548 0
887 -315 -841 0
-689 -2 -798 0
-897 616 812 0
802 -553 -28 0
-626 356 662 0
314 -161 387 0
949 -626 -102 0
605 70 45 0
897 -250 57 0
388 838 -44 0
778 -460 614 0
-287 -179 -848 0
-985 -391 318 0
-194 434 635 0
-913 -860 964 0
990 724 34 0
-824 -566 -625 0
62 -332 900 0
133 712 478 0
-631 830 -338 0
293 -624 -778 0
-706 556 -498 0
67 52 944 0
-155 -226 -471 0
124 712 -720 0
538 909 268 0
644 -731 818 0
-257 415 41 0
971 -6 52 0
96 109 -106 0
288 -422 -203 0
-432 193 331 0
650 -904 -718 0
946 391 -648 0
193 339 -705 0
-110 191 994 0
82 -406 959 0
649 21 571 0
-43 -274 559 0
-97 -654 -827 0
-56 -504 817 0
594 342 508 0
94 -737 572 0
766 -367 437 0
-461 555 904 0
61 73 -179 0
-686 174 72 0
200 365 -19 0
823 -711 -308 0
693 911 -773 0
79 326 -692 0
262 918 657 0
-228 364 -782 0
37 -680 354 0
649 962 -158 0
364 4 221 0
820 -666 650 0
932 573 -577 0
-722 -407 -562 0
72 -29 660 0
-702 589 -679 0
491 829 323 0
-431 146 683 0
199 -406 197 0
824 -102 364 0
193 267 -605 0
-339 -787 911 0
430 -643 -371 0
-555 763 -513 0
624 -534 -958 0
730 301 588 0
-544 -644 801 0
-31 -429 -183 0
593 729 -79 0
-432 -589 451 0
-646 912 -172 0
-874 432 818 0
972 291 227 0
140 882 213 0
568 -245 -957 0
883 -678 138 0
413 139 822 0
-587 -426 -911 0
-238 -298 -52 0
-595 -267 963 0
-318 -122 965 0
216 -340 455 0
471 646 -611 0
-311 864 786 0
-176 -779 4 0
733 744 -714 0
712 464 469 0
-824 -289 -255 0
118 981 244 0
-113 2 500 0
386 -454 -393 0
387 282 -493 0
487 -267 145 0
10 -935 761 0
-981 42 -242 0
174 -200 621 0
-379 -978 -659 0
-179 867 -858 0
327 -493 757 0
646 -58 -997 0
619 -711 820 0
-304 437 -738 0
-96 640 -280 0
925 297 170 0
-545 -801 501 0
-569 320 -926 0
396 -411 -660 0
-682 -155 367 0
278 -13 230 0
334 850 677 0
181 -43 -293 0
-306 -995 102 0
364 973 206 0
84 -312 -15 0
-206 69 -162 0
958 -41 -600 0
-449 52 -845 0
601 727 -240 0
-168 506 544 0
408 -205 145 0
-228 -707 702 0
636 796 10 0
-293 297 636 0
660 -788 -965 0
235 660 148 0
776 365 -535 0
880 -363 -97 0
-970 499 -107 0
-55 -119 -230 0
600 845 684 0
-140 -309 -62 0
-169 -142 -19 0
-555 546 471 0
251 -54 -830 0
-577 -238 780 0
-7 374 -301 0
-270 -360 -273 0
117 -786 -836 0
-227 263 -92 0
-493 823 662 0
-927 -656 907 0
-879 302 -210 0
-944 -845 58 0
19 790 328 0
-275 -383 792 0
423 -167 211 0
-728 -684 572 0
-223 -121 -360 0
877 236 150 0
741 993 781 0
-398 -424 880 0
-223 38 -389 0
137 -707 -679 0
120 -460 -119 0
182 426 696 0
280 774 332 0
630 -828 -994 0
-621 -685 630 0
-736 -349 -769 0
662 827 192 0
269 789 -454 0
507 603 953 0
178 782 -284 0
955 126 -660 0
528 -843 -74 0
-250 -111 -344 0
-809 -31 848 0
-169 710 821 0
407 357 -650 0
563 -854 125 0
-304 -566 653 0
739 -272 -362 0
-887 543 709 0
-384 -632 -428 0
-744 -938 -319 0
-758 250 445 0
567 -930 -468 0
-816 55 -148 0
514 936 -277 0
438 473 -836 0
549 -427 288 0
-933 815 -658 0
838 233 394 0
498 237 -782 0
-978 896 142 0
640 568 644 0
-537 -9 -221 0
523 -617 456 0
-888 64 -966 0
260 4 -349 0
-921 856 46 0
-776 425 804 0
57 -35 634 0
956 -215 48 0
-584 171 -263 0
244 179 293 0
-636 -295 -987 0
492 -550 167 0
-178 480 853 0
-958 542 -619 0
-192 431 -847 0
-387 -930 -342 0
116 506 -67 0
229 -293 -876 0
-882 576 -782 0
-877 -260 -454 0
-905 -798 625 0
313 216 720 0
-185 -969 -457 0
-364 -195 -237 0
-582 52 -214 0
-967 -597 -738 0
-918 1 163 0
877 751 749 0
-193 276 233 0
-845 -758 246 0
-620 955 -41 0
257 968 -417 0
-47 809 -830 0
71 394 164 0
-288 455 -378 0
-641 -36 622 0
166 -150 578 0
-871 600 672 0
-426 -410 319 0
-366 132 -73 0
372 -681 476 0
-526 358 -557 0
-247 -76 653 0
843 -240 254 0
751 -297 897 0
-108 -886 352 0
544 394 -156 0
988 723 -597 0
209 -897 -872 0
324 -939 -318 0
260 -352 555 0
279 139 934 0
393 -476 -334 0
-795 -313 768 0
881 -331 -649 0
-518 -116 89 0
-212 755 -90 0
793 867 510 0
329 518 118 0
-961 351 100 0
113 5 -635 0
-247 104 -56 0
-45 951 -789 0
833 -116 -856 0
819 867 856 0
-860 490 -514 0
219 -814 -812 0
-376 -122 750 0
-176 -350 -754 0
563 880 -979 0
-584 942 970 0
-742 -538 -593 0
-297 -625 -654 0
-394 -462 -762 0
-399 -769 740 0
-400 -350 -168 0
701 195 -58 0
-480 868 65 0
151 -440 -304 0
-218 -527 -753 0
-88 -207 197 0
182 -119 -292 0
-143 686 -831 0
988 493 598 0
-959 81 614 0
2 -764 684 0
-598 804 -393 0
479 -590 -774 0
182 -392 508 0
-183 539 -843 0
-302 360 -479 0
593 -336 835 0
287 -776 -746 0
-292 763 -700 0
99 788 580 0
40 -330 -504 0
173 -867 -221 0
308 -971 -509 0
-408 840 -341 0
-53 559 -93 0
400 -774 -332 0
351 465 896 0
-929 -947 694 0
-778 399 -687 0
-186 -297 -155 0
826 180 417 0
860 -142 -163 0
369 21 647 0
-505 -137 87 0
-757 36 -678 0
937 76 541 0
-634 392 431 0
-780 -305 573 0
163 337 -852 0
-169 535 779 0
-152 -167 882 0
32 265 -574 0
-550 993 788 0
933 -144 -827 0
-979 -569 -644 0
-719 -79 -110 0
301 -733 689 0
770 51 900 0
-908 651 81 0
303 1 -398 0
-619 -510 -618 0
165 490 13 0
627 -978 -581 0
-906 -624 14 0
-812 511 158 0
-804 -903 -826 0
880 219 160 0
-890 -190 33 0
888 -533 -131 0
160 285 24 0
881 -4 -680 0
403 -641 -645 0
-535 -592 145 0
759 -878 284 0
-966 -985 -483 0
-414 -588 -732 0
538 -433 384 0
259 339 421 0
310 -287 -28 0
382 466 257 0
-827 678 810 0
17 -435 483 0
-663 65 -44 0
-466 230 -392 0
914 269 -677 0
-334 20 -186 0
680 -270 733 0
-190 -390 271 0
332 -812 355 0
682 -195 87 0
20 34 753 0
-465 -227 -879 0
-181 33 504 0
-879 -40 518 0
994 -604 -289 0
227 137 -452 0
999 -661 764 0
705 -275 686 0
-81 -781 274 0
-268 -53 -611 0
400 5 -328 0
-192 96 -504 0
340 979 -155 0
-206 -241 993 0
-487 -135 -839 0
-10 -43 -425 0
90 -772 -169 0
771 -243 549 0
-666 -913 -954 0
514 -255 258 0
-379 -308 -490 0
-171 223 -530 0
22 -110 424 0
-598 -539 633 0
-431 455 762 0
-917 -762 -322 0
-48 212 695 0
-927 -898 -152 0
-700 -315 165 0
-94 875 -689 0
-543 -790 582 0
-662 -642 925 0
764 965 33 0
101 -768 -95 0
-568 552 902 0
-367 566 -439 0
263 718 -196 0
-286 -715 280 0
-871 53 -632 0
943 10 -424 0
-370 519 -103 0
-198 -948 866 0
-445 935 -526 0
297 -421 -159 0
-585 881 -965 0
520 -851 -320 0
-108 338 490 0
132 383 -328 0
-916 300 522 0
-428 -352 -576 0
937 1000 576 0
217 -625 85 0
187 -304 -173 0
-114 847 -2 0
-438 184 98 0
902 -443 -800 0
848 -524 -49 0
-728 -915 -327 0
-379 736 650 0
243 577 -769 0
722 511 965 0
76 105 61 0
847 -541 839 0
968 810 -735 0
995 -509 214 0
-89 -341 -155 0
686 -585 109 0
-314 -375 -567 0
-10 -988 658 0
982 -571 956 0
-555 -640 -351 0
228 360 562 0
-886 452 -596 0
87 925 377 0
677 797 862 0
227 -345 346 0
405 81 -334 0
-553 -809 -630 0
-598 85 -215 0
225 -766 278 0
-227 -47 -462 0
-793 834 3 0
-787 773 -24 0
557 728 -316 0
730 648 -347 0
17 654 996 0
413 -133 -372 0
-171 -109 533 0
-965 151 -560 0
432 345 322 0
639 -904 -332 0
984 -974 980 0
504 -909 953 0
178 61 -685 0
-504 482 -957 0
395 -507 -747 0
-31 139 520 0
-439 336 112 0
-553 88 -68 0
491 -340 -728 0
177 -860 928 0
-417 227 763 0
728 230 250 0
-686 -856 403 0
96 -305 -545 0
-59 521 -525 0
-968 65 53 0
111 298 -741 0
275 -236 891 0
134 187 885 0
-855 -989 239 0
-166 -272 451 0
319 -751 -583 0
410 -32 20 0
-460 488 710 0
-206 -1000 976 0
-491 869 -451 0
-474 -99 172 0
751 -20 288 0
341 -682 342 0
-634 350 -352 0
744 132 -539 0
-789 117 -309 0
512 733 -516 0
-914 -781 395 0
-633 349 -69 0
-665 -181 -7 0
-973 -110 789 0
-662 984 703 0
692 620 844 0
609 -752 889 0
230 453 672 0
-68 -561 -918 0
407 397 -100 0
296 -432 -501 0
-115 153 -229 0
-35 233 617 0
-560 -831 -980 0
339 894 303 0
-891 -848 185 0
336 974 340 0
311 778 -362 0
171 -399 49 0
738 215 -427 0
-598 196 -440 0
850 963 308 0
-339 -142 504 0
-917 240 -447 0
-964 -367 -778 0
-664 -386 -456 0
-382 233 960 0
471 949 -490 0
-295 545 -550 0
403 414 726 0
379 -280 -239 0
-559 285 7 0
-696 100 884 0
-450 -689 -917 0
-491 591 -921 0
177 -443 77 0
-956 268 590 0
-637 442 -996 0
70 209 -349 0
-645 612 -104 0
-793 -711 -538 0
-279 -482 -792 0
621 -552 708 0
-937 606 -740 0
34 -747 -606 0
-563 33 -110 0
82 -24 630 0
-518 -957 -44 0
80 -235 -77 0
-663 -927 549 0
-774 -26 138 0
423 -547 377 0
633 45 -821 0
-162 -408 -225 0
-70 -815 391 0
-300 130 -706 0
-372 319 -545 0
-798 201 -418 0
-583 831 705 0
-377 74 -12 0
-560 -62 748 0
730 799 767 0
-501 625 -26 0
-245 -668 -545 0
-742 -121 -959 0
-906 948 -605 0
424 -404 -245 0
753 -103 355 0
-125 18 320 0
270 321 -12 0
98 406 650 0
683 387 -74 0
265 -886 581 0
-417 -576 785 0
-314 125 -921 0
184 -549 667 0
-25 -449 -978 0
-604 687 -341 0
-967 321 -323 0
33 554 -731 0
613 501 -855 0
502 750 556 0
-657 913 88 0
472 -447 -48 0
-224 539 -639 0
-218 -264 823 0
-166 -229 -126 0
914 -85 488 0
809 -945 91 0
-6 -709 -141 0
36 647 737 0
-186 -723 491 0
655 -286 -419 0
-4 167 -282 0
467 621 -277 0
378 -57 987 0
815 94 -259 0
682 909 -1000 0
348 -701 -278 0
236 69 404 0
707 -493 853 0
775 882 -64 0
-43 102 958 0
-703 259 463 0
-673 481 -435 0
165 -898 -644 0
298 -271 546 0
835 36 356 0
-697 982 793 0
-813 82 177 0
-469 -571 -547 0
728 674 326 0
123 -372 761 0
841 -38 9 0
-758 421 190 0
625 524 89 0
789 -270 584 0
556 422 19 0
188 658 -767 0
620 866 934 0
215 -333 -94 0
-688 137 -155 0
734 -986 339 0
154 607 -631 0
720 787 721 0
-677 260 -522 0
-355 -525 -37 0
869 669 -224 0
-320 753 944 0
528 -477 -522 0
339 735 953 0
-566 -263 177 0
391 593 903 0
-601 -352 777 0
-438 351 -162 0
-384 316 691 0
803 -920 -195 0
-595 -63 149 0
-951 -2 -830 0
-844 66 -662 0
399 -28 767 0
-344 -265 623 0
459 357 -171 0
-797 -992 -191 0
-186 -682 752 0
858 -356 -369 0
-668 129 -198 0
-567 586 284 0
-582 -10 -391 0
930 884 -302 0
-699 940 -978 0
433 419 882 0
513 512 -700 0
-234 560 892 0
-645 356 -899 0
944 -818 -746 0
787 -394 -268 0
-130 122 497 0
-77 575 511 0
-710 -656 -496 0
-716 122 495 0
-380 -900 243 0
238 138 -512 0
-936 533 -759 0
-702 90 -102 0
483 -271 -4 0
938 -813 538 0
-247 581 9 0
94 901 -998 0
-26 -569 185 0
465 537 -136 0
934 863 -211 0
741 603 690 0
130 -349 -498 0
956 158 965 0
-197 -259 602 0
-815 -276 508 0
783 216 553 0
-483 288 -130 0
814 442 479 0
655 49 151 0
-559 -443 724 0
494 -72 -95 0
44 -246 -704 0
734 -60 931 0
749 -455 -325 0
-482 129 310 0
-244 -92 146 0
-685 296 -794 0
-540 458 749 0
530 234 -165 0
625 -731 -955 0
-466 419 -155 0
848 -340 786 0
-497 -138 -647 0
103 334 -109 0
-905 -948 -701 0
-500 -837 252 0
843 31 -260 0
261 -426 617 0
158 391 563 0
845 -758 -274 0
485 -855 -740 0
890 -212 -86 0
746 -297 -528 0
-784 -404 -782 0
598 372 -218 0
873 135 309 0
-199 401 504 0
154 -860 279 0
-172 461 -785 0
840 -932 -768 0
-756 -802 -566 0
425 -410 310 0
-239 400 255 0
-358 224 910 0
-388 701 513 0
-843 45 26 0
-610 774 640 0
971 351 259 0
552 207 147 0
-445 -94 1000 0
-873 -954 326 0
260 -530 -551 0
-78 80 824 0
44 957 946 0
-616 247 -723 0
-28 -575 -599 0
942 901 267 0
-258 249 -624 0
-244 840 -876 0
329 -600 289 0
798 148 272 0
567 -228 -698 0
-164 63 -49 0
558 540 -990 0
-937 832 474 0
888 -42 -343 0
-82 448 -803 0
604 -835 -498 0
824 221 -961 0
341 237 781 0
195 2 981 0
-217 -589 115 0
118 691 232 0
-217 207 -815 0
151 -479 -728 0
585 578 -653 0
715 -768 945 0
-701 449 655 0
332 -972 973 0
223 -200 154 0
-511 6 -971 0
244 -151 -421 0
932 -516 -443 0
278 -761 -616 0
-980 -605 884 0
-516 16 807 0
815 917 -61 0
-57 -557 -164 0
-155 -128 929 0
-214 -652 447 0
979 199 -787 0
301 198 717 0
-78 -606 310 0
610 -657 -672 0
870 -186 339 0
-367 -257 -702 0
135 532 -759 0
-330 -461 165 0
694 -792 686 0
-297 -667 505 0
-740 788 -57 0
267 -571 59 0
905 -702 -63 0
259 -911 -63 0
-738 668 52 0
-179 783 -692 0
-479 -634 -852 0
297 876 -408 0
438 -606 802 0
-317 -784 -181 0
250 20 -326 0
-246 9 -746 0
24 -38 105 0
996 -677 -696 0
-556 647 6 0
137 -193 -632 0
-970 918 503 0
-292 183 188 0
-214 125 18 0
442 432 206 0
414 962 580 0
-73 684 -678 0
557 941 -285 0
-361 -515 765 0
973 527 -824 0
667 885 11 0
-872 -137 999 0
102 -569 -233 0
503 -862 -87 0
665 153 770 0
36 -615 -376 0
794 -232 847 0
-864 -66 -430 0
64 -94 -74 0
849 -255 937 0
-180 -184 -399 0
-900 536 513 0
-831 450 -734 0
385 -230 -926 0
-763 14 125 0
544 148 -705 0
-759 559 -406 0
674 740 711 0
635 -136 -822 0
-767 919 730 0
725 969 -653 0
-522 506 520 0
-20 320 638 0
982 806 226 0
57 -358 -974 0
-969 -34 -482 0
-151 470 -307 0
96 408 -923 0
-539 -964 -16 0
650 -873 931 0
800 -862 -749 0
489 -421 241 0
-294 -272 810 0
421 -701 -738 0
-266 513 -365 0
398 327 -57 0
-355 297 -190 0
-973 -726 944 0
-281 921 554 0
797 -889 -529 0
191 858 679 0
842 83 -74 0
564 743 -884 0
-27 129 -448 0
879 -310 -777 0
380 -237 806 0
-492 -755 -440 0
-157 559 759 0
690 926 38 0
-424 747 -835 0
-823 -402 732 0
-18 867 -673 0
106 302 420 0
970 -863 301 0
-855 912 -265 0
318 258 949 0
98 579 901 0
-263 324 859 0
-77 -123 -355 0
-178 836 -585 0
418 -212 -650 0
819 25 795 0
-523 -83 -176 0
671 -478 868 0
65 92 -809 0
836 -932 993 0
-110 -326 513 0
743 721 108 0
-639 302 -579 0
-192 794 -679 0
-983 810 657 0
-532 -440 699 0
-290 880 -447 0
-358 725 309 0
-558 -467 -286 0
435 630 792 0
721 -657 589 0
966 -836 -369 0
-891 580 -514 0
-880 376 -674 0
-557 -209 900 0
352 13 478 0
-858 156 -765 0
-654 -188 990 0
672 -904 -336 0
-187 707 866 0
545 -659 541 0
405 -774 -217 0
-548 244 -583 0
-739 691 968 0
52 751 176 0
289 791 97 0
988 -787 -791 0
806 166 -405 0
-352 -639 518 0
-359 -858 -508 0
-260 832 685 0
498 586 652 0
210 -23 791 0
-344 533 -670 0
-196 706 525 0
-62 -859 -949 0
-815 -809 -902 0
-797 -421 675 0
-313 479 -582 0
-280 -367 5 0
-79 -712 -901 0
-713 915 -529 0
-192 177 115 0
361 74 -295 0
191 24 984 0
-619 547 701 0
-681 -924 -866 0
-229 151 75 0
396 -713 -24 0
707 623 -848 0
-773 -131 -518 0
-296 174 562 0
620 -899 -837 0
364 -805 -383 0
685 561 992 0
377 -135 697 0
-620 -221 -682 0
-185 1000 -643 0
878 -945 -628 0
-400 -856 182 0
142 386 799 0
-756 155 -844 0
406 -733 742 0
62 320 825 0
-295 -23 729 0
-767 -529 907 0
-339 980 933 0
-510 950 697 0
-73 -861 -800 0
203 1000 -797 0
-786 609 -330 0
-846 332 273 0
388 -311 900 0
-910 -59 -680 0
430 482 252 0
-728 899 825 0
-714 -386 -41 0
-329 -940 -576 0
833 -473 874 0
-730 376 -498 0
-788 -39 -840 0
-85 -173 113 0
640 328 273 0
239 -575 707 0
919 -55 613 0
668 -585 -545 0
-633 291 -856 0
783 -217 -373 0
-285 -396 -923 0
444 -487 -49 0
186 860 142 0
913 357 -892 0
942 -218 717 0
-876 848 -142 0
-754 312 -646 0
543 -180 -897 0
265 272 156 0
-865 -896 -734 0
-901 880 821 0
-939 -669 566 0
108 632 896 0
563 805 762 0
-395 191 842 0
542 472 -375 0
-809 -446 -539 0
107 964 -604 0
116 -586 851 0
127 121 -38 0
161 212 -612 0
238 207 -887 0
-186 456 -674 0
-984 522 -508 0
495 601 -381 0
-794 -888 304 0
-92 709 -752 0
-883 -676 -599 0
-799 876 -319 0
974 -709 66 0
-372 573 -199 0
-165 123 -433 0
-994 -307 -616 0
569 792 -189 0
-100 620 -651 0
650 -876 253 0
920 168 596 0
206 -502 844 0
17 452 -755 0
913 119 -626 0
928 -533 4 0
736 -79 967 0
74 -494 800 0
-58 -725 -268 0
-945 437 57 0
765 -140 839 0
-603 542 -199 0
-451 879 -409 0
119 -887 723 0
6 -554 464 0
225 473 -888 0
-118 374 -669 0
-916 -67 162 0
-345 329 -990 0
753 133 527 0
-672 465 -450 0
856 -726 -75 0
679 -804 -212 0
569 -865 992 0
690 -528 778 0
-508 -980 454 0
-525 716 -895 0
395 807 -369 0
-527 66 -758 0
29 -563 70 0
76 352 768 0
-716 133 401 0
-509 832 -115 0
869 -199 -730 0
452 248 292 0
445 -974 -877 0
667 -53 -358 0
782 -657 -924 0
713 -777 -862 0
-293 593 -937 0
166 179 -157 0
512 282 120 0
326 3 380 0
-114 790 -322 0
28 668 -381 0
-527 -203 -41 0
652 539 117 0
937 69 -90 0
-698 87 896 0
-262 -596 615 0
669 856 -963 0
187 785 -938 0
-433 337 -663 0
279 595 485 0
794 -998 -671 0
309 115 804 0
-142 10 -618 0
34 963 588 0
182 287 -577 0
308 -181 -975 0
147 -35 271 0
557 -589 -265 0
-844 964 839 0
926 381 312 0
-713 845 170 0
-667 74 -167 0
-208 -704 -553 0
-936 -850 -368 0
-608 -142 -203 0
356 -471 -852 0
-940 71 -676 0
816 -673 838 0
457 -487 -154 0
-406 -492 914 0
-247 -244 -825 0
854 257 -580 0
-288 553 963 0
-143 939 373 0
-210 -837 -493 0
-813 576 -877 0
600 381 904 0
991 711 -849 0
-390 -967 143 0
-360 -282 -661 0
-809 29 -5 0
-689 429 -316 0
385 -147 434 0
-841 -512 -349 0
731 507 -10 0
-610 511 149 0
68 -815 641 0
713 -627 593 0
-120 307 983 0
46 352 32 0
-15 274 666 0
383 -984 225 0
191 -283 681 0
511 79 -907 0
623 944 -344 0
-349 -59 594 0
678 -425 -771 0
949 -473 860 0
-800 230 -819 0
-226 -794 149 0
-288 656 -109 0
-25 -215 195 0
465 -534 79 0
-320 -433 -829 0
-238 -802 473 0
905 972 -470 0
-465 -537 343 0
399 -732 -212 0
-391 -734 -229 0
232 -918 881 0
-49 -803 -627 0
-691 -104 925 0
228 -22 -992 0
109 292 881 0
605 233 -65 0
864 871 -920 0
979 43 549 0
830 924 734 0
249 -985 146 0
-363 -864 356 0
583 987 99 0
941 -606 -27 0
-717 405 -588 0
865 16 -1000 0
561 345 -58 0
429 60 -440 0
-898 -571 740 0
-369 588 -358 0
65 -153 636 0
-324 -499 -84 0
948 -990 284 0
-75 29 405 0
637 1 -646 0
548 -413 -987 0
937 -346 -373 0
-924 437 -721 0
508 468 762 0
258 574 175 0
-639 750 -555 0
351 32 955 0
-331 -912 -825 0
-981 -483 794 0
-592 969 -483 0
156 809 180 0
-824 544 987 0
-412 -348 -942 0
-516 977 623 0
-344 64 844 0
-256 -241 505 0
-406 -868 -637 0
952 242 25 0
919 -395 206 0
-398 -394 -659 0
565 -95 646 0
815 217 990 0
553 193 -333 0
-727 -687 -486 0
520 412 403 0
-297 448 42 0
-459 641 321 0
629 679 -906 0
273 -953 -776 0
-268 -202 323 0
691 -488 -437 0
-527 -360 541 0
-444 -616 297 0
176 923 -703 0
110 991 -675 0
-497 469 674 0
660 -333 177 0
194 -57 -548 0
914 827 -128 0
269 185 315 0
-499 485 -942 0
-233 228 -371 0
585 788 588 0
-30 -983 993 0
-417 -304 -708 0
-375 -789 -88 0
-592 439 -2 0
-309 -180 -143 0
717 80 716 0
733 -622 854 0
843 -785 -509 0
203 -266 492 0
-60 987 -677 0
124 -666 930 0
560 -761 797 0
-528 575 -30 0
986 640 45 0
-196 -72 -205 0
317 488 -790 0
892 166 781 0
898 -809 777 0
111 -830 192 0
-741 -974 641 0
-866 -747 840 0
77 -786 921 0
118 293 142 0
-375 -494 340 0
868 -199 992 0
-629 928 890 0
-981 -551 940 0
-776 -353 822 0
-544 893 650 0
114 -664 -3 0
15 292 -931 0
-906 -488 459 0
552 578 919 0
872 -528 292 0
782 -941 -939 0
-486 721 877 0
-848 740 -907 0
980 339 -677 0
978 207 -88 0
529 321 -743 0
620 755 867 0
-922 -885 389 0
-208 906 -559 0
272 568 178 0
597 -740 885 0
-199 -126 -948 0
718 523 -758 0
-444 -864 -172 0
-558 -319 -289 0
483 -974 95 0
20 -98 242 0
539 854 122 0
403 -356 476 0
633 47 -608 0
388 723 937 0
634 -891 645 0
-678 -465 539 0
616 -122 -427 0
-416 -132 -556 0
789 245 -338 0
-267 507 923 0
-374 -768 405 0
-608 -946 745 0
561 861 57 0
-424 101 321 0
-256 815 -986 0
284 416 -602 0
96 519 -175 0
865 495 -100 0
761 -60 -346 0
111 347 63 0
-32 499 856 0
-836 466 587 0
41 832 405 0
384 482 783 0
-167 -262 742 0
-655 -721 -579 0
-811 -634 416 0
434 82 361 0
989 -90 -139 0
77 -258 123 0
656 137 429 0
-205 -347 436 0
-746 320 644 0
-150 437 -972 0
20 999 -807 0
-648 333 -13 0
-221 533 338 0
214 168 328 0
-883 206 -443 0
-99 -859 -990 0
-154 392 -979 0
-435 597 437 0
180 626 653 0
-525 -229 571 0
755 -258 90 0
-549 369 99 0
259 -513 867 0
-330 63 -374 0
-949 608 -273 0
-701 -446 -749 0
-368 -29 378 0
-677 136 -993 0
-486 800 -368 0
69 -866 609 0
772 272 -599 0
896 570 -516 0
-150 847 -140 0
-477 -509 203 0
-513 -620 42 0
-393 -670 639 0
-342 -457 587 0
623 -172 -151 0
34 -225 -618 0
-354 234 190 0
-312 754 119 0
-916 -184 34 0
-815 -783 -92 0
-352 -149 532 0
-452 -792 187 0
747 -899 178 0
785 -832 -210 0
887 833 835 0
-852 775 -522 0
785 -7 -89 0
926 -253 386 0
-538 693 -391 0
-257 -320 -397 0
4 -945 821 0
-94 -996 -367 0
-506 348 -891 0
354 -529 -329 0
-391 615 334 0
485 643 84 0
-590 351 641 0
-592 -261 -422 0
-309 426 227 0
567 -259 895 0
-158 918 -789 0
-441 360 257 0
-324 -350 -196 0
995 -569 -620 0
240 49 441 0
-165 -778 608 0
576 -604 -35 0
923 -865 -862 0
711 377 -801 0
-977 -253 774 0
721 -421 -471 0
139 688 490 0
-125 831 665 0
37 -396 -258 0
844 181 994 0
644 342 -947 0
-939 -371 564 0
-785 -714 -240 0
482 262 167 0
416 572 215 0
-372 -566 662 0
-376 175 765 0
635 99 689 0
763 109 -412 0
595 -174 -606 0
-452 -156 574 0
-707 -215 877 0
-825 224 119 0
-304 113 -846 0
-949 -262 -252 0
-803 -216 840 0
532 695 -264 0
42 390 -352 0
-22 -82 816 0
-354 -293 -766 0
85 602 -366 0
485 877 -456 0
-691 -431 515 0
794 827 572 0
212 -243 305 0
-599 -192 -10 0
990 353 -146 0
673 412 605 0
-816 -598 411 0
-141 -284 437 0
-448 500 272 0
969 -697 316 0
724 116 143 0
-789 152 501 0
237 114 117 0
-377 -577 401 0
136 998 146 0
-916 -224 -214 0
-334 -131 -338 0
-102 -328 -455 0
36 414 -222 0
-830 388 -937 0
-161 371 -900 0
-9 108 -578 0
-884 -221 -461 0
-680 166 457 0
-20 -700 -837 0
-792 279 -934 0
533 238 835 0
-226 -528 117 0
989 621 243 0
639 -493 600 0
345 577 950 0
-805 296 -60 0
-244 893 -906 0
465 696 -745 0
218 566 693 0
253 43 230 0
27 330 302 0
-173 111 723 0
88 -25 -824 0
-362 -76 -226 0
-301 -433 -670 0
844 526 771 0
-931 260 690 0
961 255 296 0
-801 -483 433 0
-412 661 706 0
596 395 378 0
-301 -903 851 0
-372 318 -647 0
-915 104 762 0
739 -752 432 0
-160 -8 13 0
238 -866 53 0
743 790 393 0
919 -345 -148 0
736 -6 691 0
-176 716 625 0
764 93 323 0
-451 -554 253 0
784 -432 275 0
-575 236 -481 0
-943 663 648 0
142 892 -917 0
-488 850 -81 0
298 -616 -740 0
-993 90 -723 0
873 -910 138 0
-333 1000 11 0
-877 27 568 0
558 -29 -42 0
-323 -268 109 0
-364 614 -264 0
219 -637 -359 0
638 -831 -441 0
709 -56 484 0
72 -144 382 0
-334 3 -395 0
-79 644 -66 0
-426 180 436 0
463 -553 400 0
-610 290 -34 0
737 -202 -274 0
959 -84 320 0
474 -26 946 0
-44 9 -342 0
655 260 -36 0
848 -415 815 0
-320 -155 -433 0
92 458 -917 0
-466 -626 414 0
341 722 -237 0
746 798 -469 0
-331 441 -621 0
340 -586 737 0
-405 -919 -548 0
242 -657 -715 0
-78 -566 95 0
950 -48 228 0
230 -872 -307 0
751 207 -256 0
-414 683 -259 0
-765 -782 63 0
663 354 63 0
882 -292 776 0
-781 65 -8 0
469 990 -764 0
595 782 -898 0
-108 -899 792 0
151 903 450 0
-336 102 385 0
-903 326 -345 0
843 -306 567 0
-45 -676 537 0
122 -53 624 0
183 -638 -670 0
-678 -997 -150 0
863 -329 599 0
911 -145 -382 0
-752 27 -95 0
147 -323 -525 0
-7 -847 -124 0
-886 -68 896 0
842 185 968 0
527 612 861 0
671 -295 517 0
-410 -214 -804 0
384 -505 43 0
382 -256 -889 0
15 767 -81 0
140 -316 -95 0
526 807 119 0
99 -258 761 0
869 -249 944 0
-377 -761 433 0
895 169 -168 0
161 -154 317 0
332 675 -899 0
-854 990 -51 0
702 -146 821 0
-718 -671 -264 0
539 -188 -103 0
496 -989 -871 0
-614 -448 709 0
832 471 -174 0
851 -420 -187 0
604 -167 -131 0
-482 -532 649 0
-967 214 -857 0
-375 957 570 0
227 -41 -484 0
-627 -838 856 0
212 -159 115 0
-879 578 -619 0
-175 804 -258 0
573 -771 427 0
471 837 -342 0
-873 238 -893 0
225 -564 256 0
955 440 -486 0
-384 -66 -701 0
-771 -316 -967 0
288 634 -461 0
-376 834 -964 0
-148 -697 536 0
777 -635 -38 0
759 497 -754 0
-404 -748 -36 0
-210 -913 489 0
928 -816 940 0
831 961 -310 0
-947 240 450 0
207 556 341 0
-842 -11 911 0
891 499 -82 0
445 -129 -200 0
643 -342 -939 0
7 769 -903 0
735 -112 -889 0
-570 950 15 0
604 589 398 0
-710 -802 -911 0
311 -352 623 0
897 -296 752 0
956 453 -972 0
-422 -434 772 0
590 500 -106 0
-43 870 -601 0
139 580 828 0
52 657 -882 0
613 -830 17 0
788 860 123 0
547 537 -911 0
-828 296 283 0
-999 535 -559 0
-810 -237 -571 0
-52 -578 -393 0
-707 218 531 0
990 -526 39 0
-379 -382 12 0
-435 -349 362 0
-899 -527 763 0
-472 -450 488 0
-282 290 286 0
730 274 -406 0
195 514 -95 0
-264 -890 -13 0
582 908 -748 0
544 500 -315 0
834 670 -180 0
702 684 -545 0
173 406 309 0
484 927 -696 0
649 -204 40 0
-417 277 414 0
406 -64 891 0
6 -608 718 0
-979 -187 -558 0
-15 -917 -704 0
281 21 816 0
-629 327 -621 0
-21 -847 876 0
457 -533 949 0
-393 473 146 0
-398 943 -749 0
554 291 -241 0
13 -309 -603 0
-883 159 419 0
755 130 393 0
-103 40 -661 0
-823 -450 241 0
-477 494 -426 0
-253 137 -948 0
-960 957 734 0
509 542 258 0
399 547 -971 0
-646 173 307 0
95 696 -155 0
-129 -607 -482 0
953 974 -584 0
-924 163 331 0
758 -858 202 0
960 194 -888 0
625 570 9 0
-812 -961 936 0
-636 224 -555 0
85 280 -777 0
-689 -511 -718 0
-303 190 -264 0
628 462 785 0
269 -382 -964 0
-983 168 -466 0
-914 349 -483 0
-106 -511 -399 0
-203 594 379 0
673 819 -946 0
-789 873 488 0
364 -946 -197 0
468 -512 131 0
-188 521 -888 0
-7 597 51 0
-205 244 533 0
-556 697 -322 0
237 -488 -432 0
-628 517 185 0
-148 266 734 0
706 -982 845 0
-333 -866 -214 0
-869 187 -982 0
964 -373 -235 0
275 -243 942 0
7 -500 -475 0
-373 -108 545 0
-201 -217 818 0
835 -659 -950 0
468 372 5 0
277 836 -827 0
187 -834 193 0
778 -864 -224 0
-690 665 -797 0
-340 355 -798 0
387 -118 -584 0
848 989 -993 0
946 -165 287 0
-550 922 -206 0
-709 -503 100 0
711 -722 738 0
178 -639 998 0
904 -446 202 0
-647 -222 -819 0
279 602 954 0
751 438 802 0
678 623 365 0
-814 -758 852 0
-507 -557 789 0
931 -260 745 0
861 -6 615 0
945 261 335 0
-759 -938 394 0
-847 606 -719 0
-190 -169 -487 0
-269 -871 -24 0
298 -66 -102 0
-986 -755 387 0
-637 137 -725 0
239 -48 285 0
232 698 28 0
668 526 -437 0
-746 -774 523 0
-437 -872 -537 0
129 610 -488 0
713 -376 -218 0
-678 952 667 0
38 13 267 0
801 136 969 0
612 -435 -282 0
17 972 36 0
-284 -335 99 0
-804 925 78 0
-202 -136 508 0
152 30 800 0
-778 179 504 0
-863 -550 -582 0
-362 885 594 0
-331 856 -266 0
381 -167 -165 0
-913 -92 32 0
-594 -185 705 0
-425 690 -951 0
56 294 83 0
-177 866 -904 0
-100 338 -406 0
540 -149 -593 0
476 -48 -155 0
893 -729 -717 0
421 837 99 0
615 -368 -854 0
-233 243 676 0
-175 -294 -460 0
913 742 528 0
-352 -910 460 0
-366 157 -79 0
-176 125 -163 0
-860 558 348 0
101 804 386 0
3 498 59 0
-250 -975 -989 0
-762 35 -495 0
171 -290 -572 0
-891 -508 137 0
919 412 439 0
-348 387 -379 0
603 39 -136 0
113 768 -863 0
690 546 394 0
-127 -781 568 0
689 -216 106 0
938 151 -388 0
-157 438 239 0
367 950 174 0
248 -784 -903 0
163 -71 964 0
-645 330 77 0
427 91 442 0
-214 -833 336 0
31 310 -34 0
-766 -480 151 0
388 681 -209 0
-310 -941 96 0
-418 -816 904 0
-381 43 346 0
-784 905 -736 0
-87 -505 662 0
362 -826 -525 0
-858 96 -900 0
-404 -543 175 0
129 -169 119 0
802 415 -450 0
858 -149 -593 0
-701 820 -596 0
-608 967 397 0
-164 967 -68 0
-44 573 115 0
-99 -702 36 0
40 756 306 0
940 938 22 0
568 50 278 0
904 -777 -350 0
59 940 389 0
-675 47 -146 0
-756 -670 -793 0
938 -684 616 0
909 405 603 0
682 972 203 0
102 71 402 0
-984 422 -49 0
629 -936 -659 0
-916 -897 676 0
-804 247 -950 0
676 237 -339 0
535 462 150 0
-479 896 -878 0
-484 337 -787 0
564 -880 442 0
-599 429 182 0
879 292 209 0
242 -197 -238 0
-331 737 -130 0
586 91 989 0
-602 -49 968 0
110 679 -987 0
-747 198 -524 0
-601 577 -732 0
-625 -713 304 0
-58 -979 590 0
695 -777 14 0
-821 120 -348 0
361 -176 408 0
-802 4 -281 0
-171 356 117 0
-46 -410 351 0
917 -519 974 0
85 892 776 0
-532 337 -816 0
742 780 -478 0
-243 -424 -279 0
56 650 -19 0
958 -118 174 0
830 -129 296 0
-933 426 -154 0
238 -10 -966 0
-548 -744 -40 0
-29 -690 -227 0
-100 720 189 0
8 -912 -363 0
-630 281 -351 0
-781 91 -189 0
962 -363 555 0
530 -960 319 0
904 -880 193 0
-973 -926 474 0
-815 904 -892 0
-926 629 -275 0
595 618 -736 0
-54 184 919 0
461 268 135 0
723 -426 505 0
-591 -572 -856 0
421 629 -387 0
99 680 -339 0
252 796 120 0
33 386 489 0
344 -955 -136 0
713 -109 720 0
815 889 373 0
559 -296 686 0
-790 233 -739 0
811 -107 598 0
421 -250 159 0
-40 -504 -765 0
-180 680 -132 0
766 -462 855 0
219 -657 -188 0
848 219 366 0
308 913 388 0
-252 -804 -83 0
-251 -725 -874 0
-694 811 448 0
-389 439 610 0
692 -392 -614 0
164 259 -105 0
-730 987 604 0
-771 497 -817 0
-237 -168 -696 0
446 49 -183 0
-282 791 443 0
-820 168 633 0
798 119 373 0
-556 290 -352 0
-775 -1000 -310 0
-515 -841 -110 0
526 -939 282 0
657 -63 686 0
95 967 -606 0
-469 874 -115 0
26 -79 -843 0
-833 -818 20 0
986 792 470 0
-586 375 -592 0
201 465 -425 0
-245 8 133 0
-161 -964 213 0
131 926 137 0
-155 -688 -676 0
755 257 -205 0
-37 98 -53 0
132 -670 284 0
-580 999 -232 0
497 560 945 0
-137 680 854 0
698 -213 -97 0
-346 623 700 0
-913 -834 347 0
577 -299 -900 0
980 480 -963 0
-997 460 -253 0
-796 -534 570 0
-623 278 -496 0
429 -262 330 0
231 -693 531 0
219 -552 450 0
-268 -894 -210 0
843 496 -348 0
355 761 93 0
-81 240 306 0
991 666 96 0
413 423 -940 0
67 -337 -534 0
766 -646 -559 0
-904 894 -148 0
-812 -27 380 0
-562 -609 890 0
755 28 887 0
371 819 -937 0
767 559 922 0
-90 -813 371 0
-747 -230 472 0
-324 -115 -343 0
50 918 761 0
709 -389 118 0
733 178 664 0
-869 -898 397 0
102 -803 -138 0
-728 602 888 0
914 -576 -709 0
-726 -571 458 0
421 618 -684 0
-939 374 59 0
-266 759 -547 0
765 146 -535 0
540 -843 -604 0
567 -936 -842 0
-670 -940 846 0
-159 161 758 0
102 -732 841 0
332 -189 -677 0
426 -733 82 0
-889 109 693 0
22 602 358 0
-30 -289 -155 0
-505 177 -617 0
-106 589 -834 0
376 -632 -949 0
-553 -816 684 0
-125 532 45 0
510 -474 -954 0
-213 -994 -873 0
529 -765 -606 0
-930 262 -869 0
698 -803 -409 0
-558 -316 -221 0
-313 -511 -908 0
783 -435 -338 0
472 -128 961 0
-44 608 958 0
-496 261 986 0
808 761 -912 0
317 -589 298 0
815 811 43 0
-286 -725 399 0
-187 -745 -712 0
383 -477 40 0
736 897 178 0
613 -130 -912 0
948 663 -466 0
-597 -398 18 0
-175 -680 100 0
321 -152 58 0
492 -18 48 0
771 177 -793 0
203 -282 793 0
-546 -170 496 0
95 597 -380 0
-455 -910 586 0
-291 -389 728 0
585 -249 -155 0
177 -484 738 0
334 -704 562 0
-708 949 -139 0
-418 -139 275 0
43 -253 -517 0
550 -862 376 0
460 -709 16 0
801 -958 349 0
-758 291 800 0
177 -135 -759 0
374 -300 -204 0
-468 866 607 0
-321 -189 997 0
-399 -950 554 0
280 123 480 0
-390 326 -208 0
375 -92 -310 0
-70 900 977 0
667 380 -60 0
836 116 950 0
-194 -795 -251 0
-451 -712 874 0
755 -693 52 0
-847 -330 -189 0
-659 677 529 0
635 -299 -589 0
22 779 -466 0
-58 -532 -439 0
643 951 -889 0
-950 -259 681 0
141 679 521 0
-336 542 -487 0
411 -721 -688 0
624 -671 -591 0
502 -78 -928 0
-39 -895 -450 0
-730 254 -894 0
61 -467 848 0
-191 -177 928 0
-567 38 895 0
-5 -401 -321 0
-507 -136 807 0
-122 518 813 0
-20 161 290 0
694 91 319 0
7 29 578 0
647 -77 -904 0
-548 -256 396 0
-660 73 293 0
187 692 -179 0
590 -818 -120 0
-266 250 -424 0
-472 797 -408 0
-132 160 -679 0
-868 -91 -325 0
438 824 525 0
573 -748 12 0
909 455 273 0
-749 -268 -936 0
-380 80 447 0
-560 -783 244 0
396 292 456 0
909 895 -896 0
-135 252 90 0
