p cnf 1000 2200
-854 953 274 0
655 275 282 0
856 -664 -470 0
-7 872 245 0
361 -690 -581 0
219 -582 -156 0
715 -144 248 0
-261 -713 549 0
-736 -887 -163 0
907 483 -401 0
717 454 432 0
316 248 17 0
494 748 561 0
271 -678 -663 0
-404 -756 848 0
398 488 -312 0
894 -917 -293 0
-145 -436 -507 0
719 883 89 0
273 364 716 0
-266 870 264 0
-234 685 668 0
513 -17 856 0
-977 836 -459 0
-69 570 611 0
255 577 -934 0
769 658 -391 0
880 -650 908 0
406 640 -198 0
381 604 -584 0
-883 669 594 0
-448 -652 858 0
-39 -476 -117 0
758 -973 232 0
528 -870 -156 0
304 707 -1 0
421 -295 473 0
475 -619 -295 0
469 -58 -418 0
-33 933 76 0
-856 -354 463 0
-680 182 649 0
-446 -71 -69 0
-150 379 -958 0
470 372 452 0
283 630 918 0
920 -178 -785 0
-597 719 -36 0
53 -136 -617 0
-972 17 210 0
2 848 695 0
993 -555 -367 0
339 95 -315 0
-385 902 661 0
45 -38 -390 0
938 407 670 0
146 427 -66 0
166 564 -957 0
967 301 -54 0
-618 -267 -299 0
217 -181 396 0
529 -131 760 0
422 -800 74 0
192 638 215 0
-274 335 -882 0
467 -339 -808 0
895 483 905 0
-280 -502 390 0
549 -910 69 0
-33 453 179 0
875 -933 615 0
-89 771 -765 0
-843 -300 921 0
-221 -911 92 0
-710 -24 399 0
447 579 -721 0
-677 884 708 0
-924 -829 4 0
365 668 933 0
769 690 -81 0
-618 -947 -231 0
-347 879 346 0
495 22 937 0
-663 728 5 0
-506 -29 -347 0
-148 -922 197 0
624 -830 882 0
-13 1 809 0
-889 282 -560 0
-619 -188 -122 0
-86 216 -632 0
-777 -324 142 0
-613 -299 598 0
924 -584 344 0
-676 -680 -344 0
497 132 -824 0
317 944 -443 0
69 798 -559 0
292 -816 235 0
3 604 -815 0
-345 -958 -628 0
-684 628 703 0
766 776 5 0
567 -929 -159 0
-409 -216 -191 0
-952 502 -512 0
842 -157 -14 0
438 905 -192 0
-364 383 -180 0
-514 -58 -932 0
637 -677 70 0
846 841 513 0
657 -340 -529 0
11 -166 -27 0
919 811 -319 0
-440 498 539 0
-899 -582 347 0
515 789 885 0
-64 776 -968 0
-622 -971 288 0
219 -501 434 0
397 -367 953 0
-696 -699 -542 0
-109 -110 -473 0
-470 415 278 0
-704 449 67 0
-849 72 -518 0
572 261 706 0
-864 -295 -75 0
-450 120 37 0
-146 -616 -756 0
339 879 665 0
-767 -65 937 0
848 593 167 0
-761 168 -938 0
805 -173 -367 0
147 958 215 0
274 146 574 0
-462 -920 10 0
-470 424 859 0
-690 357 -408 0
-370 975 34 0
-366 -717 109 0
-783 934 -209 0
-269 -772 253 0
-62 721 -785 0
-393 893 979 0
743 -298 -674 0
198 511 -868 0
990 -159 896 0
-714 426 921 0
-452 292 -411 0
-121 879 706 0
-246 676 -289 0
317 78 -567 0
-20 109 -355 0
-301 -281 -251 0
407 -649 826 0
45 -969 291 0
-216 -429 806 0
414 -274 398 0
642 -575 150 0
-290 -339 -634 0
-120 -275 -343 0
612 -292 -732 0
-140 -998 -188 0
313 828 -869 0
-745 -834 681 0
803 -483 79 0
-914 -120 213 0
-875 589 -212 0
908 -597 23 0
546 -993 -106 0
844 -945 280 0
-526 801 -621 0
183 481 -583 0
319 -957 63 0
-122 -136 -731 0
970 -85 -100 0
-612 -504 125 0
-795 -404 -699 0
347 839 405 0
564 -118 -126 0
816 530 -327 0
-440 -212 592 0
893 -630 300 0
-96 514 166 0
-315 -127 -597 0
-460 285 -550 0
808 652 262 0
553 -211 -922 0
-489 -555 -685 0
247 -28 -311 0
308 -411 -238 0
-490 -932 -602 0
161 -446 964 0
-171 248 -874 0
868 837 745 0
970 156 81 0
757 -799 -970 0
388 -447 387 0
204 -659 -66 0
180 587 155 0
75 371 -869 0
-913 509 980 0
728 -702 -177 0
380 -220 -457 0
73 -934 540 0
385 -845 770 0
-133 -938 261 0
-418 315 -103 0
165 -941 -82 0
-27 -49 55 0
-110 665 -541 0
-116 505 537 0
103 467 -768 0
-810 958 -785 0
853 -215 -19 0
-548 912 647 0
-289 -226 135 0
-820 -399 19 0
-909 -297 -573 0
-858 207 -377 0
575 162 -502 0
-289 119 100 0
935 105 -223 0
-448 -78 -279 0
-835 5 497 0
-187 193 436 0
-881 162 189 0
353 -267 -19 0
-98 955 974 0
651 149 -146 0
-99 56 212 0
909 610 -357 0
-97 -933 -613 0
-703 -829 377 0
578 694 829 0
-967 -169 774 0
-638 16 458 0
-410 601 -915 0
-185 74 999 0
-870 878 -539 0
-560 880 -496 0
-220 442 737 0
78 425 -541 0
-944 -639 -48 0
-949 718 -920 0
-36 768 558 0
-235 -638 172 0
107 -642 -606 0
967 226 -190 0
990 979 -77 0
-402 435 144 0
722 531 759 0
-702 386 167 0
-216 407 -156 0
-350 594 -860 0
480 151 42 0
-627 -513 -429 0
-445 -966 331 0
-132 616 881 0
610 -642 489 0
701 -152 -653 0
-603 193 4 0
-654 -66 -531 0
-286 592 180 0
367 58 371 0
852 278 41 0
-763 -79 -902 0
211 256 905 0
-965 797 -608 0
-755 -539 127 0
925 -334 -974 0
-419 943 280 0
683 -802 181 0
468 -304 303 0
110 -310 90 0
-794 -697 888 0
881 856 569 0
496 783 -49 0
-911 551 -995 0
391 916 378 0
580 661 104 0
247 256 538 0
-789 -147 -511 0
-327 921 -346 0
-241 -645 -874 0
67 -905 -852 0
690 810 203 0
324 977 874 0
852 -752 773 0
715 763 -83 0
610 458 -13 0
-509 -775 960 0
-381 -387 458 0
273 -642 -373 0
-713 -531 307 0
-400 -852 -977 0
-188 -676 501 0
-98 58 493 0
-549 -695 -901 0
662 311 -552 0
-151 -904 -519 0
21 -837 -962 0
734 -150 -137 0
-849 -190 -78 0
-199 579 -148 0
352 563 549 0
216 -420 -403 0
-494 -538 132 0
-178 324 -812 0
469 -726 600 0
15 -448 568 0
648 212 -920 0
325 60 -177 0
-169 174 -839 0
33 -459 563 0
-499 178 -883 0
-647 -127 -256 0
-47 639 -310 0
-33 480 834 0
609 942 -771 0
-632 968 990 0
-983 -116 86 0
-478 962 -604 0
-512 -120 -955 0
-930 373 -567 0
449 -632 724 0
-762 -665 -89 0
724 704 -426 0
675 -836 531 0
-841 151 -332 0
-405 -491 849 0
-819 746 -708 0
-46 353 -538 0
766 256 892 0
925 -619 487 0
-191 -978 286 0
-777 -93 917 0
-338 734 -514 0
-395 686 -215 0
-888 -65 991 0
310 733 370 0
280 126 -203 0
371 -380 577 0
801 -936 -468 0
29 -922 -550 0
358 934 738 0
-214 975 609 0
499 904 -259 0
-918 79 537 0
-527 -788 -195 0
-16 -124 -698 0
-477 372 634 0
717 258 534 0
-897 960 302 0
649 -587 927 0
69 807 134 0
-899 -645 767 0
-55 -688 233 0
501 -322 -898 0
349 -835 351 0
311 23 -605 0
-765 33 557 0
76 137 -808 0
-833 -43 -912 0
232 -366 -237 0
522 635 964 0
-607 -139 -29 0
714 -588 -211 0
-521 -258 877 0
97 -733 441 0
-614 291 -920 0
249 -808 -51 0
-924 -444 -572 0
598 537 -130 0
538 -283 -28 0
-336 875 308 0
43 -560 -422 0
861 209 397 0
937 753 392 0
104 318 442 0
-754 764 152 0
-672 -724 706 0
-277 843 720 0
523 -530 513 0
-623 731 -886 0
-788 -388 -1 0
337 755 -14 0
949 -391 698 0
551 -988 722 0
-774 505 365 0
-553 202 454 0
-66 -477 -639 0
-814 857 -500 0
826 -373 48 0
782 176 -400 0
984 302 -806 0
-865 716 -91 0
-596 480 -941 0
488 -907 -18 0
-587 890 456 0
62 371 -142 0
-983 692 696 0
-100 919 786 0
919 641 76 0
663 167 -305 0
-85 -304 533 0
-58 832 698 0
985 -292 -226 0
469 203 430 0
-139 -723 652 0
677 821 614 0
998 558 460 0
-177 772 -119 0
-245 -226 -288 0
-398 -696 983 0
-264 -279 631 0
926 -471 345 0
-654 685 167 0
477 -846 -820 0
875 -263 -835 0
245 524 590 0
679 701 890 0
-15 97 154 0
-245 761 -820 0
517 708 906 0
-92 797 665 0
563 898 -469 0
768 689 433 0
-596 -271 -435 0
897 606 -689 0
828 -961 993 0
-439 -742 181 0
908 -315 -606 0
466 -835 990 0
484 858 23 0
-348 -44 318 0
332 119 886 0
27 961 -421 0
932 -27 224 0
184 -591 -384 0
617 846 -498 0
-918 868 527 0
334 -412 179 0
-109 -536 -445 0
82 -124 497 0
-237 -630 99 0
-949 250 292 0
29 -967 -198 0
363 34 975 0
88 137 191 0
-585 -879 -988 0
863 475 -757 0
145 -505 -61 0
-776 169 889 0
213 -503 770 0
132 -417 -331 0
432 152 438 0
-257 258 323 0
-235 -754 537 0
-439 -619 -805 0
-446 320 58 0
-916 584 522 0
-553 283 -680 0
961 133 755 0
-153 585 85 0
-88 -307 -460 0
539 218 482 0
-436 509 -696 0
-21 17 -594 0
173 -836 -945 0
273 -845 -375 0
-212 -870 427 0
549 858 89 0
138 573 624 0
-31 278 382 0
-743 -13 657 0
229 759 10 0
390 602 -898 0
883 933 -621 0
464 589 -338 0
-915 -602 365 0
509 -125 -609 0
-269 -556 -244 0
-209 -764 -246 0
-344 675 -563 0
96 917 -260 0
219 -896 -454 0
-813 921 993 0
-887 657 -893 0
256 52 -422 0
-708 -441 377 0
-676 -66 759 0
498 813 786 0
-294 -318 821 0
74 743 -994 0
972 311 809 0
734 -183 -130 0
-935 521 -440 0
744 -767 272 0
-21 -144 365 0
133 674 -172 0
288 295 16 0
-781 -373 177 0
-198 -563 -311 0
-28 253 665 0
-200 17 683 0
-679 -916 952 0
272 -70 451 0
-242 -731 76 0
690 -283 -339 0
-40 636 368 0
-477 132 -178 0
258 468 805 0
-553 -409 -194 0
-417 -29 834 0
-314 -663 -183 0
-73 -624 468 0
-400 -656 179 0
399 331 -887 0
517 -261 963 0
-357 337 -906 0
853 -178 440 0
-343 -434 100 0
679 -786 818 0
-922 859 516 0
858 59 546 0
7 -959 -138 0
-238 929 -42 0
-238 336 447 0
-213 618 -943 0
441 -445 62 0
451 -240 860 0
-577 825 687 0
-173 538 374 0
-506 249 617 0
-34 122 882 0
519 405 -914 0
-667 227 361 0
868 -174 -169 0
435 -845 626 0
580 845 -933 0
141 958 -897 0
51 802 851 0
40 311 -559 0
654 -978 -494 0
-931 -974 274 0
401 447 -608 0
742 135 -636 0
862 -13 753 0
-987 157 -644 0
-986 -628 -973 0
-533 874 -660 0
-856 -983 534 0
-576 137 296 0
-672 872 -702 0
290 -469 184 0
-993 -339 -347 0
-891 -535 -591 0
-824 228 651 0
189 149 -203 0
406 -234 -930 0
-625 -1 -765 0
-628 -443 -591 0
381 -706 166 0
409 -197 -21 0
453 -517 -234 0
-432 -465 -355 0
-871 -538 -979 0
275 -129 -683 0
97 -639 894 0
-96 -294 -83 0
12 832 529 0
-616 -486 -155 0
226 891 -11 0
765 -155 -366 0
-512 296 990 0
611 -158 698 0
-243 -618 -331 0
729 972 -939 0
-781 440 714 0
-926 -481 -721 0
-141 116 -801 0
809 140 172 0
371 249 520 0
-211 378 746 0
754 -852 -544 0
866 -756 -492 0
31 -47 328 0
648 -971 902 0
860 391 254 0
41 7 -401 0
169 -647 -784 0
294 868 -989 0
-964 -482 514 0
-140 321 -903 0
281 474 -92 0
2 858 -395 0
-345 -398 -466 0
-256 -57 -333 0
142 -592 484 0
-526 901 -903 0
109 -564 211 0
703 -765 -602 0
-570 -786 -321 0
-114 822 676 0
482 524 712 0
163 4 615 0
-922 318 -237 0
-412 94 817 0
980 164 643 0
33 -723 -30 0
-80 416 56 0
440 930 527 0
-477 518 159 0
-2 711 -578 0
-997 831 977 0
629 -816 -525 0
305 -541 -781 0
378 -358 652 0
-664 108 -388 0
-406 649 -94 0
-872 -885 976 0
442 276 141 0
-620 809 -532 0
904 -157 -975 0
446 -134 -993 0
-184 427 55 0
725 400 317 0
-695 -640 678 0
748 -495 -173 0
973 999 -545 0
-560 -319 847 0
-610 -961 382 0
-119 690 -414 0
-757 -468 975 0
138 328 441 0
688 -857 -171 0
-853 -905 705 0
769 970 865 0
293 746 -835 0
-320 -118 985 0
-327 277 752 0
-836 -856 -949 0
28 530 -368 0
474 515 883 0
-505 675 -360 0
-731 555 -668 0
-828 -179 -381 0
-348 -338 -30 0
-515 -294 416 0
957 591 -704 0
-404 -198 -276 0
128 -555 381 0
616 -650 -632 0
-285 408 -701 0
-447 929 96 0
-844 -257 935 0
-557 915 185 0
804 788 -61 0
906 957 -665 0
773 -292 384 0
-446 122 146 0
-239 -459 291 0
-71 -773 257 0
381 78 -801 0
-517 323 321 0
124 3 -455 0
-533 -725 -84 0
-938 -259 416 0
-125 -618 411 0
-283 205 25 0
691 -22 -427 0
-43 207 942 0
542 942 358 0
-199 181 -971 0
-723 631 13 0
-981 624 -835 0
626 814 998 0
-966 -309 183 0
589 822 -274 0
488 46 953 0
507 -255 370 0
795 -600 -20 0
639 -310 828 0
-640 774 -480 0
-104 -895 586 0
-385 649 645 0
962 -2 -824 0
-221 840 389 0
-938 59 759 0
283 573 -731 0
-680 674 264 0
621 635 973 0
-267 -678 932 0
-69 -892 -770 0
42 -538 -878 0
325 -402 808 0
592 -714 -98 0
259 332 683 0
-68 -354 151 0
-9 -819 -677 0
-217 271 204 0
-725 2 204 0
37 -296 303 0
321 -330 -535 0
-215 460 150 0
762 992 960 0
-630 446 889 0
-838 899 -719 0
-798 -353 -201 0
914 35 259 0
-758 -995 461 0
273 643 -373 0
813 637 -933 0
-492 -257 -229 0
-199 -954 -470 0
-245 123 595 0
-119 698 611 0
335 -769 -450 0
945 -131 -783 0
-488 -833 21 0
735 -547 -658 0
622 -706 -591 0
-96 496 -357 0
-299 623 627 0
-994 558 471 0
-284 -403 -590 0
-289 205 -178 0
812 -618 150 0
-109 -159 590 0
46 -277 575 0
211 562 493 0
-441 76 -837 0
231 -350 -284 0
454 -286 760 0
947 -996 -313 0
87 353 234 0
-732 -249 -38 0
596 718 121 0
399 -798 135 0
-323 275 -927 0
978 179 123 0
166 24 -543 0
-672 -279 -244 0
-123 499 127 0
84 454 842 0
-812 881 -268 0
757 329 -748 0
274 -588 323 0
-422 799 668 0
469 252 26 0
-39 191 925 0
-284 -385 103 0
712 -71 -170 0
-900 -172 -496 0
-604 -355 -758 0
-235 760 -890 0
-531 196 222 0
-414 543 -843 0
-265 763 159 0
-959 575 -820 0
40 -841 355 0
-323 51 -328 0
-632 313 -906 0
-449 917 -664 0
-159 -455 45 0
538 -893 759 0
128 -915 -519 0
-439 -247 -187 0
-204 361 -753 0
-467 622 123 0
-568 -43 879 0
-949 -664 -549 0
-859 691 -987 0
-364 -484 307 0
-268 741 233 0
851 -184 -688 0
403 -205 -684 0
-653 159 -351 0
-385 153 297 0
-845 714 953 0
447 -661 -459 0
404 406 212 0
-565 -100 586 0
732 -640 -133 0
-105 664 780 0
-831 -448 846 0
470 -519 -777 0
-416 -683 -862 0
-107 -605 -513 0
93 338 854 0
621 713 997 0
201 -371 -912 0
-838 -185 -328 0
953 25 -799 0
-55 -511 -916 0
-659 -728 -543 0
-561 -566 -441 0
-454 -786 242 0
910 -715 -964 0
-511 -740 659 0
-917 -208 983 0
12 -937 371 0
401 712 -834 0
-798 -344 -563 0
-152 851 625 0
690 -682 908 0
-167 805 -308 0
-955 -134 -64 0
-38 726 -630 0
-874 646 327 0
-594 -542 -910 0
-338 883 -320 0
105 780 -231 0
-221 -176 654 0
261 -93 -162 0
519 594 480 0
727 -719 678 0
260 63 91 0
740 -544 211 0
711 939 -530 0
-905 334 499 0
-188 -910 -861 0
973 -749 -758 0
878 -387 -673 0
-170 667 873 0
465 591 -860 0
-131 -108 -31 0
-905 -224 -599 0
500 173 956 0
-785 -829 -609 0
869 481 -804 0
218 142 -871 0
484 -87 902 0
361 993 204 0
-12 -604 -832 0
-197 178 34 0
170 370 -508 0
662 -827 -238 0
781 -582 -117 0
554 705 874 0
-592 392 -4 0
-939 -176 -806 0
140 -759 -285 0
912 811 -155 0
706 240 -79 0
61 762 403 0
-315 549 -317 0
-148 -383 221 0
-635 461 848 0
-130 127 511 0
71 -324 762 0
-527 802 105 0
-897 -787 521 0
-466 -33 -324 0
406 42 -319 0
441 523 -644 0
-118 551 -213 0
650 -134 -256 0
919 -56 -704 0
-744 -300 -311 0
407 174 -601 0
916 386 -351 0
-846 828 22 0
776 338 804 0
-617 -154 789 0
545 -689 787 0
629 -289 200 0
590 -82 -732 0
103 455 926 0
-137 -449 455 0
623 293 -188 0
-918 -513 -855 0
711 400 -422 0
174 952 417 0
-881 310 714 0
186 273 979 0
-338 -370 384 0
-751 427 200 0
408 -764 860 0
-303 -716 105 0
-606 381 758 0
-10 -584 16 0
876 519 -228 0
-236 604 -406 0
-530 313 -381 0
286 266 576 0
-927 623 702 0
-346 360 -42 0
913 -777 239 0
-918 578 106 0
281 -927 -623 0
979 -685 -205 0
134 718 615 0
-436 -131 -713 0
-796 -889 130 0
-800 453 -846 0
469 22 -379 0
496 959 114 0
602 586 728 0
-357 929 604 0
-128 -637 19 0
-330 -88 -363 0
258 -572 609 0
-959 728 892 0
914 178 -845 0
-972 -662 383 0
109 213 -281 0
-649 279 28 0
583 -237 -72 0
857 91 -50 0
876 -362 663 0
801 -303 -759 0
589 100 787 0
-527 755 51 0
-542 631 -684 0
891 -803 -162 0
-76 -502 -639 0
420 -757 791 0
96 944 700 0
-942 -166 -41 0
887 -78 -495 0
-535 171 646 0
-975 -374 904 0
-728 595 -18 0
301 795 -612 0
-205 891 59 0
960 -99 371 0
-979 31 22 0
632 914 -151 0
182 775 159 0
-409 -248 -942 0
-231 73 -349 0
975 -661 -721 0
347 -224 -804 0
795 55 482 0
621 161 27 0
820 -509 81 0
729 375 3 0
874 -66 214 0
184 -733 -84 0
-277 -402 -828 0
728 828 -192 0
-693 -718 -835 0
-121 337 741 0
614 -862 855 0
-459 -859 877 0
-764 223 -155 0
316 -723 766 0
20 168 609 0
-67 -348 325 0
-724 688 -226 0
-935 343 -70 0
-907 -87 255 0
712 18 758 0
-575 906 300 0
286 980 971 0
-47 40 805 0
572 -967 -689 0
-927 539 -337 0
596 -820 603 0
150 -60 -708 0
563 -170 131 0
874 519 -676 0
172 773 -278 0
-247 887 59 0
860 669 797 0
-429 -423 9 0
-653 -454 -471 0
414 21 -107 0
263 -785 722 0
-609 -387 991 0
-608 -80 -782 0
-695 -603 413 0
390 -795 544 0
-41 366 -120 0
578 -774 24 0
780 371 -879 0
-657 178 311 0
748 -169 -450 0
-296 -397 33 0
716 -545 207 0
-839 -673 -691 0
-663 956 -55 0
655 -612 -577 0
-939 493 -438 0
-708 175 235 0
655 187 -335 0
940 -574 763 0
-821 -292 575 0
675 68 369 0
532 -890 18 0
-742 592 -896 0
846 424 399 0
-997 769 714 0
710 130 -989 0
992 -763 -970 0
-382 103 115 0
-282 956 -879 0
200 896 -471 0
-999 -245 -316 0
-508 -802 726 0
539 244 578 0
404 -290 836 0
-387 -863 100 0
12 979 -93 0
253 -389 879 0
-521 -730 833 0
967 -165 162 0
49 9 775 0
-897 -130 745 0
-361 499 989 0
999 -785 522 0
-37 226 -689 0
-607 -658 424 0
753 -919 -454 0
240 337 -57 0
836 -305 377 0
677 -10 -708 0
215 -890 -739 0
450 -495 -411 0
-440 286 -88 0
-142 747 -341 0
-184 237 -879 0
613 -191 563 0
-606 435 -802 0
690 -636 430 0
-685 -636 -83 0
498 -435 690 0
561 247 -104 0
-168 294 62 0
-478 -915 195 0
196 -101 809 0
550 623 -205 0
666 545 896 0
734 -516 165 0
508 385 922 0
-699 -231 948 0
183 634 683 0
-37 877 575 0
214 -218 762 0
-755 153 -651 0
958 -799 -754 0
-34 196 -984 0
694 977 471 0
-969 958 712 0
336 -310 968 0
328 828 -284 0
98 -48 427 0
953 530 -141 0
-691 564 562 0
-46 -360 -886 0
-565 -440 -792 0
629 -606 -42 0
522 -829 913 0
903 398 145 0
196 11 -29 0
379 447 -802 0
-507 913 841 0
-583 806 -584 0
-849 651 88 0
-518 137 -369 0
-832 -931 -227 0
55 868 -711 0
663 -583 -620 0
936 170 593 0
-345 509 552 0
309 335 -704 0
-941 566 141 0
-48 -896 643 0
-752 642 742 0
-856 376 814 0
85 392 106 0
82 -106 706 0
-853 -658 -308 0
867 -243 -669 0
-589 625 -421 0
-999 551 222 0
533 403 946 0
578 16 280 0
356 -565 987 0
-369 514 704 0
-725 -373 -132 0
-948 171 -401 0
-992 -180 832 0
-813 447 232 0
510 563 -392 0
-586 -682 -545 0
726 -263 -300 0
-988 297 -480 0
479 243 -866 0
749 -451 -296 0
210 468 -779 0
-172 -234 68 0
15 443 -836 0
550 -97 -337 0
183 -478 -469 0
331 -406 -907 0
131 -891 613 0
-559 987 -130 0
147 329 -726 0
-905 -57 879 0
933 -254 801 0
-722 -178 -672 0
-982 610 -577 0
-681 -324 -792 0
-745 149 -360 0
-349 -775 51 0
135 511 67 0
-876 63 549 0
-737 -317 222 0
578 835 879 0
368 -644 960 0
899 -361 824 0
-129 918 -334 0
-264 804 -33 0
-857 -358 -492 0
695 -381 932 0
416 -669 -675 0
381 -785 -653 0
-715 651 943 0
-969 -676 -288 0
36 262 137 0
961 -725 -198 0
692 -858 731 0
-584 34 -72 0
337 -641 844 0
905 884 -62 0
-693 -12 -549 0
112 525 436 0
-235 -983 -879 0
-442 -75 -926 0
-87 869 -988 0
-710 -162 368 0
-140 -91 733 0
627 -33 -831 0
-211 734 -263 0
807 -877 703 0
366 -343 726 0
-359 357 479 0
656 383 677 0
-478 -770 -512 0
635 466 935 0
787 136 852 0
-692 454 -590 0
-803 -85 78 0
-934 198 -56 0
-796 -332 36 0
898 -23 131 0
910 -257 799 0
-968 -505 -622 0
-157 -81 851 0
64 -178 -97 0
-732 509 84 0
120 499 229 0
-396 -619 570 0
-508 463 -722 0
430 -834 643 0
68 -466 -955 0
292 311 -591 0
93 -571 205 0
533 -381 -787 0
395 -414 544 0
-235 110 -799 0
-841 218 -150 0
501 -956 -333 0
-296 554 -912 0
502 -19 -697 0
-625 -460 -985 0
-843 -498 795 0
-907 -595 263 0
-674 -851 -366 0
382 796 274 0
155 -953 196 0
902 -508 325 0
-357 -363 -507 0
94 -470 367 0
-611 654 693 0
-30 698 57 0
947 390 434 0
-463 -416 672 0
-441 330 217 0
202 333 939 0
572 -390 -881 0
897 146 -938 0
-951 181 854 0
-861 778 -819 0
-574 1 71 0
252 -527 -498 0
925 -417 -802 0
-261 873 -280 0
941 396 856 0
-567 -276 -946 0
-649 -427 -464 0
-888 -304 -44 0
-634 -584 937 0
680 604 -472 0
268 711 -614 0
923 -56 -669 0
-226 824 -364 0
158 -210 766 0
70 -71 -856 0
862 389 380 0
540 -367 -430 0
-505 479 -826 0
758 -666 -372 0
-460 -150 -179 0
-299 -471 -963 0
-52 -574 364 0
961 846 954 0
422 593 -110 0
-356 523 -184 0
-534 -568 -133 0
-809 909 -238 0
245 -593 -588 0
-329 -800 371 0
548 256 -874 0
-86 696 996 0
-770 -88 -586 0
-991 399 706 0
668 -647 258 0
-449 912 708 0
537 -365 -21 0
-506 -173 432 0
368 263 153 0
171 156 -596 0
-812 836 192 0
302 -937 676 0
-808 -503 378 0
-371 -125 -107 0
562 -309 276 0
-922 -301 181 0
94 -104 -352 0
933 -907 963 0
-11 -476 -370 0
-28 -317 -731 0
-170 924 717 0
-717 537 670 0
182 35 493 0
725 -509 -246 0
-474 923 -578 0
-951 355 516 0
-86 790 -419 0
-21 -23 -820 0
587 -415 -504 0
-946 740 758 0
802 770 -825 0
967 -756 -713 0
509 20 607 0
199 776 -795 0
269 -507 -403 0
-810 565 812 0
901 56 22 0
25 614 -76 0
16 -300 644 0
895 -928 -221 0
-161 -604 230 0
-782 -141 -895 0
784 196 617 0
515 -841 717 0
-524 -679 -122 0
-964 671 311 0
-183 -642 -403 0
928 -508 -198 0
-581 -960 486 0
976 229 -741 0
18 -419 -358 0
713 -447 270 0
-599 -203 -930 0
764 433 390 0
-135 -342 146 0
672 928 858 0
-669 296 -173 0
-131 127 711 0
-233 -470 -412 0
440 623 373 0
-992 -370 792 0
-769 7 19 0
208 -561 768 0
-446 837 163 0
-453 -70 -306 0
646 35 755 0
149 -635 -929 0
-843 -343 -686 0
113 -427 -349 0
164 956 -829 0
-779 -663 8 0
-817 721 -152 0
-514 475 701 0
213 576 -540 0
-244 872 560 0
531 8 -809 0
203 680 -163 0
985 954 581 0
772 -244 -283 0
-569 314 -978 0
-764 -391 404 0
-568 -488 -638 0
-922 348 820 0
-305 -934 862 0
319 -822 -267 0
-308 295 736 0
861 404 112 0
-659 -36 -276 0
-548 851 -224 0
-42 760 919 0
250 948 -458 0
691 -111 140 0
126 -525 -81 0
-780 435 833 0
-507 -393 560 0
539 -19 513 0
-750 663 -414 0
268 -619 202 0
277 856 -190 0
367 -653 -591 0
585 763 523 0
965 159 -923 0
459 -243 62 0
-728 615 -573 0
-179 676 475 0
-626 745 -306 0
-628 753 -15 0
-921 221 -424 0
997 46 714 0
204 -164 -450 0
-904 537 -628 0
169 -515 281 0
697 76 227 0
378 -300 -517 0
-950 564 -364 0
-45 -384 -159 0
-541 -797 -704 0
565 -820 722 0
695 934 -681 0
508 -514 -464 0
952 -980 -336 0
-702 434 -295 0
149 411 -581 0
207 -852 667 0
-827 -809 596 0
-405 545 789 0
-841 -529 -382 0
82 319 45 0
-91 -913 -654 0
478 802 865 0
276 -565 -625 0
18 983 975 0
-237 -766 -119 0
-610 -549 -497 0
-317 723 980 0
181 517 522 0
522 454 223 0
-154 -683 526 0
-372 864 -637 0
-307 -622 938 0
-539 -66 -257 0
726 40 -739 0
970 916 -518 0
888 100 -82 0
762 569 236 0
-397 533 148 0
45 -524 -793 0
-735 -451 4 0
-191 678 -237 0
-417 -686 -475 0
167 997 157 0
-15 -426 -851 0
-692 180 -263 0
504 -927 5 0
972 974 -710 0
213 565 597 0
938 322 -473 0
509 822 -241 0
-295 659 62 0
475 -404 -298 0
-220 -520 -37 0
438 -876 264 0
466 168 692 0
-361 704 686 0
-446 -839 81 0
-992 -171 -126 0
-71 -782 -325 0
-498 -436 -301 0
-690 930 -425 0
-989 818 -455 0
944 347 656 0
-779 575 701 0
-256 -160 -2 0
260 -551 136 0
-439 997 -15 0
192 33 592 0
-457 949 919 0
-793 -179 794 0
117 -67 380 0
-490 -457 350 0
643 -14 993 0
-508 114 551 0
291 -834 326 0
535 -237 577 0
-631 296 432 0
-31 92 779 0
-866 176 884 0
147 -48 99 0
338 -679 636 0
-869 705 -474 0
-359 447 -753 0
-314 -229 -430 0
635 581 -295 0
-381 -636 951 0
-867 -203 827 0
-19 -583 -548 0
-842 845 -102 0
880 633 803 0
-493 123 432 0
-363 392 -250 0
854 672 789 0
414 836 -933 0
-903 -677 -252 0
-866 -614 686 0
576 208 946 0
231 343 671 0
-729 965 686 0
262 -994 -106 0
-515 209 928 0
-634 -149 -498 0
-648 128 504 0
-135 313 296 0
-896 -23 -707 0
735 644 -368 0
-213 -18 881 0
-523 223 414 0
-4 -230 -687 0
393 165 -986 0
702 -927 135 0
-817 -88 -445 0
-529 -167 194 0
-801 678 -341 0
339 59 264 0
550 546 -306 0
-400 139 -266 0
-228 -987 122 0
-671 -94 778 0
-416 -762 -994 0
201 180 945 0
225 -37 -810 0
381 -798 50 0
144 181 -383 0
-961 114 -502 0
-305 511 -749 0
-433 -368 424 0
-913 -840 -479 0
-950 85 -831 0
793 365 -453 0
906 -480 -908 0
-593 -592 -356 0
-385 372 44 0
173 780 274 0
-54 -49 -859 0
-814 736 -258 0
-957 205 -687 0
-388 -72 -832 0
998 -54 561 0
406 628 558 0
424 330 813 0
561 -234 -479 0
623 152 733 0
-261 363 -411 0
-884 502 787 0
-863 259 -197 0
568 -437 371 0
215 201 -947 0
-23 -731 -900 0
-577 398 810 0
-686 -989 179 0
45 -636 82 0
-444 -687 588 0
-535 -103 -920 0
-421 -659 -549 0
421 406 956 0
-842 259 -820 0
-718 90 -720 0
-644 -704 -192 0
116 831 50 0
-983 -66 -297 0
-18 787 679 0
-410 -846 -709 0
102 -962 -266 0
473 139 -781 0
534 -965 -698 0
373 -689 802 0
-482 -896 -444 0
-224 203 -711 0
-984 -371 607 0
-830 -260 92 0
711 405 644 0
55 -629 559 0
707 737 611 0
125 -985 148 0
919 -944 556 0
-520 328 103 0
581 -527 -802 0
126 -445 -414 0
762 -650 -31 0
680 653 115 0
843 -957 300 0
113 -449 -703 0
140 -327 95 0
161 -514 163 0
71 -366 -765 0
926 517 305 0
-611 680 327 0
-780 -572 96 0
996 -64 99 0
636 834 -57 0
-586 230 -704 0
557 -402 208 0
889 -734 -609 0
-999 932 854 0
-27 357 564 0
-526 567 268 0
734 -995 -251 0
-402 500 -791 0
510 -362 536 0
441 -378 65 0
-437 685 -510 0
647 -21 232 0
197 -513 -809 0
773 540 -353 0
-815 848 -563 0
492 198 586 0
687 -56 -929 0
-509 -305 660 0
-573 29 346 0
-951 653 -791 0
-585 292 -776 0
-917 -91 138 0
825 -9 -726 0
-857 -611 532 0
964 977 -453 0
-912 -345 456 0
355 -946 564 0
-52 -509 454 0
-895 -907 100 0
635 -974 960 0
-606 -113 766 0
113 -476 193 0
781 616 335 0
786 993 -447 0
-679 51 -983 0
529 339 -994 0
-714 -457 82 0
839 271 -678 0
153 -892 -120 0
303 461 -89 0
636 155 -971 0
55 981 -600 0
-332 946 -685 0
84 789 -749 0
571 -897 34 0
-677 550 63 0
-652 -108 768 0
-715 -294 -747 0
296 -383 624 0
-398 -820 164 0
471 -28 80 0
355 -897 -727 0
174 -424 -19 0
-109 935 726 0
-527 354 167 0
-346 55 -735 0
162 -15 285 0
-630 843 -853 0
79 -814 -824 0
809 -66 61 0
20 352 -381 0
-979 -1000 -543 0
119 714 -639 0
291 -677 187 0
-92 303 -887 0
-528 -321 730 0
-389 533 -728 0
-264 857 228 0
85 -394 512 0
-821 -147 720 0
935 888 -707 0
-535 333 25 0
412 364 833 0
533 420 -853 0
-76 339 -498 0
-756 295 -984 0
523 601 73 0
-177 -957 -765 0
-676 -891 -407 0
-513 -431 564 0
-640 415 -812 0
150 -405 -879 0
-994 749 335 0
740 -452 -910 0
14 616 -189 0
466 -359 398 0
582 -802 627 0
593 519 824 0
-563 733 35 0
149 -531 740 0
376 162 -212 0
-672 -587 -33 0
27 -114 582 0
381 -804 -285 0
-787 521 -603 0
-962 -993 -299 0
-376 -120 -751 0
508 -513 -958 0
-64 319 207 0
365 -731 -183 0
43 920 906 0
-171 -149 -203 0
-441 639 487 0
-544 -815 -585 0
-506 846 32 0
556 515 132 0
82 681 -250 0
-304 458 626 0
819 406 -904 0
-366 -765 70 0
133 -710 -119 0
-84 293 301 0
-871 -357 409 0
658 -364 -462 0
-361 337 37 0
-911 -326 858 0
865 -159 -778 0
15 -351 574 0
-328 -286 393 0
-976 -747 282 0
580 562 -167 0
-975 -156 22 0
494 759 597 0
-202 399 952 0
841 -344 632 0
-89 762 169 0
333 -906 180 0
502 -107 -102 0
-555 -254 -455 0
62 133 -213 0
-699 839 387 0
181 922 800 0
-599 -94 892 0
-8 -110 134 0
930 -155 -523 0
728 889 -298 0
505 -461 -988 0
459 897 321 0
-445 -675 -972 0
-326 -708 -489 0
249 3 120 0
-775 295 535 0
362 -436 -330 0
457 862 163 0
-341 -650 896 0
466 534 425 0
212 210 989 0
-56 343 155 0
135 375 653 0
-354 363 62 0
673 -638 -822 0
641 -485 626 0
-820 -579 499 0
-171 855 -785 0
-424 -677 162 0
474 412 420 0
599 -300 80 0
743 753 179 0
-186 -774 -876 0
-318 739 -685 0
-304 374 437 0
-371 -508 125 0
75 433 990 0
-233 357 -579 0
328 386 336 0
-103 -358 -667 0
-578 -363 107 0
-987 273 -645 0
546 -351 -122 0
60 -265 441 0
281 56 -359 0
-671 19 33 0
-74 -324 -303 0
734 786 -311 0
-874 -996 342 0
-430 993 -300 0
-818 610 667 0
-11 707 -619 0
33 109 -926 0
79 -721 669 0
94 382 -667 0
-79 729 -798 0
-268 -482 850 0
-712 -647 -117 0
984 906 67 0
52 345 -729 0
-634 -250 -119 0
-662 -558 122 0
563 890 312 0
-304 390 -212 0
-736 -739 200 0
90 474 8 0
-841 602 -732 0
-811 -948 -92 0
-884 180 -801 0
409 -772 -748 0
425 546 -410 0
-401 -453 764 0
319 -405 -265 0
526 -576 -981 0
-608 -754 -23 0
906 -72 -454 0
169 183 42 0
-718 129 320 0
-697 759 116 0
-22 220 11 0
603 -459 -309 0
-625 -656 546 0
641 -564 -507 0
-257 -191 -227 0
929 -923 453 0
560 -340 -688 0
957 553 -815 0
490 386 -484 0
-73 56 325 0
-773 -391 153 0
-588 895 -335 0
616 863 105 0
207 -68 -598 0
-486 993 763 0
73 664 711 0
-380 -929 466 0
-340 -697 -171 0
-262 -271 84 0
843 393 462 0
-271 -716 69 0
451 259 225 0
106 -39 -693 0
-226 -585 -528 0
991 691 -896 0
-315 967 686 0
844 -181 97 0
-336 -872 777 0
-69 865 -550 0
-266 407 36 0
-389 -190 -482 0
95 -775 -839 0
-103 435 -280 0
209 -120 285 0
650 718 -49 0
270 183 857 0
843 208 -943 0
282 817 -869 0
-665 650 93 0
363 451 -37 0
-342 763 -487 0
-76 988 78 0
838 -693 -946 0
814 -380 -88 0
-580 359 697 0
-606 318 -414 0
-248 -628 -453 0
798 -649 396 0
162 532 -55 0
-853 330 -339 0
-552 -146 266 0
994 -615 -690 0
-924 -219 878 0
-434 -155 -625 0
-327 490 865 0
430 -60 -775 0
758 -283 518 0
439 518 60 0
418 1 756 0
219 -943 -589 0
-85 -582 967 0
-369 663 -107 0
241 -164 998 0
-848 235 -172 0
940 836 -709 0
418 579 -494 0
281 347 192 0
900 -442 -219 0
-353 561 -847 0
813 -642 129 0
-675 -530 -106 0
-801 910 737 0
831 -692 -572 0
-321 -988 -92 0
498 -644 -895 0
-64 566 709 0
-98 -948 -784 0
-642 218 398 0
-940 -647 131 0
663 -584 -316 0
-586 430 -494 0
-604 -814 135 0
-982 768 463 0
-421 849 -385 0
815 448 416 0
158 -969 -718 0
922 -656 -212 0
638 -547 478 0
279 961 -385 0
-475 -62 -102 0
480 198 -87 0
762 806 -379 0
-997 -829 -75 0
-832 560 643 0
-165 -215 -514 0
577 -674 -779 0
-896 929 -938 0
595 -135 884 0
-966 -686 869 0
658 -235 79 0
319 -810 -550 0
-381 10 -987 0
804 615 -9 0
-379 -237 -660 0
-168 -199 -582 0
535 573 678 0
854 296 956 0
-687 545 561 0
-125 -93 141 0
239 -426 628 0
67 -910 613 0
-378 577 117 0
-95 -248 840 0
268 -362 803 0
-251 -175 -156 0
-762 626 810 0
-356 -670 -854 0
815 305 259 0
393 980 549 0
-209 -495 -295 0
332 120 -270 0
-281 -122 -374 0
675 754 -50 0
-419 -829 -604 0
216 557 -117 0
325 475 470 0
29 554 -374 0
22 697 -952 0
-749 -787 928 0
6 416 595 0
-224 -194 -982 0
-51 308 178 0
638 518 -328 0
958 -325 -591 0
682 -383 660 0
-797 545 -386 0
-277 -697 606 0
-957 547 -977 0
-375 -85 -802 0
224 -392 45 0
99 -414 -708 0
-206 212 160 0
715 181 796 0
-115 383 -202 0
269 -135 -255 0
-990 612 704 0
942 -210 -605 0
968 -394 593 0
-58 781 815 0
-689 -929 362 0
819 -299 -16 0
-943 -157 -717 0
-43 -61 -882 0
558 -385 -281 0
-123 822 -417 0
-379 -611 -966 0
-188 648 -465 0
309 -552 -799 0
947 -537 -445 0
357 -306 -270 0
237 865 -451 0
-30 -581 428 0
655 -269 113 0
635 -467 95 0
262 -921 -562 0
-935 -969 210 0
-639 -8 -688 0
925 996 -831 0
412 617 886 0
-529 424 -225 0
-71 -908 648 0
-560 601 410 0
664 -517 566 0
-371 -706 227 0
-459 -572 -235 0
612 914 306 0
430 422 -225 0
35 5 39 0
-624 350 602 0
-702 444 -113 0
834 370 1 0
-401 -565 75 0
-812 -310 144 0
-586 -32 -867 0
-314 98 304 0
-29 -75 137 0
859 -241 434 0
-778 531 848 0
-87 -69 -175 0
589 -829 5 0
-857 -998 135 0
108 -541 -332 0
-747 81 -749 0
-315 204 -363 0
808 -978 511 0
901 965 -446 0
895 214 780 0
-677 203 530 0
71 -178 402 0
994 -820 133 0
-123 -349 -53 0
14 -204 -902 0
-196 933 157 0
-318 292 -283 0
-483 -201 -761 0
632 -550 836 0
521 662 -624 0
-367 278 422 0
452 -255 -622 0
-640 408 -474 0
-363 -593 -674 0
-317 910 571 0
233 13 -630 0
-96 434 145 0
362 -119 -518 0
562 -884 594 0
369 -539 -402 0
-831 588 -665 0
203 -123 -691 0
183 229 145 0
-632 -548 802 0
-121 -77 -51 0
212 489 787 0
-18 165 -139 0
-875 970 -922 0
-260 34 306 0
-395 202 217 0
-495 507 -275 0
201 -269 398 0
-89 635 241 0
519 513 76 0
707 660 661 0
-705 -974 -699 0
-509 52 -391 0
944 -154 69 0
-507 14 -33 0
-695 242 -219 0
-604 778 625 0
-347 -926 673 0
207 -836 695 0
763 230 -361 0
-243 -504 -144 0
127 -121 89 0
430 -923 -196 0
-828 -980 502 0
800 150 47 0
924 -801 358 0
-674 -510 495 0
965 587 307 0
-179 -131 759 0
622 974 -361 0
-198 118 324 0
748 908 -261 0
-113 -446 697 0
-447 -638 -398 0
-385 -786 -314 0
-397 340 314 0
-619 -548 -421 0
271 -917 338 0
936 -726 -836 0
-504 -792 -803 0
11 399 514 0
-357 424 65 0
803 150 811 0
-432 533 759 0
496 51 -884 0
-228 101 728 0
600 -972 -557 0
-775 -866 -280 0
-50 -883 707 0
-176 -537 -512 0
-363 -821 -943 0
-21 696 -443 0
153 -944 38 0
39 537 515 0
-758 529 -525 0
276 -796 661 0
-75 704 -579 0
689 -327 428 0
448 -504 -411 0
-237 401 -702 0
-545 967 -914 0
699 -697 749 0
-713 376 252 0
-317 -765 237 0
-894 277 -137 0
-54 69 -9 0
-939 -791 -299 0
598 -534 858 0
268 559 179 0
831 652 357 0
495 -136 -406 0
-10 -582 567 0
-891 -760 -486 0
-118 -405 270 0
509 208 -72 0
-302 -521 -549 0
-843 267 227 0
188 -48 106 0
400 -648 -41 0
403 511 -88 0
921 885 751 0
-651 -354 761 0
212 897 -165 0
-405 156 -541 0
-263 -882 123 0
289 460 -825 0
563 -740 738 0
-365 -596 -476 0
-920 -660 21 0
-5 506 98 0
-680 724 -310 0
500 440 -67 0
-258 443 -138 0
434 -124 99 0
155 -435 930 0
604 -158 -74 0
-38 -116 850 0
-925 -843 -713 0
-95 -102 315 0
-495 -792 836 0
-279 -412 -853 0
-245 -771 -74 0
-515 186 496 0
-266 793 -163 0
808 182 -472 0
856 -522 858 0
-909 -33 440 0
-78 -429 -885 0
-378 -384 -479 0
649 -373 568 0
152 -46 915 0
-879 -848 83 0
684 -117 -588 0
-743 49 -37 0
-763 37 610 0
-548 -330 269 0
549 -267 56 0
-205 -921 854 0
-640 511 591 0
-483 452 -277 0
637 -385 775 0
-672 -64 -59 0
-583 -199 -225 0
691 167 146 0
724 -551 667 0
-933 -528 -353 0
-400 573 924 0
244 -638 533 0
676 -696 990 0
-71 -617 453 0
-189 916 -934 0
915 278 -652 0
-629 -207 667 0
-746 526 503 0
509 -514 -316 0
-942 515 543 0
210 757 -857 0
-66 239 471 0
-448 761 -960 0
682 752 451 0
272 687 86 0
-314 886 -870 0
604 -138 173 0
768 976 -259 0
279 -39 -434 0
317 184 494 0
-253 192 415 0
686 -428 -831 0
18 -306 471 0
-983 806 -468 0
-923 66 -824 0
-873 408 311 0
146 -193 -732 0
7 760 186 0
-130 -660 -693 0
-548 -354 -402 0
314 616 744 0
-900 609 63 0
426 855 -858 0
-987 -940 -723 0
-650 -729 -280 0
324 -755 -184 0
328 131 271 0
-706 -826 -468 0
593 477 435 0
603 519 -562 0
-750 -907 991 0
672 226 -372 0
-750 -93 -401 0
-806 -4 -547 0
-546 209 -721 0
-66 -69 469 0
-982 970 214 0
995 873 84 0
25 323 407 0
-104 486 -760 0
-595 -257 801 0
800 294 123 0
-822 831 -659 0
702 286 540 0
483 -178 979 0
-573 588 609 0
-170 -952 838 0
-172 -649 -905 0
-957 -334 -655 0
-478 182 928 0
-561 564 -923 0
-614 -198 327 0
618 144 -529 0
-509 -846 662 0
-984 -256 904 0
414 -799 -539 0
-578 747 -335 0
-823 -114 -21 0
-794 -981 -492 0
-398 -699 952 0
939 -49 -540 0
-315 -578 -914 0
-209 375 -676 0
166 -108 567 0
-122 647 657 0
-444 -258 253 0
-906 -265 902 0
-355 406 832 0
764 642 928 0
963 125 62 0
-95 342 1000 0
-433 -551 826 0
587 -633 -318 0
-473 314 -934 0
-305 -987 -123 0
202 727 -465 0
-764 -176 668 0
806 -132 -631 0
-856 396 280 0
-749 397 -863 0
377 -308 200 0
762 -524 771 0
971 376 -172 0
-369 677 -405 0
697 547 -510 0
241 -845 669 0
826 -11 697 0
-847 323 -861 0
57 976 548 0
-586 492 738 0
313 -941 -716 0
-151 -438 918 0
14 -896 885 0
670 98 -195 0
-863 14 -317 0
-357 -335 -873 0
-987 612 -385 0
321 939 -429 0
-433 -203 942 0
-151 567 794 0
-491 -626 939 0
763 -352 -868 0
-325 -68 302 0
931 -446 -571 0
533 -231 -420 0
-461 -851 -214 0
773 115 -396 0
989 956 286 0
935 -584 552 0
-271 422 565 0
-792 122 362 0
-474 716 -183 0
110 128 -892 0
565 -351 -546 0
-705 975 -632 0
-53 239 384 0
-987 756 677 0
-936 405 -425 0
-780 -581 87 0
632 818 -601 0
