c Modularity-based k-CNF Generator (V2.0). J. Giraldez-Cru and J. Levy
c   value n = 500
c   value m = 1900
c   value k = 3
c   value Q = 0.9
c   value c = 10
c   value seed = 34
p cnf 500 1900
-425 417 439 0
-331 318 -325 0
-405 445 -410 0
-279 -262 -295 0
458 -466 -491 0
-14 -42 -39 0
-457 -473 469 0
175 178 181 0
-129 -105 -127 0
-135 -120 126 0
-485 -489 467 0
187 192 -155 0
357 383 -363 0
-426 -449 -406 0
40 39 -5 0
-419 -403 450 0
-249 -231 -223 0
-486 453 451 0
341 -349 311 0
240 -230 225 0
375 387 -377 0
-207 -249 -206 0
-7 -28 -16 0
-403 -426 -439 0
181 197 165 0
-4 -15 -45 0
171 -186 182 0
-488 452 498 0
391 354 377 0
365 -360 -353 0
409 436 405 0
-26 28 -35 0
340 345 315 0
206 211 246 0
294 261 -270 0
-435 412 -441 0
-499 477 -475 0
-302 -350 -333 0
-423 419 445 0
200 156 161 0
-54 98 74 0
362 355 353 0
-229 207 -228 0
379 362 385 0
-153 181 -168 0
-329 307 350 0
223 209 204 0
-465 -489 -472 0
103 -104 122 0
-151 -191 200 0
-302 314 -307 0
295 252 -272 0
228 219 246 0
-115 148 -143 0
237 -241 201 0
-64 61 -63 0
-66 -84 51 0
45 -40 -23 0
-350 309 322 0
-136 131 -105 0
-241 -216 -225 0
-440 413 -403 0
-194 172 -167 0
-468 491 452 0
-28 -43 -39 0
-251 -286 -256 0
-82 99 -79 0
470 -498 -462 0
197 -167 -175 0
136 135 -103 0
-283 -266 270 0
297 275 254 0
17 -36 -29 0
-180 166 -193 0
348 -340 306 0
-218 210 -239 0
-366 356 -364 0
381 384 354 0
-384 352 -373 0
418 446 414 0
403 410 -430 0
137 127 142 0
390 395 355 0
84 -85 65 0
2 -20 -22 0
222 243 230 0
220 -238 -214 0
348 338 -323 0
-172 -179 -158 0
-239 -209 -219 0
341 -307 -316 0
102 -134 127 0
-31 -1 10 0
-56 -94 -89 0
205 203 215 0
399 -353 -388 0
-484 -458 -466 0
100 -53 -57 0
280 -259 -288 0
342 347 302 0
-286 -284 -279 0
358 400 352 0
361 -381 377 0
200 -178 188 0
-273 288 -264 0
272 253 -273 0
-460 -468 480 0
-337 312 -318 0
480 467 456 0
456 487 464 0
1 -7 24 0
27 50 -3 0
-415 430 427 0
289 -266 252 0
268 -273 255 0
-491 455 493 0
-243 -240 -238 0
466 -470 -475 0
491 458 -499 0
266 257 273 0
170 184 -199 0
-78 66 56 0
422 -415 441 0
312 -327 -306 0
227 228 214 0
319 -341 303 0
429 -411 -443 0
-294 -256 252 0
-500 -473 497 0
183 -154 -163 0
19 17 21 0
167 -200 186 0
94 99 -52 0
340 -332 335 0
214 242 -207 0
-193 189 157 0
-25 1 -6 0
-307 -329 -338 0
-236 -202 212 0
-43 -47 33 0
-74 -86 -72 0
-466 -497 -486 0
362 352 -378 0
297 -275 276 0
200 -171 177 0
219 -206 -233 0
-245 -225 222 0
-201 -235 234 0
-261 251 287 0
-432 438 445 0
-118 -109 -144 0
-80 -65 -78 0
264 -259 -292 0
378 -387 364 0
299 -271 -276 0
146 -119 -150 0
-373 359 -388 0
-210 249 222 0
139 104 123 0
452 459 -476 0
453 -463 492 0
-454 475 -468 0
-197 -180 -172 0
429 447 -450 0
-88 90 84 0
-436 427 406 0
258 265 -288 0
-193 -161 -183 0
-281 -279 -298 0
428 415 -427 0
416 441 -422 0
409 412 425 0
-482 475 -497 0
-491 483 474 0
-404 423 408 0
85 79 63 0
-328 -326 340 0
299 -274 -270 0
104 -133 -131 0
-74 -56 -95 0
-300 -288 273 0
7 19 44 0
-369 377 -360 0
236 -233 220 0
303 -314 -338 0
-34 -43 -37 0
61 56 73 0
-91 -86 57 0
277 -254 -295 0
482 -478 -462 0
-378 -354 -383 0
-5 -2 25 0
256 -254 293 0
107 -121 110 0
495 -490 -455 0
86 73 -61 0
-180 -176 179 0
-159 170 197 0
234 241 -218 0
492 -482 -490 0
-341 -346 -336 0
-319 -332 -309 0
485 -460 457 0
202 224 -244 0
-258 283 -296 0
418 442 409 0
-400 366 -375 0
195 -180 -162 0
48 -34 -18 0
471 -484 -454 0
13 -1 -39 0
-6 9 5 0
-442 415 -444 0
-147 113 -144 0
356 358 -373 0
-483 496 -453 0
296 -300 268 0
-29 41 -50 0
-278 -276 271 0
285 -270 259 0
98 85 -90 0
-459 454 455 0
-20 -9 -43 0
185 -167 -184 0
-39 -14 29 0
324 -345 -308 0
-190 -179 -159 0
-18 41 -4 0
-197 -193 164 0
7 -25 50 0
-50 -31 26 0
-112 -102 -138 0
213 212 216 0
66 90 -83 0
138 119 107 0
-438 -408 436 0
-496 488 -482 0
-374 -384 -369 0
255 -276 -268 0
361 -385 -388 0
252 -283 276 0
-185 198 -193 0
294 269 -273 0
-40 -1 -24 0
231 -215 242 0
-190 161 -171 0
-228 -230 -237 0
-472 -489 -487 0
474 -460 480 0
320 -338 -339 0
455 476 -464 0
-249 238 -235 0
392 -398 399 0
-139 -102 143 0
-453 -451 -479 0
-417 404 438 0
387 -362 -373 0
500 453 497 0
-114 -125 -123 0
227 202 -208 0
429 423 431 0
331 -326 310 0
-157 -155 -195 0
-254 -281 260 0
-283 -265 -293 0
-449 -433 -430 0
110 -136 -126 0
-182 -170 -171 0
-355 351 -394 0
-151 157 166 0
-382 -395 375 0
-103 126 137 0
-239 -244 -220 0
-215 249 207 0
46 44 -39 0
341 302 343 0
476 -497 486 0
40 28 37 0
-76 -66 83 0
149 142 109 0
154 181 177 0
304 -332 -328 0
-239 221 -233 0
-134 -113 -150 0
-361 399 355 0
57 93 -83 0
-16 18 11 0
-37 -46 -43 0
-129 -105 -113 0
37 -48 -45 0
-482 498 470 0
61 95 -84 0
-464 -461 -477 0
-238 -213 -202 0
-444 -412 -436 0
268 -294 276 0
47 48 -28 0
271 -277 280 0
-39 22 -33 0
389 357 -360 0
-391 -385 351 0
-176 -195 189 0
-369 399 357 0
242 -218 243 0
165 162 197 0
444 438 -435 0
474 -495 466 0
-160 -152 170 0
180 169 155 0
269 278 286 0
411 -425 412 0
-191 -200 -162 0
293 -251 253 0
276 -267 279 0
335 -325 337 0
-452 -457 489 0
439 -449 445 0
-219 -241 -206 0
-412 426 421 0
-147 141 102 0
270 -261 -262 0
424 409 -407 0
377 -351 -396 0
-103 -142 145 0
-213 223 250 0
-382 379 385 0
254 271 -278 0
-401 -418 -428 0
306 -316 314 0
368 -370 364 0
-177 -200 195 0
479 -493 468 0
83 -67 72 0
343 -312 346 0
-362 377 395 0
265 295 -275 0
-171 156 176 0
315 345 311 0
-363 -364 -376 0
254 278 289 0
418 413 -426 0
483 477 -485 0
-158 181 162 0
-378 399 -392 0
-451 -453 496 0
-371 382 368 0
-16 29 45 0
-35 27 -17 0
-272 -280 266 0
-213 -207 -203 0
-407 -438 437 0
468 -463 -470 0
-48 44 25 0
-452 -456 -500 0
482 454 464 0
428 -410 -425 0
-183 188 193 0
-252 288 -298 0
-330 323 -331 0
112 -108 120 0
-299 295 251 0
69 92 -51 0
157 -178 -161 0
-396 -353 388 0
-374 377 -400 0
-112 120 -140 0
37 34 27 0
-368 -356 -390 0
15 28 -30 0
-429 423 433 0
-460 -492 496 0
429 425 -418 0
-400 357 391 0
-189 -195 151 0
303 -344 -332 0
63 94 54 0
-113 -121 109 0
87 100 91 0
-341 312 349 0
239 215 208 0
-10 -13 -24 0
248 -206 -228 0
-341 316 310 0
-31 37 42 0
100 63 -54 0
-10 -37 -45 0
277 -279 -271 0
157 -197 181 0
467 -476 -465 0
257 -256 -262 0
406 -447 -441 0
273 -270 -282 0
-440 445 419 0
-342 -318 -343 0
-242 -238 -231 0
258 -264 -271 0
101 127 111 0
307 316 -306 0
-246 -229 231 0
77 -57 -61 0
-466 -463 470 0
-135 -105 138 0
-251 -258 254 0
40 19 18 0
404 -443 439 0
433 -411 -417 0
-97 60 68 0
-402 414 408 0
10 -17 45 0
-434 -441 439 0
42 28 40 0
272 289 254 0
452 476 -466 0
-86 72 97 0
88 55 100 0
321 317 320 0
470 500 477 0
264 282 -267 0
-219 223 203 0
290 -261 253 0
90 93 -71 0
139 137 121 0
-321 -314 317 0
449 413 448 0
-316 -318 301 0
241 -216 227 0
416 -402 438 0
177 -170 187 0
-357 -380 -395 0
495 468 457 0
174 161 167 0
207 247 212 0
-377 -397 -359 0
-74 93 53 0
-381 -368 -387 0
-147 123 -140 0
-156 179 174 0
358 380 -354 0
-461 -498 -458 0
-189 -197 -156 0
-363 -374 378 0
-100 -74 -92 0
-349 -332 312 0
19 -1 47 0
59 -87 -70 0
-60 80 59 0
323 328 -314 0
-416 -425 404 0
-40 9 14 0
-455 472 482 0
-43 -11 49 0
100 76 -71 0
-460 480 458 0
-286 292 -280 0
62 83 60 0
291 -282 -257 0
169 -167 -196 0
90 -66 -57 0
-237 -221 -204 0
-359 -381 -389 0
-191 154 157 0
442 -443 -412 0
-297 268 -282 0
166 -184 151 0
225 210 -218 0
-215 -239 238 0
11 -47 34 0
415 -408 -443 0
310 -325 -324 0
409 -404 -430 0
142 -117 113 0
-101 -133 140 0
288 266 -262 0
472 -480 -458 0
484 -454 -483 0
-91 59 -71 0
355 -363 377 0
11 19 45 0
40 -38 17 0
248 225 207 0
-196 190 -157 0
-121 122 -101 0
-109 -147 108 0
-268 297 284 0
335 -304 336 0
-310 -348 333 0
236 -213 244 0
189 167 165 0
410 -449 407 0
222 236 234 0
-430 440 404 0
-460 -476 489 0
-193 180 -158 0
-152 177 -190 0
250 227 216 0
102 128 130 0
-129 -114 -122 0
-463 -494 -458 0
-303 -346 -316 0
191 -163 -160 0
-126 -129 109 0
204 245 214 0
446 413 445 0
326 -331 -340 0
-126 -137 130 0
415 -434 413 0
-295 -252 296 0
182 159 -188 0
-17 -40 -4 0
-400 388 -390 0
125 118 -109 0
9 21 -47 0
264 -268 -297 0
143 -141 -131 0
224 -248 227 0
486 -478 500 0
-472 452 487 0
250 243 -225 0
173 -159 -183 0
408 -411 -409 0
-146 113 -142 0
-4 9 -18 0
-287 -276 259 0
201 220 222 0
82 -99 63 0
275 261 295 0
358 361 381 0
-289 268 -275 0
-211 231 203 0
204 226 228 0
-309 319 -329 0
-154 -171 -169 0
478 484 460 0
-448 -442 418 0
362 387 380 0
87 70 69 0
-386 375 -357 0
232 221 -207 0
-236 -229 228 0
277 -294 299 0
498 -456 478 0
414 -441 418 0
455 453 488 0
-320 343 -345 0
332 304 314 0
-440 -422 -407 0
-105 -141 -148 0
-196 -197 -156 0
237 219 -228 0
-416 446 -431 0
-367 -394 -371 0
81 74 -95 0
-437 -444 401 0
-414 433 -425 0
351 357 366 0
106 -146 -128 0
498 -454 -453 0
-276 251 261 0
469 460 485 0
213 234 -228 0
177 189 -160 0
-443 448 416 0
225 -219 -239 0
-426 -405 441 0
280 256 -286 0
182 -176 -157 0
162 187 -152 0
422 -415 428 0
-412 -411 409 0
-497 -479 496 0
-271 -268 -258 0
292 -258 254 0
115 141 127 0
48 -2 -35 0
47 1 -13 0
-443 -431 438 0
-155 -181 163 0
-404 -447 432 0
-97 98 -84 0
237 -215 -231 0
-328 -329 -339 0
334 348 316 0
23 26 15 0
171 160 188 0
-34 -25 30 0
177 -155 160 0
236 215 227 0
-60 100 59 0
81 -80 66 0
-286 254 273 0
158 191 166 0
-192 182 -193 0
331 -336 307 0
-166 -187 183 0
-363 -351 355 0
-291 -260 257 0
348 -310 -342 0
-124 126 -103 0
-290 -272 -262 0
-279 -267 280 0
294 252 -260 0
-352 -361 399 0
-366 358 -369 0
374 -384 -363 0
320 -317 -349 0
346 -311 315 0
-70 64 -81 0
135 134 -101 0
18 2 12 0
35 14 6 0
25 30 -39 0
286 270 -290 0
61 81 -95 0
-97 77 86 0
-26 -17 -22 0
315 323 310 0
200 194 -163 0
140 125 123 0
-254 291 267 0
68 98 60 0
-281 264 -254 0
-468 -492 -470 0
321 333 -340 0
-229 -235 -207 0
112 -150 139 0
-106 108 145 0
-175 -191 169 0
-429 -450 402 0
-379 -370 372 0
57 100 -67 0
441 427 -411 0
-345 336 347 0
252 265 288 0
-347 350 -346 0
435 -428 -421 0
-402 -413 449 0
409 -410 405 0
494 466 476 0
-171 -191 -159 0
-307 312 314 0
-498 -486 482 0
286 -268 284 0
-443 417 403 0
-296 -278 283 0
-154 -177 -164 0
-72 -100 -85 0
-34 -16 -43 0
-78 -59 87 0
-329 -350 312 0
-357 -371 -390 0
295 -272 261 0
-82 -81 63 0
74 54 79 0
132 -145 -103 0
462 499 482 0
-89 -79 65 0
-170 -175 -198 0
-259 -264 269 0
-180 197 -187 0
-181 192 160 0
-489 -496 460 0
-352 -360 -399 0
-474 487 -466 0
-401 434 435 0
220 -250 203 0
466 -488 453 0
164 165 -170 0
-339 -324 -346 0
-37 15 -28 0
348 -307 -320 0
326 -301 329 0
390 -393 -397 0
-421 -405 436 0
322 -332 -303 0
145 -106 -137 0
25 22 -17 0
246 222 -206 0
465 -463 -494 0
265 -284 -260 0
-338 -321 310 0
432 -437 446 0
-57 -93 -83 0
-438 -420 -410 0
211 -209 -205 0
171 157 -175 0
-115 142 143 0
-74 96 -78 0
386 388 -390 0
-279 -282 287 0
-398 384 -387 0
-202 -224 -212 0
246 245 -236 0
69 64 98 0
-305 -331 -344 0
121 -125 126 0
-403 406 434 0
-439 -445 434 0
-228 -247 219 0
320 -334 -350 0
8 23 14 0
-406 -423 -445 0
45 37 -29 0
319 324 -331 0
360 -368 -366 0
287 -260 -255 0
-62 78 -55 0
-262 -288 292 0
-437 -431 -407 0
455 487 -483 0
382 397 -375 0
-131 -133 134 0
375 351 -366 0
263 -293 256 0
426 -443 421 0
-30 -36 47 0
104 -145 -119 0
143 112 127 0
-415 -450 -449 0
16 -44 26 0
-464 -496 494 0
404 -415 417 0
-489 455 -474 0
218 201 246 0
-294 260 277 0
10 12 -35 0
86 -98 -80 0
110 -133 149 0
228 216 239 0
-173 170 -174 0
-101 116 -123 0
-463 -487 473 0
106 -135 122 0
156 -195 198 0
-482 -481 488 0
-211 247 204 0
318 339 333 0
294 -255 -254 0
228 -221 241 0
356 354 -352 0
-323 -337 -339 0
-423 -406 428 0
196 199 -156 0
-249 243 -220 0
400 389 390 0
-296 -252 299 0
473 489 451 0
-473 -457 -455 0
330 348 -315 0
-181 -186 177 0
-174 152 192 0
-437 -410 -402 0
64 59 51 0
150 138 -149 0
467 485 487 0
71 -64 60 0
-363 372 -369 0
270 -292 298 0
359 386 -399 0
389 -379 -363 0
400 365 381 0
-244 -230 -231 0
154 182 -199 0
-42 -36 -24 0
211 209 205 0
-413 450 419 0
316 328 341 0
-425 442 -430 0
126 -110 -134 0
37 18 38 0
384 372 398 0
136 103 132 0
409 -420 -407 0
-357 -376 359 0
-161 -163 -196 0
448 434 -406 0
-245 219 217 0
349 330 -309 0
-189 156 197 0
105 116 131 0
93 -55 -97 0
-244 -222 202 0
299 298 284 0
-283 272 -264 0
-255 -261 -251 0
208 211 215 0
-57 56 -58 0
-3 -17 -2 0
-250 232 -218 0
-302 316 303 0
-7 -20 -33 0
-217 -216 -225 0
238 -239 223 0
-273 -299 255 0
-89 78 -63 0
-50 12 -36 0
408 -410 -449 0
-465 -458 -486 0
-52 -78 82 0
168 -198 -174 0
257 262 -253 0
25 -21 -32 0
-161 -168 -185 0
-454 477 -469 0
-311 -345 -346 0
-471 461 470 0
95 -52 -93 0
-114 123 145 0
120 109 -103 0
14 -10 47 0
65 -94 -96 0
368 382 -398 0
332 333 331 0
-3 -39 50 0
-369 -396 -390 0
-303 336 315 0
-330 -332 335 0
-2 -23 -18 0
1 22 33 0
88 -65 56 0
93 57 -100 0
18 -36 -16 0
155 163 157 0
177 -190 178 0
-28 -47 -2 0
105 -148 139 0
293 253 -292 0
275 261 -272 0
97 96 -55 0
-158 -179 -175 0
257 266 -272 0
396 364 377 0
-162 177 -176 0
463 -480 -484 0
-30 19 27 0
186 164 -179 0
-485 -488 463 0
209 -208 244 0
-105 121 -108 0
473 491 469 0
-189 -188 -182 0
-135 103 137 0
-226 202 -214 0
-380 -396 -355 0
-488 480 460 0
49 -19 -32 0
-345 -308 316 0
-238 214 229 0
405 401 432 0
29 -50 -36 0
178 -172 -153 0
-44 -36 41 0
-167 173 -163 0
489 -472 465 0
-343 324 350 0
190 154 195 0
418 404 -410 0
32 -16 28 0
183 -189 166 0
117 136 -146 0
244 226 229 0
-22 -32 -5 0
445 435 -412 0
204 238 -222 0
-465 464 500 0
24 48 46 0
401 415 406 0
-306 302 341 0
-349 308 303 0
160 -166 151 0
-260 298 261 0
421 -433 -427 0
-107 -117 114 0
271 298 -266 0
-266 -290 268 0
127 -144 105 0
-64 57 54 0
-225 209 -213 0
-121 111 132 0
-307 -305 -304 0
421 441 430 0
435 417 -415 0
258 255 -282 0
-418 437 439 0
-401 405 439 0
-45 40 -50 0
-220 205 216 0
300 276 -290 0
49 45 -32 0
-201 248 213 0
-263 290 267 0
-461 488 -474 0
-110 134 -107 0
-132 -125 -118 0
220 223 211 0
185 -154 181 0
-356 -361 -377 0
-406 -435 447 0
449 442 432 0
-325 -339 -343 0
-109 114 -136 0
-269 -253 271 0
-9 8 -11 0
472 -493 -466 0
-214 -216 -217 0
85 -71 -62 0
227 -237 230 0
-345 -332 311 0
161 -176 191 0
72 94 -56 0
33 -2 -28 0
-402 -435 -421 0
-137 -141 101 0
-157 -163 -187 0
-470 479 457 0
20 -32 -45 0
-7 -10 -24 0
-474 490 -496 0
160 -183 197 0
-50 18 15 0
-194 160 -162 0
464 -471 -454 0
-376 -367 -359 0
-220 -225 244 0
-47 26 5 0
-205 -245 204 0
-137 -114 -142 0
-314 316 -338 0
-237 246 243 0
-297 269 272 0
294 -289 -261 0
-148 105 129 0
263 -290 -291 0
-8 -20 -6 0
483 485 475 0
-72 53 -54 0
-397 -353 400 0
399 -352 -366 0
-429 -441 -419 0
128 -106 -139 0
323 -311 333 0
-164 170 -196 0
235 -216 -237 0
76 83 65 0
193 -172 -174 0
359 391 -365 0
313 321 -327 0
322 -308 -337 0
-421 404 -444 0
357 387 -371 0
-454 466 -451 0
-410 -438 420 0
-386 -388 358 0
-174 187 -191 0
271 -284 260 0
-247 223 -231 0
-160 175 -159 0
-288 273 295 0
382 -394 387 0
-420 -414 447 0
353 -383 363 0
-357 360 370 0
-413 450 405 0
110 113 -135 0
-34 -35 16 0
-224 -241 -238 0
217 224 -237 0
-334 338 347 0
327 -318 328 0
141 -140 105 0
-125 -111 -129 0
-153 -165 -175 0
-329 -309 312 0
399 352 -375 0
-303 323 -325 0
119 123 144 0
438 -448 411 0
495 470 -456 0
-44 -49 -21 0
310 306 318 0
75 -89 74 0
-26 19 -43 0
-92 -56 54 0
148 -142 140 0
-184 -166 177 0
-186 -196 152 0
-326 -313 -320 0
-247 -246 230 0
473 474 483 0
-265 -274 289 0
-42 -39 -9 0
44 -6 -26 0
-424 422 443 0
-428 443 447 0
-436 -429 432 0
-277 -284 -279 0
-422 -409 430 0
360 -375 385 0
66 -61 -93 0
394 387 -400 0
-209 227 225 0
181 171 179 0
-317 -332 -345 0
225 -208 242 0
213 -224 -207 0
166 -198 172 0
417 -426 415 0
410 -421 439 0
76 -57 -65 0
182 196 163 0
309 335 332 0
-15 33 -39 0
379 355 -375 0
-244 -203 -218 0
101 109 117 0
298 -276 269 0
-177 -154 166 0
232 227 -235 0
265 274 -251 0
-46 -13 -38 0
340 -307 306 0
54 97 82 0
-9 29 -46 0
-127 -130 -109 0
-373 -372 360 0
-55 97 81 0
120 -124 -109 0
-222 -229 -242 0
-122 -114 131 0
305 -347 349 0
206 -238 219 0
-60 71 68 0
220 -212 -231 0
-425 -401 -417 0
272 291 -269 0
-438 -407 408 0
-2 43 10 0
331 334 -327 0
-283 -267 289 0
278 -290 -299 0
406 417 -450 0
410 -414 427 0
49 -21 45 0
-51 -89 77 0
-302 313 -305 0
-353 370 369 0
-227 208 234 0
-152 -188 -197 0
-299 278 -276 0
270 -295 277 0
215 250 -238 0
467 473 461 0
227 213 -233 0
-16 -11 30 0
85 -65 70 0
-455 -480 -454 0
331 -345 326 0
267 -284 -288 0
465 -454 -482 0
124 -114 -126 0
-467 -488 497 0
456 -493 481 0
-207 -241 222 0
489 451 -495 0
-464 492 -483 0
497 473 -454 0
285 -291 265 0
364 388 372 0
-447 402 441 0
-251 -258 -287 0
-216 213 -227 0
68 -96 84 0
-459 458 462 0
491 488 478 0
-126 111 135 0
-470 -468 489 0
325 -329 -301 0
-469 472 475 0
-134 150 -104 0
-494 498 -467 0
494 -468 -464 0
436 431 439 0
314 -318 327 0
-116 -134 -114 0
-306 327 328 0
-317 307 334 0
-163 178 184 0
-432 -414 -419 0
-365 -384 -377 0
422 -408 -435 0
-13 -43 28 0
214 -209 211 0
-125 111 123 0
-411 -441 404 0
114 -147 148 0
449 413 448 0
-498 499 -492 0
498 -488 -459 0
135 147 -115 0
-227 -234 241 0
404 407 -446 0
-244 -208 230 0
28 -50 18 0
-405 417 -407 0
-441 439 -425 0
103 -120 115 0
-468 -467 -465 0
-111 -122 -106 0
499 -468 481 0
329 322 303 0
-162 180 -152 0
-277 -291 287 0
106 111 122 0
-234 -232 248 0
-177 -190 193 0
329 -337 -328 0
194 -154 197 0
-423 424 407 0
362 -376 399 0
85 -65 -99 0
477 -467 482 0
-210 -221 204 0
-347 -336 302 0
422 -418 444 0
221 -239 212 0
113 106 -137 0
128 139 101 0
-125 120 146 0
-92 -77 99 0
69 66 91 0
126 132 -131 0
-3 -50 -6 0
-88 -69 53 0
-475 464 -499 0
-162 165 172 0
-443 430 424 0
16 -8 23 0
325 -301 -346 0
-159 -170 164 0
-493 488 475 0
-418 407 -424 0
-432 433 448 0
-389 -371 -375 0
423 437 -421 0
-414 -429 441 0
2 24 -28 0
339 346 325 0
193 -195 169 0
86 -81 75 0
145 135 -129 0
200 -180 -182 0
-373 391 -381 0
-299 -290 -261 0
-147 118 150 0
-451 452 -490 0
-134 -119 -147 0
-201 -214 216 0
126 108 145 0
-460 -457 -451 0
56 -71 51 0
311 -305 -338 0
52 -86 -99 0
-401 -415 -404 0
-429 444 -413 0
-124 -145 105 0
-360 370 378 0
-288 -271 -295 0
199 179 157 0
-495 -499 496 0
-164 181 179 0
333 303 313 0
-40 49 22 0
-228 -207 -235 0
-390 -372 378 0
57 -93 -70 0
-106 117 -123 0
-192 -167 199 0
251 -296 254 0
-218 201 223 0
223 245 -248 0
-120 -107 -135 0
-479 498 -477 0
172 196 -200 0
57 -70 -97 0
63 80 -92 0
-118 -107 -128 0
-320 339 -315 0
-424 436 429 0
362 -374 -384 0
-235 -219 -215 0
-458 -495 459 0
44 21 40 0
-396 394 378 0
408 437 436 0
-423 -447 414 0
8 44 -29 0
361 383 374 0
155 -162 156 0
295 291 279 0
79 90 64 0
-387 365 -391 0
-299 -290 256 0
316 307 -341 0
97 -98 -90 0
32 14 -12 0
-142 -122 -106 0
-94 75 -92 0
-492 481 -455 0
423 -424 -439 0
-235 -206 213 0
3 -7 -5 0
49 9 15 0
-316 -350 343 0
-42 -3 -21 0
-69 -70 -95 0
-361 396 386 0
-76 77 -80 0
73 82 -100 0
-368 354 -387 0
179 153 168 0
39 -19 22 0
-500 -495 -476 0
-449 414 445 0
-286 252 279 0
466 457 493 0
-307 -332 -319 0
-71 65 53 0
-432 -444 -409 0
159 -193 -189 0
-290 -269 -283 0
-290 274 -258 0
128 -106 -105 0
459 -493 470 0
-363 -351 369 0
-411 -437 449 0
91 73 -67 0
-358 -395 399 0
322 -344 -334 0
-155 186 -188 0
-325 -339 329 0
-338 -306 305 0
488 478 482 0
-439 -413 446 0
24 11 27 0
-370 363 375 0
-351 386 -376 0
-44 -19 38 0
297 288 286 0
-134 -118 -108 0
-338 304 319 0
-56 -86 74 0
212 233 232 0
-162 -183 -182 0
89 -95 -69 0
164 160 -194 0
452 -460 -494 0
-255 -278 263 0
459 -492 490 0
-302 -314 -338 0
378 399 368 0
-181 -161 -167 0
71 -65 97 0
54 70 84 0
77 -72 -51 0
354 -372 -367 0
-45 6 38 0
421 410 448 0
-18 -39 -8 0
-61 -79 85 0
-496 472 483 0
413 404 402 0
22 -25 16 0
197 -180 183 0
-294 263 -295 0
78 -65 52 0
-461 460 483 0
-361 -358 -362 0
374 -384 365 0
-238 236 226 0
432 -416 -441 0
464 455 486 0
347 -328 -327 0
-236 -239 -232 0
-121 -123 139 0
-183 -175 -199 0
-329 -340 314 0
-433 436 423 0
-490 466 -479 0
-153 -155 -184 0
289 259 -280 0
245 -209 221 0
-417 -423 -410 0
-228 -214 -230 0
-131 144 -148 0
-143 -114 -117 0
-74 67 60 0
-104 -149 -103 0
124 -143 117 0
213 240 -242 0
125 110 -122 0
67 -99 90 0
-64 -61 70 0
-319 309 343 0
-85 -80 -67 0
-81 51 -86 0
-210 208 -246 0
414 -445 418 0
333 -320 309 0
-275 273 -285 0
-218 -204 -216 0
160 168 -164 0
-288 -256 -273 0
53 51 -98 0
-46 -3 -30 0
308 -331 329 0
-464 461 455 0
-318 -340 316 0
-282 -273 -293 0
496 -459 -461 0
-21 -41 -33 0
-340 -309 330 0
-79 -83 65 0
263 -252 -255 0
-343 -311 -310 0
421 -433 429 0
459 -453 -470 0
-319 334 317 0
171 -178 -186 0
53 -97 -65 0
-252 289 263 0
-333 324 -335 0
145 120 125 0
-293 271 295 0
165 -171 161 0
-164 -197 200 0
153 -176 162 0
220 250 241 0
-243 -248 -234 0
-312 311 307 0
-180 -170 176 0
-459 -455 -468 0
-441 413 -404 0
-371 374 -377 0
493 -455 -477 0
165 -189 -184 0
290 252 267 0
188 -174 200 0
179 -198 184 0
206 227 -203 0
297 -273 285 0
399 365 -381 0
-20 -21 29 0
-267 -260 266 0
-244 222 -242 0
-219 -235 202 0
157 170 -176 0
175 -190 -158 0
-20 -27 33 0
-149 -117 -124 0
-20 -9 -13 0
-437 434 425 0
279 297 -275 0
420 431 -428 0
390 351 366 0
-29 -21 -17 0
260 276 -296 0
436 410 -422 0
-477 489 -496 0
-184 -173 -174 0
-161 -153 155 0
305 -307 349 0
86 83 -87 0
177 169 -163 0
414 -427 419 0
62 97 56 0
460 -498 -464 0
293 268 -284 0
48 -27 23 0
28 -11 -29 0
459 456 488 0
-319 -339 -313 0
274 -284 -275 0
-403 431 -416 0
159 -185 -200 0
12 9 33 0
-42 -49 -6 0
374 352 -366 0
-293 261 -269 0
23 32 -27 0
-235 247 206 0
318 -325 349 0
343 308 -333 0
208 -225 202 0
146 106 115 0
326 -337 339 0
443 -438 -446 0
-162 -166 181 0
207 -205 -232 0
469 499 -454 0
158 -166 -199 0
-56 -98 -68 0
19 38 40 0
295 -277 253 0
-27 -32 -45 0
-74 -79 -70 0
465 489 467 0
48 23 -10 0
362 386 -355 0
-43 -46 -27 0
-68 -74 -53 0
277 -290 266 0
-15 -13 -9 0
372 381 352 0
-369 395 -383 0
-333 -317 344 0
266 -281 291 0
-276 296 -285 0
157 158 -166 0
339 321 -338 0
358 -365 353 0
-85 51 57 0
-272 280 256 0
-281 289 -260 0
-67 81 91 0
-27 22 43 0
-60 73 59 0
222 -249 -205 0
372 -400 378 0
103 109 131 0
115 -130 113 0
235 -232 -236 0
330 339 322 0
476 459 -500 0
-298 253 287 0
-429 439 -410 0
-24 33 30 0
-361 376 -394 0
-232 -231 242 0
-400 385 -389 0
-191 -174 160 0
-188 -159 -163 0
-438 -405 413 0
-180 169 -176 0
109 123 -114 0
-465 479 470 0
62 -77 74 0
-461 492 -495 0
84 -98 -85 0
66 85 -60 0
235 202 250 0
231 -215 -223 0
-387 362 396 0
-275 -272 287 0
-259 -255 265 0
-406 -410 443 0
120 -102 106 0
-50 -49 17 0
-434 413 -429 0
-356 -395 -394 0
54 -82 -77 0
34 -10 35 0
154 -169 174 0
-473 496 459 0
239 233 -242 0
388 -372 391 0
-217 -241 247 0
-82 55 -65 0
-35 11 -17 0
141 -102 107 0
-42 40 -44 0
-223 224 -206 0
-313 -332 -307 0
160 192 190 0
-450 -410 -439 0
-323 -309 320 0
-431 -422 450 0
435 450 -432 0
-198 -154 197 0
-230 -215 208 0
-486 -471 451 0
18 -48 1 0
411 419 402 0
-160 195 -194 0
443 442 -405 0
-287 265 -263 0
201 -230 207 0
-74 76 -72 0
-183 181 157 0
319 339 -321 0
181 -156 -165 0
-272 274 -271 0
-127 -137 114 0
-186 159 -189 0
-44 -41 -1 0
229 221 -223 0
199 -180 191 0
-347 -337 -340 0
-222 247 213 0
-426 -423 439 0
-9 -10 -24 0
-60 92 84 0
-17 -33 -23 0
-439 -406 437 0
161 -154 -170 0
-50 1 -15 0
-348 301 328 0
192 184 156 0
-396 394 352 0
101 111 -108 0
-33 -48 -46 0
-89 55 72 0
-238 -202 -246 0
-259 260 -264 0
-312 -326 -329 0
481 493 489 0
223 216 -231 0
371 383 361 0
-449 429 -424 0
185 -174 -163 0
392 -361 386 0
165 152 -186 0
373 378 386 0
-273 275 288 0
416 433 -427 0
483 -476 -473 0
-231 -238 218 0
-132 -110 120 0
492 -465 496 0
420 -407 423 0
-156 -197 -165 0
42 30 28 0
-65 -56 -79 0
362 -387 359 0
-351 365 384 0
-172 -168 192 0
-365 352 -386 0
-367 -373 -387 0
-48 12 -28 0
-340 -326 346 0
248 204 -229 0
302 -312 330 0
46 49 39 0
307 302 -343 0
-93 -63 -90 0
-176 163 -179 0
75 70 55 0
243 -205 228 0
-79 -68 53 0
259 -273 297 0
-289 297 290 0
443 -405 -431 0
-383 -398 -397 0
-61 82 58 0
112 119 122 0
318 -322 -309 0
-284 254 273 0
-141 118 -138 0
467 457 489 0
-291 -276 -277 0
281 261 286 0
172 197 -180 0
-115 -139 -145 0
-37 8 -10 0
378 368 388 0
-128 -118 -139 0
221 -238 -220 0
-191 -194 -160 0
34 38 21 0
393 -366 386 0
335 -330 -344 0
-56 -52 -91 0
27 -16 20 0
33 -38 36 0
-16 28 -48 0
-376 -379 375 0
-101 -147 -114 0
488 -453 -471 0
453 457 468 0
-158 -155 194 0
404 -411 429 0
-386 381 -378 0
112 115 141 0
-460 465 -483 0
-185 152 183 0
292 -264 -299 0
154 199 194 0
281 287 -276 0
439 407 -419 0
281 280 282 0
198 -199 -175 0
382 -372 -373 0
-488 486 458 0
55 -62 -79 0
159 -169 -160 0
-178 160 166 0
191 -158 174 0
483 -499 463 0
472 495 -465 0
259 -283 -289 0
245 247 -235 0
270 285 -296 0
-205 -234 244 0
-292 258 273 0
-417 440 409 0
394 384 -386 0
384 394 386 0
-120 -146 150 0
376 -372 -391 0
408 -410 427 0
207 248 -224 0
-23 -9 27 0
356 395 361 0
-173 -161 -152 0
411 450 402 0
371 360 -380 0
-464 455 489 0
482 463 480 0
197 163 168 0
174 -182 -166 0
-244 -235 206 0
-324 -318 348 0
-287 270 278 0
59 -72 71 0
218 -228 -212 0
-135 107 150 0
196 -197 169 0
244 212 233 0
321 319 348 0
-389 -356 351 0
-145 -127 103 0
-85 95 61 0
274 -282 -254 0
291 -286 287 0
215 -243 -204 0
133 103 -148 0
73 80 -90 0
393 361 -383 0
-340 -326 330 0
455 485 -491 0
-5 -2 46 0
-179 171 -193 0
67 93 -73 0
-115 -102 120 0
-295 -280 252 0
287 -270 -277 0
133 148 -108 0
-38 -21 -36 0
-152 -196 178 0
395 398 -394 0
401 -410 430 0
266 290 297 0
-209 226 232 0
325 -308 -349 0
-5 15 8 0
437 428 -406 0
7 32 3 0
-128 101 -123 0
159 187 -170 0
-348 -314 327 0
92 85 -86 0
15 -8 2 0
-183 160 151 0
402 442 -414 0
452 466 491 0
107 -122 113 0
416 -424 -434 0
-254 -266 285 0
-148 -140 134 0
422 401 -450 0
251 289 263 0
278 298 269 0
-468 455 456 0
-381 358 375 0
249 -214 207 0
115 -103 -114 0
-11 17 29 0
-375 352 -355 0
-37 14 -46 0
255 274 -279 0
-477 -453 -496 0
313 314 332 0
194 195 -183 0
-109 120 -103 0
219 208 238 0
-61 -59 92 0
20 -4 -46 0
-108 -142 -104 0
-348 -331 -316 0
-435 443 -444 0
-362 354 377 0
-238 208 -239 0
-345 -303 305 0
148 -122 -150 0
32 25 -36 0
-273 -259 261 0
-372 375 374 0
413 -427 449 0
175 -198 -189 0
-353 -377 -389 0
-10 36 48 0
-13 21 11 0
-458 -496 466 0
-304 346 -344 0
-429 448 -419 0
223 236 -204 0
-415 -412 -406 0
170 -184 177 0
-234 -239 -240 0
-245 -213 -250 0
-31 -27 -9 0
275 274 -271 0
-479 -494 -463 0
428 -405 -442 0
-368 390 -388 0
-295 -253 270 0
133 128 -131 0
-416 417 -402 0
-203 219 240 0
-248 -244 -211 0
-461 -458 489 0
-394 396 373 0
-75 -98 -69 0
499 475 -456 0
-102 104 134 0
490 -491 466 0
165 -162 -191 0
-159 198 -181 0
-57 62 -71 0
-19 41 -9 0
112 126 -136 0
277 298 -261 0
-25 42 23 0
233 226 216 0
417 -422 402 0
-303 310 -327 0
-82 76 57 0
-2 -46 30 0
-160 -188 167 0
372 367 394 0
34 -3 4 0
-191 189 153 0
34 2 -27 0
-9 -42 -18 0
-343 349 347 0
64 82 98 0
-379 -390 -373 0
-316 -324 315 0
218 203 -246 0
68 -54 -85 0
-142 -129 -141 0
474 453 471 0
491 452 -451 0
-227 230 -209 0
405 -411 -401 0
394 370 -361 0
155 174 -185 0
-124 120 -115 0
126 136 144 0
-379 357 -389 0
-343 312 -327 0
423 413 431 0
-435 426 -403 0
-378 353 -352 0
230 211 241 0
-469 -464 -489 0
-265 -251 -277 0
-296 -266 -259 0
479 -463 495 0
-232 -210 249 0
-294 -264 296 0
-106 -104 139 0
54 62 -64 0
311 -327 324 0
343 -347 -319 0
-15 20 -40 0
-326 -309 -320 0
195 180 -199 0
212 238 239 0
445 437 448 0
354 -361 356 0
487 -488 -469 0
-125 105 -113 0
-358 393 359 0
-334 -319 314 0
232 -218 234 0
-391 382 -399 0
250 234 245 0
99 97 -66 0
245 223 237 0
-13 39 1 0
-96 -57 -79 0
-367 -371 -369 0
376 368 -352 0
315 320 -333 0
-127 106 115 0
-277 270 -286 0
-33 13 11 0
479 -485 470 0
245 214 208 0
-22 36 35 0
364 381 -373 0
-460 457 481 0
461 -480 474 0
-223 -250 231 0
-335 339 312 0
-212 217 -240 0
59 -62 52 0
14 -43 -47 0
459 -455 -472 0
368 357 379 0
27 -35 -39 0
495 -500 -497 0
-468 -495 -461 0
-352 384 -372 0
-364 -358 -384 0
-61 -54 -98 0
150 118 139 0
269 285 257 0
457 -484 -464 0
-193 -170 190 0
-467 -480 -479 0
372 364 -371 0
175 -168 -171 0
378 -382 -392 0
-361 393 -383 0
438 -419 -431 0
-302 345 -316 0
-283 254 261 0
-165 180 -192 0
101 117 -126 0
25 -4 -43 0
-53 96 85 0
-436 419 -405 0
-239 223 -225 0
-291 -275 289 0
-439 -446 -444 0
370 -388 -392 0
446 423 -421 0
-310 -318 316 0
332 -306 311 0
-7 -49 27 0
-495 -486 477 0
-424 -409 408 0
-377 362 -361 0
-157 -160 164 0
302 -303 -333 0
-135 121 -111 0
342 -308 304 0
-473 -491 -458 0
348 -308 320 0
-414 416 -418 0
497 480 494 0
56 -65 64 0
-381 359 388 0
-287 -258 268 0
476 -493 -499 0
-57 61 68 0
-407 425 418 0
212 208 -221 0
-201 -205 234 0
-9 26 50 0
41 4 16 0
-417 -448 411 0
299 -292 -300 0
-156 -178 -151 0
-75 -79 59 0
-399 371 395 0
417 441 -402 0
-53 51 -79 0
-257 -262 -278 0
473 -464 459 0
-160 -199 -172 0
41 20 31 0
-479 -451 -460 0
243 -234 235 0
420 429 412 0
-341 321 -302 0
-245 -210 246 0
456 460 451 0
170 166 196 0
330 323 -333 0
283 -284 -274 0
-62 86 55 0
-299 -261 297 0
478 451 -489 0
-284 -298 253 0
402 411 403 0
-248 -216 -210 0
-43 37 -46 0
83 98 -64 0
-144 107 -134 0
20 -32 -34 0
-85 61 67 0
-314 337 348 0
-341 -326 344 0
426 -436 444 0
-37 -10 -24 0
256 -292 280 0
-91 75 54 0
-191 173 182 0
-28 30 38 0
