p cnf 200 530
-156 157 168 0
83 -61 86 0
-106 176 15 0
170 -76 174 0
137 -89 33 0
-62 -107 -44 0
-18 -200 22 0
-43 -151 23 0
107 3 -50 0
157 38 177 0
-43 -23 -145 0
-23 34 -150 0
158 -17 37 0
-161 -142 21 0
186 39 -48 0
6 81 -173 0
75 151 -88 0
-120 -12 140 0
-86 36 18 0
80 24 -19 0
12 172 118 0
-100 -60 -137 0
-77 -66 63 0
-9 -31 79 0
167 -52 -94 0
103 -66 -177 0
69 4 -29 0
49 72 -108 0
-34 87 -74 0
-146 28 -164 0
199 79 40 0
-95 -56 -16 0
196 121 -113 0
58 -172 49 0
-80 71 165 0
-171 185 70 0
141 148 -132 0
199 -190 -61 0
50 92 96 0
-92 -125 -10 0
-113 162 132 0
101 -188 -151 0
-47 -193 -124 0
71 161 120 0
-114 -154 135 0
-75 169 -43 0
-50 -91 -141 0
-164 136 54 0
-184 -43 -1 0
-75 -113 36 0
142 -122 146 0
17 -19 -126 0
194 22 191 0
140 -4 -93 0
119 -181 -169 0
185 -196 147 0
9 74 -137 0
73 -6 -74 0
89 -19 -121 0
92 137 -41 0
-179 -132 -58 0
-112 -95 -161 0
-80 115 -146 0
-41 147 70 0
-45 -166 122 0
-115 158 144 0
-140 7 -116 0
-64 -48 89 0
1 31 -109 0
-81 124 -82 0
177 -34 -154 0
-8 157 175 0
-22 -93 -15 0
-60 162 -134 0
-88 42 99 0
172 -177 180 0
-199 34 27 0
121 -58 -183 0
96 195 -128 0
185 57 85 0
-100 -194 132 0
-26 -94 80 0
-105 142 166 0
145 140 -111 0
178 120 -112 0
172 -96 111 0
187 155 46 0
139 127 -23 0
-136 -17 -122 0
-124 -194 -83 0
-77 -41 166 0
132 176 -46 0
89 -28 -164 0
149 -13 138 0
147 166 69 0
185 -174 -172 0
199 115 68 0
-159 53 -122 0
199 -176 -149 0
-144 93 -119 0
14 77 -27 0
-119 91 -58 0
29 -148 17 0
-127 -98 114 0
-146 -157 83 0
23 55 38 0
-39 45 3 0
98 156 107 0
-98 -124 100 0
-145 -34 -158 0
-15 92 -88 0
58 -80 6 0
175 -56 151 0
94 111 179 0
-170 -108 144 0
-61 -158 52 0
-17 -7 -66 0
-118 192 158 0
-88 -71 -63 0
-138 -104 196 0
-16 1 -44 0
131 -14 -190 0
-119 154 7 0
-176 193 -197 0
59 165 -30 0
-178 -23 19 0
134 195 -97 0
-87 -135 -86 0
-52 -115 -149 0
116 -7 90 0
-69 40 -126 0
78 -70 -179 0
73 10 -89 0
-24 126 -72 0
200 44 -156 0
90 -160 -33 0
-183 173 104 0
-8 -29 -177 0
148 155 -68 0
136 -27 47 0
-42 -92 -88 0
84 -154 88 0
-123 157 12 0
117 -193 41 0
-188 -69 190 0
92 -48 34 0
-177 126 -9 0
-107 -125 -196 0
77 -187 160 0
-105 136 25 0
-159 1 105 0
160 -109 77 0
-57 132 37 0
-177 63 111 0
190 -175 149 0
14 129 -67 0
-89 110 112 0
113 193 120 0
-80 -158 100 0
-61 -54 45 0
1 -138 16 0
-187 134 193 0
-167 -63 -160 0
138 158 -59 0
-55 -132 98 0
-175 -111 -190 0
143 40 -176 0
-52 72 177 0
135 76 173 0
-101 95 -57 0
-69 159 190 0
178 -16 -106 0
105 32 71 0
151 43 -154 0
-130 -6 16 0
-25 -11 198 0
-16 -159 83 0
-67 -163 189 0
-103 24 178 0
157 33 28 0
-102 196 -143 0
13 21 -59 0
175 -193 -52 0
-192 -50 91 0
65 38 -153 0
72 -143 -48 0
94 -153 -200 0
34 -96 -111 0
86 -55 -132 0
172 31 39 0
124 -197 -184 0
93 -96 -74 0
149 -185 17 0
74 165 -126 0
-98 -73 71 0
-47 -21 -73 0
-45 150 141 0
-94 125 144 0
-86 -31 -90 0
-189 -168 9 0
178 -128 -161 0
8 -42 -84 0
-168 64 -95 0
-111 -24 -64 0
-177 93 166 0
177 22 -100 0
65 147 9 0
74 -28 -7 0
102 92 160 0
144 -102 -109 0
-18 -184 -154 0
-38 -194 -24 0
44 -73 103 0
-169 -163 -147 0
160 -67 87 0
-50 32 16 0
-132 -194 -145 0
-155 18 -11 0
-156 78 95 0
78 -50 31 0
21 139 9 0
170 -35 -60 0
-187 67 25 0
-162 132 -122 0
119 -84 97 0
138 -72 -15 0
-131 -63 16 0
-30 -140 83 0
-155 -65 12 0
36 -157 111 0
28 185 90 0
-98 -14 -136 0
-35 52 -148 0
-9 -125 -195 0
23 28 197 0
190 -171 66 0
-108 152 -129 0
-65 -102 -187 0
-59 -99 -177 0
-53 -48 -2 0
39 131 44 0
-62 165 88 0
44 32 -125 0
116 118 -80 0
-127 -164 -137 0
66 53 -62 0
-198 -173 96 0
39 -161 -33 0
33 97 -123 0
27 177 -172 0
-63 83 -13 0
170 62 96 0
131 -55 89 0
-128 -117 -102 0
-63 -172 -45 0
58 66 -2 0
-100 -41 -139 0
-32 -155 -37 0
-93 -122 -83 0
-112 47 -37 0
-125 46 11 0
139 38 155 0
-101 -138 -173 0
-2 111 -127 0
-93 175 171 0
57 194 -121 0
196 50 -19 0
161 -94 -176 0
154 120 -122 0
157 -117 -100 0
165 198 54 0
154 24 18 0
-114 26 57 0
57 145 61 0
35 -50 -61 0
193 21 -79 0
-16 77 187 0
-6 12 -54 0
66 -90 -165 0
101 -12 -70 0
-171 -118 45 0
174 97 -127 0
-164 152 75 0
-136 36 -41 0
-8 40 -34 0
-34 -78 -16 0
83 -42 -140 0
13 -196 59 0
-3 -177 -186 0
102 5 -142 0
-124 -74 -140 0
-29 100 89 0
105 -74 194 0
87 99 -43 0
-9 191 -33 0
44 -140 178 0
-115 -133 -168 0
24 -109 -17 0
-32 -184 182 0
-73 87 -199 0
-70 -129 -160 0
-173 182 81 0
79 -192 -172 0
-190 -135 133 0
57 -189 -59 0
-152 32 -172 0
32 -128 -92 0
180 -131 -166 0
-101 60 -21 0
140 3 -152 0
-82 94 163 0
3 -91 32 0
-2 -109 91 0
-11 145 -59 0
185 67 124 0
-117 14 -8 0
137 -107 87 0
-93 200 162 0
-51 -12 -42 0
112 16 -95 0
-164 179 -71 0
-135 82 148 0
116 145 61 0
138 96 -177 0
-57 187 198 0
84 -123 -86 0
-123 75 -109 0
-186 106 -120 0
-14 98 -92 0
-83 -176 -64 0
-60 102 -36 0
73 172 -166 0
-42 73 47 0
-127 33 136 0
-181 191 -50 0
-104 59 -45 0
-17 138 18 0
152 93 197 0
64 -46 -166 0
56 171 172 0
195 188 -150 0
-111 -18 -86 0
-138 164 132 0
-13 120 46 0
149 172 7 0
148 -168 -3 0
-49 -154 -127 0
7 12 -92 0
84 -70 7 0
43 -73 -100 0
-182 158 145 0
173 74 82 0
93 -5 30 0
192 -159 128 0
-36 -138 83 0
87 -51 173 0
-29 155 194 0
74 145 4 0
-73 90 119 0
195 183 186 0
19 116 -188 0
-106 -137 -65 0
-88 122 -188 0
-79 49 80 0
-149 -178 -189 0
-194 155 22 0
54 103 125 0
-82 96 35 0
11 20 -65 0
-27 35 -88 0
137 -82 182 0
-5 -148 73 0
-117 46 -144 0
165 130 32 0
-29 189 -181 0
182 -44 181 0
108 -151 -88 0
70 -59 16 0
88 -71 -73 0
88 150 -171 0
-17 188 -176 0
-12 -80 28 0
-93 -104 -158 0
-85 -189 116 0
-30 69 -119 0
-156 -109 -120 0
-110 83 197 0
42 -160 171 0
79 51 57 0
-38 -192 64 0
115 182 181 0
47 -196 -105 0
198 200 21 0
195 -171 -55 0
50 190 -34 0
-125 79 81 0
-59 200 122 0
-161 -5 128 0
128 30 -160 0
154 80 9 0
186 123 -21 0
-91 -121 105 0
68 173 -92 0
180 -195 66 0
136 90 -62 0
112 183 -168 0
154 -183 48 0
-154 -147 45 0
185 -163 168 0
-186 127 39 0
-124 120 -97 0
82 -64 -192 0
-6 -71 -57 0
154 -94 -39 0
-25 -130 -143 0
56 192 25 0
123 -27 -28 0
109 -11 -140 0
-190 -125 111 0
135 -163 -80 0
-24 -74 13 0
103 -192 -173 0
-91 190 166 0
105 -6 -76 0
130 124 -46 0
-135 -94 63 0
-129 -69 106 0
-41 -3 83 0
160 52 -37 0
125 -155 -68 0
84 138 24 0
-103 52 170 0
-98 148 23 0
83 -52 31 0
-120 -121 68 0
45 107 133 0
134 -105 -128 0
-118 -44 190 0
149 12 174 0
194 113 82 0
143 97 115 0
-14 104 126 0
-104 111 103 0
-44 -172 -123 0
74 -2 -187 0
34 -54 -46 0
42 40 140 0
154 -25 -55 0
-74 -82 200 0
-6 197 69 0
-151 -141 4 0
78 -50 15 0
155 -125 -1 0
198 66 181 0
191 -31 86 0
180 9 142 0
-36 147 -26 0
-188 69 -166 0
-167 -156 31 0
-197 131 -137 0
74 -44 1 0
103 -88 -191 0
-112 -193 -180 0
-5 -132 79 0
146 -138 -132 0
95 -130 -36 0
-40 94 55 0
14 63 -135 0
-128 135 27 0
23 37 -121 0
-94 114 29 0
-44 -164 106 0
-162 -150 40 0
-70 -144 -111 0
-183 168 -164 0
60 -42 64 0
127 -124 -133 0
112 70 -117 0
-55 -152 -25 0
195 196 -69 0
24 112 -92 0
-38 -111 60 0
121 12 -44 0
168 -20 2 0
-147 103 -9 0
156 130 -37 0
45 192 -32 0
-2 -51 -48 0
-13 148 145 0
-168 -44 83 0
-127 -83 -166 0
-181 -198 147 0
117 -7 133 0
-37 -77 184 0
-15 -40 72 0
109 -77 -164 0
28 -92 -118 0
116 -40 184 0
-32 -56 -30 0
-98 -196 -49 0
-186 102 59 0
-121 -141 173 0
72 -103 -59 0
-145 -196 -156 0
-25 102 -1 0
-108 -55 -74 0
158 -30 166 0
33 102 -104 0
24 -157 -194 0
25 200 -64 0
172 -157 -86 0
-50 -120 -95 0
-75 -148 -36 0
-103 104 120 0
-44 -79 11 0
56 -177 -194 0
-189 -69 -133 0
-68 -164 85 0
-7 -153 -157 0
-151 129 -43 0
-76 156 103 0
11 -42 -9 0
-124 -36 38 0
100 -104 46 0
108 -157 102 0
169 148 -139 0
-187 -198 -172 0
118 146 67 0
-90 39 -65 0
-186 -81 150 0
