p cnf 100 260
-85 4 81 0
-9 -3 -31 0
55 6 -22 0
23 -10 22 0
-8 15 -50 0
-16 -31 45 0
99 -26 93 0
-53 -87 9 0
83 77 -3 0
-79 81 -32 0
80 -60 -54 0
47 -36 59 0
23 13 -89 0
94 -72 52 0
-96 -10 -100 0
94 -56 -84 0
-90 62 -67 0
-92 58 -71 0
-24 -36 23 0
54 -14 59 0
77 92 56 0
-14 97 82 0
54 -31 -40 0
92 36 63 0
77 16 81 0
36 -14 -83 0
29 -91 -27 0
-25 81 84 0
-94 -49 -27 0
-68 24 50 0
-52 46 -15 0
-7 -47 -100 0
93 69 19 0
70 -20 41 0
42 99 -29 0
40 -83 -69 0
59 74 8 0
-53 -12 44 0
-32 37 -92 0
81 -9 -93 0
-59 79 -23 0
16 -40 45 0
69 -82 4 0
-22 84 -66 0
75 86 57 0
21 10 -53 0
15 6 -1 0
-64 20 -86 0
90 -63 17 0
78 64 53 0
82 92 -88 0
-74 -69 -39 0
44 -62 45 0
72 -27 82 0
21 27 -94 0
-65 64 54 0
48 86 24 0
69 52 -95 0
19 93 -61 0
-100 75 -96 0
-100 15 62 0
-57 -62 -13 0
-17 22 -41 0
72 46 65 0
81 2 53 0
40 -78 -19 0
6 -53 -73 0
67 -90 23 0
13 -70 -93 0
-86 92 -19 0
97 -58 -60 0
45 13 -86 0
-14 -87 -22 0
25 21 -76 0
95 -13 -15 0
-46 9 3 0
-16 -72 75 0
-50 85 -16 0
-43 3 -64 0
57 90 13 0
-39 -84 -11 0
25 86 88 0
-10 -51 85 0
-43 88 -27 0
-84 95 -56 0
-8 17 79 0
-35 68 46 0
60 -34 -20 0
-51 -89 31 0
-61 -93 -88 0
-100 -47 -6 0
68 82 26 0
46 67 50 0
65 15 -7 0
-46 17 -81 0
81 66 42 0
38 -54 46 0
40 3 -71 0
4 54 -77 0
-89 28 -27 0
3 57 97 0
-64 94 -41 0
-56 -53 38 0
-88 -10 40 0
65 -85 83 0
-45 52 -6 0
-96 74 -97 0
47 -65 43 0
38 31 -40 0
-51 90 -25 0
47 82 69 0
-49 -72 32 0
-49 9 91 0
-41 -21 67 0
-63 -27 84 0
26 93 -51 0
-87 64 83 0
67 -69 39 0
-86 46 63 0
-15 89 -57 0
70 -32 25 0
40 -55 9 0
23 -27 61 0
-96 11 -38 0
-45 53 -12 0
-71 -73 -56 0
-82 -90 9 0
-67 -97 -49 0
-49 -5 -60 0
34 33 13 0
43 50 -82 0
-55 11 -60 0
-28 -47 53 0
-13 -44 68 0
39 77 15 0
-95 11 -2 0
68 31 -72 0
12 61 -3 0
36 48 -56 0
-14 73 -46 0
-84 42 81 0
-85 -37 9 0
11 23 99 0
40 77 3 0
-20 -74 5 0
48 63 22 0
41 48 -87 0
-8 94 -31 0
-66 -19 34 0
-73 -42 -63 0
-3 88 93 0
93 -92 -14 0
-30 -42 97 0
-22 73 42 0
21 24 65 0
75 -14 -40 0
28 42 -73 0
69 -55 24 0
58 10 31 0
31 -97 -24 0
47 2 37 0
84 42 24 0
98 -47 84 0
55 -100 -11 0
5 -51 -4 0
80 100 54 0
-31 58 32 0
-44 82 99 0
10 -67 -91 0
-83 74 16 0
89 -42 50 0
11 -80 -3 0
27 -78 -52 0
-78 -88 56 0
-32 63 65 0
-39 54 100 0
63 -6 54 0
23 -93 -76 0
-18 41 -34 0
-45 26 7 0
89 27 44 0
-57 8 69 0
-57 -97 -28 0
38 26 -80 0
89 -46 -90 0
-5 64 56 0
-89 17 -31 0
-18 -66 -39 0
1 -66 -98 0
-29 78 -40 0
-27 33 -31 0
97 -70 -21 0
12 -43 87 0
-56 90 -48 0
49 -52 -68 0
88 44 -28 0
21 -100 -36 0
-80 -14 37 0
-47 -90 -5 0
62 -53 73 0
3 28 -23 0
1 31 44 0
-55 66 69 0
-15 -51 -52 0
-29 20 96 0
34 26 78 0
-67 59 -16 0
-30 -55 36 0
11 -7 -23 0
69 -32 -99 0
14 82 -28 0
78 5 -3 0
52 54 82 0
94 7 84 0
1 -62 -88 0
35 64 -80 0
-27 -80 72 0
14 76 -10 0
78 -23 36 0
-67 63 -45 0
-73 -85 18 0
58 -39 28 0
58 -29 -33 0
34 53 -38 0
-29 91 37 0
19 54 -79 0
94 15 -77 0
54 -14 5 0
38 78 77 0
16 15 -2 0
-83 45 89 0
-21 -100 34 0
-16 -58 88 0
-86 -29 -62 0
11 -47 -4 0
15 88 -89 0
-5 59 -17 0
22 -70 28 0
-50 -57 -26 0
-25 21 -10 0
-60 18 -44 0
-64 48 63 0
-30 69 -10 0
-45 44 98 0
62 -2 -100 0
-92 -78 -27 0
-86 -98 56 0
-49 -65 33 0
97 -81 -88 0
72 -51 -71 0
-47 70 55 0
-23 -15 -52 0
64 9 72 0
81 18 57 0
-25 98 47 0
-66 37 14 0
4 -85 -26 0
-93 62 43 0
45 19 -41 0
-17 -56 40 0
