p cnf 100 260
12 71 -44 0
100 71 -44 0
-12 84 32 0
50 65 -5 0
21 -50 93 0
15 83 21 0
23 72 89 0
54 -15 59 0
-58 -5 55 0
-9 -20 -68 0
88 -82 86 0
79 43 97 0
-71 99 73 0
77 -41 98 0
71 39 -83 0
54 86 -14 0
-96 95 -7 0
-65 -56 27 0
-80 -77 75 0
3 -69 -43 0
-27 -58 -51 0
26 -2 62 0
-7 49 92 0
-51 80 -66 0
-43 23 -61 0
-71 86 14 0
-66 -48 -12 0
-95 -99 52 0
-32 -94 77 0
36 -88 47 0
-89 93 -31 0
-39 47 -94 0
21 -75 -30 0
29 -83 6 0
-96 -5 51 0
-70 43 88 0
84 -27 85 0
-60 -33 -31 0
-71 -100 77 0
82 -78 13 0
90 -61 45 0
-72 -50 -79 0
8 -100 -94 0
-14 -64 77 0
53 83 -14 0
2 42 -41 0
55 51 92 0
2 -47 -51 0
-18 -3 45 0
41 79 81 0
-82 -34 98 0
81 -48 21 0
-10 16 -21 0
-81 28 -16 0
51 77 48 0
36 33 58 0
-5 -44 -56 0
-73 -77 54 0
99 49 -83 0
-29 -68 13 0
60 29 -31 0
-88 50 -7 0
-31 50 -47 0
32 30 4 0
80 -12 14 0
-6 95 -23 0
-9 29 -81 0
-54 35 87 0
-84 83 14 0
59 67 -15 0
6 18 76 0
-23 82 -44 0
88 -24 27 0
84 5 -26 0
53 14 -73 0
38 -6 65 0
-87 -32 -56 0
-75 -91 -87 0
-11 -35 28 0
7 -77 -72 0
-25 -11 95 0
-41 -29 -27 0
-10 -23 59 0
-33 11 56 0
64 99 89 0
75 -14 29 0
-39 -23 -20 0
71 85 -63 0
74 -82 7 0
24 63 -33 0
66 -73 99 0
68 9 -15 0
-56 9 25 0
14 -32 19 0
30 -35 79 0
-97 -70 62 0
21 -60 75 0
28 -77 34 0
-2 -37 79 0
98 57 -30 0
-95 74 -35 0
18 52 67 0
-29 56 -98 0
22 -10 52 0
66 -68 35 0
58 -43 65 0
-77 -39 50 0
58 60 98 0
34 -62 43 0
55 -47 21 0
50 -97 21 0
-44 95 92 0
74 -20 41 0
37 77 -1 0
-59 45 11 0
77 -34 -48 0
-32 -84 62 0
64 66 -73 0
-55 -50 6 0
75 24 76 0
53 -33 82 0
-25 -36 79 0
-76 92 -42 0
-74 -17 69 0
97 15 32 0
94 68 32 0
47 -8 -94 0
89 -80 79 0
1 -99 -45 0
-43 -37 5 0
13 95 56 0
39 53 -30 0
89 12 71 0
-62 -22 34 0
13 -28 77 0
-53 -83 28 0
78 -36 81 0
-72 11 71 0
52 72 17 0
-67 54 -45 0
14 -94 56 0
96 -76 92 0
41 -78 100 0
60 -1 82 0
-59 -85 -25 0
-49 -96 42 0
-30 -23 6 0
-82 -6 -85 0
-58 -100 32 0
53 -22 29 0
61 -81 -32 0
-81 -90 -43 0
-7 51 57 0
34 25 -35 0
-96 71 -33 0
-71 -43 -7 0
-52 72 -38 0
46 29 27 0
-34 -97 25 0
59 18 -75 0
28 91 8 0
-21 -80 96 0
-29 62 -43 0
-30 87 -61 0
-76 7 83 0
75 -86 12 0
-88 65 -71 0
-71 13 -27 0
45 99 -6 0
-47 -91 2 0
-51 -1 21 0
-70 -13 -27 0
-95 -94 77 0
10 5 -88 0
91 77 45 0
27 17 -83 0
-80 -25 -26 0
-93 -2 89 0
-22 -89 -57 0
-28 86 40 0
-23 82 -25 0
-62 38 -98 0
2 -8 90 0
-2 29 71 0
-23 -83 -7 0
8 -84 44 0
-49 -5 -25 0
23 29 75 0
13 -42 34 0
-96 -73 32 0
20 6 -39 0
43 2 40 0
-7 -28 99 0
-60 3 78 0
-19 1 84 0
24 -63 32 0
25 43 64 0
-44 84 -9 0
-89 -26 -91 0
84 -54 -27 0
-47 -69 55 0
-62 -65 -45 0
76 -70 68 0
36 29 50 0
-51 -67 94 0
-14 -77 -99 0
-16 -57 -43 0
-94 86 73 0
13 23 -48 0
33 8 70 0
9 68 92 0
83 48 -9 0
30 47 -44 0
-24 -31 100 0
-89 71 10 0
11 36 -58 0
81 63 -43 0
-59 -54 27 0
-45 89 1 0
-80 41 -81 0
-40 -49 -59 0
43 67 75 0
7 41 -65 0
-64 74 -21 0
6 70 7 0
100 -13 66 0
100 -67 -17 0
80 92 -54 0
-47 21 -3 0
58 75 46 0
-16 -62 -73 0
36 28 35 0
90 39 -52 0
51 -9 -79 0
-75 -8 79 0
-65 1 52 0
29 17 10 0
-16 44 35 0
95 69 62 0
15 18 -81 0
-6 -40 -34 0
-80 -79 -60 0
99 43 11 0
32 50 13 0
42 29 -92 0
-20 -57 16 0
-63 -45 95 0
-5 -39 -27 0
29 83 -80 0
-9 -87 -66 0
-46 -38 44 0
-9 88 -61 0
41 9 -87 0
-57 20 86 0
-68 8 21 0
65 68 71 0
-99 -85 -30 0
18 -12 -84 0
-21 -38 -11 0
-42 -9 -100 0
