p cnf 200 830
166 16 11 0
189 -105 67 0
112 26 -15 0
-115 19 -68 0
186 66 -113 0
44 196 -28 0
-76 106 177 0
100 193 -130 0
-145 45 -137 0
-183 101 136 0
-16 -197 -160 0
-52 -164 145 0
-6 -98 1 0
-93 -79 41 0
-131 -27 126 0
165 -32 173 0
53 -136 109 0
192 75 117 0
150 -14 -76 0
61 -88 50 0
78 45 -183 0
65 -117 -7 0
178 -4 136 0
132 -160 -70 0
-153 90 151 0
-176 44 -87 0
162 -27 -196 0
-177 -102 -173 0
-7 109 -97 0
-159 7 -34 0
-81 -25 65 0
-52 -126 -81 0
63 -23 -151 0
76 143 -41 0
-30 -136 163 0
-149 37 173 0
193 -133 -118 0
157 -32 47 0
88 -172 2 0
172 -155 -22 0
196 25 102 0
144 61 155 0
-6 173 185 0
159 95 164 0
-129 -163 -157 0
88 61 -65 0
-95 13 135 0
-90 -18 -175 0
-2 -188 154 0
-50 162 -42 0
47 35 71 0
-35 31 21 0
73 -31 159 0
11 -128 53 0
99 46 -139 0
4 -54 -18 0
-135 -56 -197 0
179 84 34 0
-89 -175 -58 0
-77 -117 -62 0
62 188 195 0
-193 -75 61 0
78 181 -103 0
192 27 28 0
163 -189 -113 0
100 -146 -174 0
102 -67 132 0
175 79 -61 0
-148 199 -29 0
-73 64 82 0
-21 -145 33 0
-62 151 -94 0
-164 21 -126 0
110 145 168 0
194 -27 -12 0
-33 -102 54 0
132 114 59 0
177 -64 179 0
-155 -62 2 0
87 -89 180 0
151 28 61 0
45 -10 -143 0
46 -21 -88 0
-187 -149 -17 0
108 194 199 0
-19 62 99 0
99 -85 -126 0
-32 -196 -52 0
-145 -194 120 0
184 28 -95 0
190 -130 96 0
104 184 -69 0
-81 -90 92 0
3 88 155 0
141 153 -36 0
198 192 -104 0
19 -62 -128 0
-38 -154 -6 0
-195 104 160 0
-65 -145 -147 0
-130 -165 161 0
47 160 46 0
-17 -98 -179 0
-105 14 -156 0
171 13 -143 0
26 -112 3 0
-175 180 88 0
-89 -73 145 0
164 113 18 0
-93 -149 114 0
171 -104 196 0
82 108 -94 0
-103 49 101 0
84 56 -148 0
57 170 89 0
147 172 -140 0
5 -84 -76 0
-56 51 90 0
158 93 -190 0
93 178 -11 0
17 -63 -44 0
142 171 72 0
-125 -20 -110 0
188 133 194 0
-33 -101 -83 0
-62 3 195 0
154 118 104 0
-72 -106 198 0
-188 -115 -75 0
-182 -43 49 0
60 83 -63 0
183 57 -61 0
-25 -130 -100 0
149 24 -21 0
-42 156 -20 0
-41 86 -180 0
-121 -167 -197 0
129 133 175 0
13 -173 -137 0
158 159 41 0
182 4 -25 0
81 122 40 0
124 -116 -121 0
27 -50 17 0
79 51 -149 0
162 -138 -129 0
95 -58 -33 0
-106 -25 192 0
29 24 106 0
71 -5 27 0
-21 -75 136 0
47 -72 -32 0
21 -162 182 0
-44 80 -104 0
100 11 -165 0
36 84 -127 0
41 30 147 0
-57 -87 22 0
92 -56 152 0
110 -195 -147 0
-109 43 187 0
139 -7 -148 0
41 161 -174 0
-126 21 -98 0
28 -174 59 0
27 133 -79 0
109 114 -164 0
41 -86 78 0
-181 -84 -30 0
-52 -185 107 0
89 30 -164 0
-70 -128 -34 0
-37 -88 -56 0
13 -127 -52 0
-176 27 -17 0
93 -111 116 0
156 107 192 0
-178 -184 -185 0
60 -79 -66 0
-61 39 -123 0
146 173 -72 0
197 -166 96 0
129 -123 -118 0
179 132 50 0
159 -182 160 0
-92 -51 -69 0
-197 -184 -156 0
76 17 -127 0
104 -189 -22 0
82 104 -101 0
-35 46 51 0
99 66 142 0
-15 -178 96 0
50 -46 55 0
114 189 -94 0
60 148 -40 0
150 -84 196 0
94 -175 -61 0
-169 181 3 0
81 -185 -177 0
-111 -91 143 0
13 -145 68 0
116 -145 -75 0
10 -127 195 0
140 83 82 0
-41 -89 -179 0
-31 -192 75 0
-182 -117 -144 0
-1 136 -146 0
-146 -45 180 0
-17 141 32 0
151 -143 23 0
-60 145 -137 0
11 -167 150 0
73 154 106 0
-137 -31 20 0
32 -43 -71 0
14 -103 -76 0
181 -187 -100 0
-129 -195 118 0
135 -21 -128 0
-46 -106 -111 0
-57 177 2 0
117 160 120 0
-76 160 -70 0
10 59 -61 0
133 -121 -31 0
103 79 -37 0
-39 193 10 0
-52 88 -154 0
-35 38 115 0
-190 -32 -90 0
31 101 21 0
-123 -83 120 0
126 46 -38 0
-196 81 76 0
-43 152 -90 0
-23 -101 180 0
24 -28 -177 0
-173 138 -44 0
-200 162 -141 0
-200 53 68 0
-161 37 147 0
-5 90 171 0
-176 35 33 0
92 -124 200 0
-32 -76 -72 0
-102 41 23 0
-93 173 123 0
10 -102 164 0
-174 97 161 0
-183 40 21 0
84 154 -189 0
-76 -167 -193 0
-51 196 -1 0
-34 -128 -167 0
13 136 170 0
128 111 57 0
76 108 183 0
160 -188 126 0
-120 9 -70 0
-26 113 34 0
161 -163 -92 0
169 39 -42 0
178 135 -41 0
-120 -100 -23 0
110 71 23 0
-81 67 31 0
65 -94 167 0
149 88 128 0
-42 -121 -97 0
10 23 4 0
-172 -134 166 0
91 110 105 0
96 -176 91 0
107 19 58 0
-75 13 -143 0
-193 131 85 0
-196 158 142 0
154 -140 -5 0
84 -189 -159 0
-65 59 -120 0
34 -119 109 0
164 -185 67 0
-131 -191 7 0
53 83 -13 0
22 123 -55 0
-147 -180 -93 0
-174 64 -48 0
149 55 150 0
130 -191 -147 0
-29 21 -16 0
176 125 183 0
-135 -46 176 0
96 111 -157 0
-79 181 -101 0
-178 -171 78 0
126 26 -168 0
88 106 75 0
-72 -7 -71 0
-72 -85 149 0
73 39 150 0
-98 4 65 0
173 70 177 0
198 -20 160 0
57 199 -98 0
195 182 -148 0
173 -9 -100 0
-159 -26 22 0
128 54 106 0
-133 -167 146 0
8 -158 -27 0
-111 -179 -19 0
-181 -54 143 0
-7 9 -37 0
149 -95 66 0
178 -37 45 0
-58 87 -77 0
-21 37 157 0
-93 25 95 0
31 -54 -134 0
-42 -48 34 0
-77 -180 126 0
-122 -112 -130 0
189 95 -21 0
79 -114 -45 0
-149 -51 -190 0
185 -113 104 0
134 -118 78 0
138 172 -15 0
155 -183 -38 0
37 -147 -4 0
-94 -65 -97 0
85 -148 -24 0
193 -96 198 0
144 36 -61 0
83 -192 40 0
137 -133 -39 0
179 166 173 0
-2 -153 86 0
-122 -178 -47 0
143 5 -70 0
33 2 119 0
63 91 -190 0
-7 121 191 0
-175 -46 -3 0
-158 75 -179 0
-50 -7 158 0
-57 -90 101 0
86 -117 14 0
-180 -162 44 0
184 167 27 0
-82 -52 161 0
165 90 148 0
-153 -161 -13 0
-173 -89 -73 0
-36 6 -68 0
33 -169 -127 0
50 -100 -149 0
185 -55 -180 0
79 -172 -43 0
-134 78 -163 0
32 197 -40 0
13 -37 -93 0
-2 -61 -10 0
99 -47 -72 0
1 95 -132 0
-143 89 11 0
197 120 -54 0
92 -168 -83 0
151 53 -156 0
108 -148 -169 0
131 66 -42 0
-75 24 88 0
170 -61 179 0
-196 93 91 0
73 -126 112 0
-53 -15 67 0
18 -84 -145 0
-194 -109 -93 0
31 -61 115 0
165 179 -11 0
-56 -25 59 0
-165 134 31 0
186 -17 -52 0
9 27 79 0
-170 -131 139 0
-53 -56 5 0
-60 -166 182 0
153 137 71 0
-134 155 -193 0
-70 -199 31 0
-189 -127 136 0
123 94 175 0
22 -191 53 0
-72 -17 -52 0
-39 -76 29 0
78 183 112 0
-146 -177 -80 0
-173 97 -8 0
119 -142 -153 0
-96 58 -13 0
6 -113 -193 0
109 -45 62 0
65 115 108 0
160 133 117 0
37 -83 -1 0
163 176 -104 0
84 196 -66 0
55 182 195 0
155 -190 93 0
137 12 122 0
-179 -16 -18 0
-26 -136 -149 0
162 -135 53 0
158 188 25 0
-38 156 -49 0
33 196 -73 0
-18 -2 -61 0
-152 8 -95 0
-25 -79 146 0
144 -151 34 0
174 145 -60 0
-175 109 -72 0
54 -48 -70 0
-85 -189 54 0
69 -43 -161 0
-128 68 -161 0
-160 76 36 0
166 77 130 0
36 32 170 0
199 54 85 0
-114 -182 156 0
-157 182 75 0
-110 78 -31 0
89 -188 -94 0
130 75 -48 0
38 176 193 0
-143 6 39 0
44 71 -132 0
-185 -159 -88 0
180 86 114 0
-172 40 -80 0
9 -7 -72 0
-133 89 14 0
-46 -141 92 0
145 105 69 0
145 -111 -63 0
-21 -65 64 0
63 78 -14 0
3 142 78 0
-111 -157 6 0
16 -163 118 0
-11 -151 189 0
118 159 125 0
170 39 -134 0
119 -45 69 0
-185 -57 -120 0
34 -169 80 0
6 117 -31 0
-2 -196 112 0
198 -5 195 0
15 -20 102 0
-170 176 86 0
-166 61 -148 0
-151 161 -74 0
-94 -30 -106 0
-152 86 67 0
-133 -167 -127 0
-93 -61 183 0
-87 52 -142 0
37 -9 -74 0
-56 162 -130 0
-163 -92 119 0
-138 -189 179 0
200 -50 -53 0
-84 34 21 0
109 -121 131 0
70 -15 -160 0
80 -31 142 0
-136 196 10 0
60 -104 -46 0
59 129 -57 0
-56 129 197 0
145 -110 198 0
-31 190 -16 0
-193 -183 119 0
-128 15 100 0
-37 97 131 0
-97 152 181 0
157 -11 169 0
116 167 108 0
36 136 149 0
58 136 86 0
-155 -194 192 0
178 80 21 0
95 73 -128 0
123 2 160 0
-32 23 -26 0
-78 -8 122 0
-52 -128 149 0
146 163 9 0
148 153 27 0
37 168 121 0
-87 -39 -109 0
-47 -135 -36 0
72 -27 120 0
163 73 -89 0
102 166 134 0
31 -120 29 0
-129 -6 -185 0
-101 165 99 0
108 63 -147 0
-126 -41 144 0
-24 119 -102 0
-7 198 -165 0
-168 -85 -13 0
69 -71 -92 0
62 -194 92 0
17 107 -105 0
72 -64 -149 0
-179 43 111 0
-69 125 144 0
-83 104 -107 0
73 -130 67 0
-132 1 -133 0
-187 6 46 0
-119 -98 -191 0
-41 -57 -98 0
-10 -173 11 0
100 -18 -133 0
63 -188 -9 0
75 177 -117 0
140 76 -22 0
-12 -67 -181 0
-51 -86 -172 0
-56 -190 139 0
-181 -55 148 0
-101 -145 -130 0
69 -115 167 0
-40 9 156 0
108 83 -118 0
-112 86 58 0
60 55 -13 0
-161 134 -118 0
157 -130 141 0
197 -58 -30 0
-51 -87 4 0
113 200 143 0
-63 115 -26 0
-182 -58 -159 0
133 167 140 0
86 57 92 0
89 -165 163 0
194 1 13 0
92 189 -66 0
170 -153 -38 0
-90 17 191 0
157 -80 -173 0
-132 111 107 0
-145 12 48 0
-99 33 119 0
79 14 -186 0
-198 20 23 0
-33 -194 176 0
-181 96 183 0
-137 -33 -26 0
14 -29 -136 0
-2 99 -145 0
-76 -15 62 0
-45 168 164 0
-129 -63 -182 0
18 -121 61 0
75 -105 182 0
-35 103 -6 0
-87 97 -102 0
-52 -13 22 0
-76 -53 32 0
80 -136 57 0
-158 104 18 0
67 152 -106 0
63 -66 15 0
-34 -192 -186 0
-53 -122 -111 0
84 -34 -74 0
-31 51 16 0
-124 -60 95 0
141 -161 -139 0
139 -143 171 0
-194 123 169 0
-42 -41 -39 0
-164 -140 -179 0
-200 -126 193 0
-33 161 128 0
36 35 130 0
-65 -157 162 0
51 -175 178 0
174 72 -136 0
-141 13 -101 0
-193 -58 -31 0
-198 -82 -111 0
-44 -45 59 0
10 -159 184 0
-101 -78 -31 0
19 72 -168 0
173 -45 -177 0
111 -158 4 0
77 142 72 0
-145 -190 82 0
140 90 -79 0
61 168 -95 0
-160 13 -92 0
-200 155 -14 0
-134 110 80 0
-14 10 -89 0
128 103 -115 0
117 95 145 0
-172 17 -68 0
-88 -123 167 0
-102 -41 -193 0
-15 77 -194 0
-194 63 -51 0
-190 -196 20 0
-135 -196 -145 0
-69 -138 156 0
-9 -119 179 0
107 10 -165 0
47 28 -58 0
163 193 -107 0
-38 -14 79 0
84 52 96 0
-149 97 -83 0
109 83 -194 0
-125 -143 113 0
69 88 185 0
144 -46 33 0
-168 156 -147 0
16 113 124 0
138 -47 -52 0
-35 -2 -123 0
145 171 -51 0
-38 19 27 0
-17 -72 -79 0
84 -166 11 0
102 10 124 0
-187 188 64 0
-5 -180 -10 0
76 5 -182 0
-34 -179 -97 0
31 32 -144 0
-179 40 -83 0
15 -52 62 0
-21 109 98 0
-84 -150 -155 0
79 67 -66 0
-44 -14 -69 0
-193 -12 55 0
-78 -132 -144 0
-44 -194 188 0
57 26 137 0
-66 179 -65 0
164 -158 -107 0
10 -142 22 0
67 126 75 0
194 -51 68 0
23 126 168 0
-166 38 130 0
-67 -6 165 0
189 -75 -172 0
-85 153 56 0
84 -17 5 0
-179 59 -47 0
-1 -8 185 0
-175 193 118 0
-19 -68 58 0
165 -96 106 0
-24 -109 -161 0
-64 -143 -176 0
-95 -115 -63 0
130 194 -193 0
-47 43 -74 0
57 -12 -185 0
-138 93 -87 0
197 90 -140 0
106 80 -65 0
-98 -144 -10 0
-161 -60 137 0
-76 4 111 0
-110 -103 -181 0
-65 -191 89 0
172 181 -185 0
32 -108 -9 0
-39 -122 198 0
-1 -2 105 0
4 174 144 0
-77 -43 -16 0
11 18 -163 0
-11 -98 -83 0
-166 -44 24 0
22 -34 -96 0
162 -14 43 0
-13 -20 -98 0
-175 -191 189 0
181 -105 132 0
103 -155 -9 0
-121 -195 -157 0
-43 113 97 0
126 -85 27 0
-193 12 61 0
-108 -35 34 0
92 -84 -102 0
-139 -2 173 0
-108 77 96 0
105 -182 -75 0
-146 5 -188 0
-100 11 -154 0
182 -166 50 0
-23 -120 125 0
48 152 -187 0
160 -114 32 0
13 -28 -14 0
-18 -20 122 0
28 -17 53 0
-22 -171 -183 0
-75 -189 -23 0
58 164 166 0
-154 37 107 0
154 -23 -2 0
144 74 -102 0
141 -165 -183 0
-136 134 159 0
13 -192 -127 0
-179 -182 -160 0
-37 -158 4 0
-111 182 -60 0
-4 176 -109 0
-165 157 65 0
-91 -90 -138 0
-62 193 -141 0
-78 -31 -6 0
-188 -158 107 0
-110 31 54 0
55 158 -36 0
72 -91 -34 0
-160 77 -134 0
-34 68 199 0
163 -11 145 0
52 143 -142 0
-61 197 140 0
63 27 -14 0
19 -36 34 0
-125 161 -84 0
-144 -121 155 0
167 155 49 0
87 -90 193 0
-170 -41 -135 0
119 162 60 0
-107 72 33 0
-47 108 -178 0
147 -171 62 0
128 -66 10 0
180 174 107 0
-148 -193 -174 0
-73 -61 -197 0
-45 142 -52 0
82 179 187 0
-62 51 189 0
197 88 200 0
-107 -96 189 0
45 -72 -159 0
-45 129 -132 0
-4 -76 108 0
-172 -113 -162 0
-188 187 -3 0
195 -153 90 0
35 170 -61 0
-26 -97 69 0
27 11 -88 0
53 -13 101 0
183 -87 152 0
160 8 -103 0
146 178 -20 0
-38 89 -144 0
125 -47 71 0
-48 106 -162 0
-84 -2 -74 0
161 159 134 0
147 103 98 0
8 69 -95 0
-42 150 -145 0
92 28 167 0
-172 -174 -36 0
-169 48 196 0
39 62 -7 0
-43 -16 -33 0
-18 -45 92 0
-95 20 129 0
94 -116 164 0
82 -108 -12 0
155 -193 46 0
-25 94 142 0
18 50 -85 0
162 -141 113 0
129 -115 133 0
130 51 -176 0
-199 148 70 0
156 97 -113 0
-108 -124 155 0
-58 115 189 0
139 -118 -25 0
108 90 76 0
167 -34 144 0
-13 -132 -114 0
-28 -43 63 0
132 -19 133 0
109 -172 168 0
-98 8 -164 0
-80 56 20 0
88 -183 -185 0
112 -50 -150 0
123 187 162 0
190 33 -142 0
-191 -79 99 0
110 59 -130 0
43 44 177 0
178 50 159 0
-150 -134 -160 0
199 -59 -152 0
-56 -179 -58 0
-119 -61 -134 0
