c Modularity-based k-CNF Generator (V2.0). J. Giraldez-Cru and J. Levy
c   value n = 200
c   value m = 980
c   value k = 3
c   value Q = 0.7
c   value c = 10
c   value seed = 58
p cnf 200 980
114 112 -108 0
-153 160 -143 0
102 105 103 0
-77 71 -68 0
21 -33 -30 0
130 140 -128 0
-175 163 180 0
-87 86 -81 0
14 15 -3 0
-152 -157 -158 0
-178 169 -170 0
100 177 -29 0
-103 108 115 0
47 51 -54 0
-108 119 115 0
-112 -115 -116 0
-97 91 89 0
162 -167 -170 0
-36 77 139 0
-132 -72 93 0
80 -70 67 0
-64 -73 -62 0
56 41 -49 0
143 -141 -154 0
175 68 38 0
-11 17 -4 0
-141 -77 -172 0
6 20 -8 0
-90 -94 -100 0
-41 -167 182 0
-86 84 -92 0
24 29 35 0
-5 -187 -110 0
-180 -89 -183 0
174 167 -176 0
13 12 -3 0
-58 -56 44 0
131 -134 125 0
-73 79 -64 0
-178 -167 -171 0
-53 -150 14 0
79 105 -90 0
68 -72 79 0
64 77 74 0
12 -16 -10 0
168 66 26 0
173 -163 167 0
-11 9 14 0
-126 -134 129 0
145 -154 148 0
-124 -126 134 0
121 127 -132 0
116 105 104 0
126 124 131 0
-196 187 -188 0
104 -113 -101 0
172 159 72 0
115 114 -103 0
158 145 154 0
-144 -147 -151 0
110 -118 101 0
51 -19 -27 0
170 166 -174 0
168 166 -176 0
181 -188 189 0
-55 47 57 0
-135 -132 -130 0
-84 -98 95 0
-3 -12 -16 0
-134 -136 132 0
53 -42 -60 0
154 147 -144 0
-152 157 -142 0
58 -57 -52 0
195 186 -181 0
62 151 108 0
61 65 -64 0
-151 -154 -148 0
136 133 -130 0
-198 -182 193 0
150 164 -199 0
-98 185 65 0
154 152 150 0
-10 -4 7 0
97 96 95 0
-142 -158 -153 0
24 -23 -26 0
109 -136 36 0
-102 -111 -107 0
172 174 165 0
-154 -155 141 0
-73 61 -65 0
43 52 41 0
-182 198 -196 0
-193 -191 -200 0
-168 -162 -172 0
-19 -17 -15 0
-38 36 32 0
-55 -57 47 0
61 -157 84 0
175 -163 177 0
121 -125 -137 0
-65 -52 37 0
-119 -102 -114 0
-191 -199 -188 0
164 -114 16 0
-197 -194 -190 0
36 14 175 0
-182 -185 200 0
-5 15 13 0
70 65 -69 0
154 146 156 0
17 19 -5 0
-140 122 123 0
-5 16 3 0
119 -106 -118 0
-188 -197 -200 0
-134 -135 -129 0
117 119 -120 0
132 127 -130 0
192 109 82 0
72 74 -65 0
198 122 154 0
-193 -187 -186 0
141 50 191 0
-170 -104 121 0
172 164 166 0
-82 81 83 0
-73 -64 78 0
1 -4 10 0
100 83 87 0
22 34 -30 0
127 126 121 0
-103 -102 -119 0
128 130 125 0
9 8 5 0
66 74 -75 0
-137 131 -123 0
115 -101 -118 0
17 5 11 0
78 -76 67 0
114 102 108 0
146 -7 62 0
-15 131 77 0
159 160 142 0
107 113 -104 0
181 -186 -191 0
-90 100 91 0
-118 -28 79 0
-195 -188 -194 0
-162 -165 -176 0
-131 -132 138 0
-190 11 116 0
160 -152 158 0
197 -21 176 0
-196 103 -43 0
66 73 -77 0
59 -41 54 0
-150 -157 147 0
106 114 -107 0
199 181 -191 0
106 119 -108 0
25 34 -40 0
-119 159 31 0
-138 -132 135 0
-188 -187 190 0
55 56 53 0
136 138 122 0
-140 -198 83 0
-200 174 50 0
-60 178 -146 0
33 -27 -25 0
-62 61 71 0
82 -91 99 0
24 138 -56 0
-159 31 82 0
-34 23 38 0
-116 161 160 0
-50 46 -41 0
177 165 176 0
36 35 -27 0
100 -98 -94 0
-99 -88 85 0
-86 98 87 0
176 165 172 0
-88 -81 -89 0
115 -108 -101 0
171 168 -172 0
-23 21 38 0
-103 109 102 0
-159 -140 -163 0
195 198 181 0
22 -146 -53 0
186 182 -184 0
-175 -162 176 0
85 -53 -3 0
-22 34 39 0
118 23 18 0
19 -7 -12 0
-90 89 -86 0
63 186 -150 0
99 1 -151 0
23 -31 -24 0
62 109 -12 0
192 185 195 0
72 66 71 0
-36 -23 31 0
-81 -99 96 0
11 6 -4 0
-105 -104 -108 0
-79 -75 70 0
-183 -197 -195 0
188 -200 -184 0
-139 -138 -135 0
67 77 69 0
25 39 -28 0
7 -42 -27 0
116 102 -120 0
-172 -166 -168 0
-84 -147 55 0
-13 6 -14 0
147 152 151 0
-166 -161 -178 0
-167 20 182 0
109 -111 119 0
173 -170 171 0
116 101 -105 0
28 -27 31 0
167 -11 34 0
174 168 -162 0
104 -117 -119 0
17 187 69 0
-30 -29 31 0
-3 7 13 0
76 -70 -80 0
-87 97 -94 0
182 -192 183 0
-16 -19 10 0
153 -146 -157 0
79 -65 72 0
-45 47 55 0
189 194 -187 0
138 136 130 0
153 148 142 0
114 101 104 0
102 112 117 0
94 -99 -89 0
175 179 -161 0
-116 -111 105 0
119 29 179 0
64 -75 -80 0
-1 -54 -127 0
-145 152 -160 0
162 -168 -163 0
46 51 53 0
171 -166 174 0
1 5 9 0
195 -93 75 0
166 -173 180 0
139 138 122 0
43 -95 -165 0
197 -185 -199 0
14 20 -3 0
-51 -53 57 0
143 141 145 0
-68 -77 -78 0
-7 84 31 0
-195 -194 185 0
-164 180 167 0
-59 45 -47 0
83 90 91 0
-141 -28 -67 0
100 -131 -143 0
134 124 136 0
-160 -141 157 0
-45 -170 157 0
20 16 10 0
176 -63 87 0
-13 -3 16 0
10 8 2 0
-78 77 75 0
-44 -56 46 0
41 91 38 0
-44 57 -45 0
-181 -187 -190 0
-61 20 184 0
39 124 58 0
151 142 160 0
-133 -132 126 0
-25 21 -38 0
43 -48 46 0
-185 -195 199 0
-42 46 56 0
105 189 -136 0
-21 -38 -23 0
192 194 -195 0
138 -121 -133 0
-20 -17 -12 0
-43 50 -44 0
64 76 75 0
104 -118 113 0
-125 128 -138 0
-90 98 -89 0
138 -124 134 0
156 151 153 0
116 112 110 0
133 -121 -131 0
-27 22 21 0
-65 -71 -66 0
-183 192 -193 0
-168 -166 -161 0
-11 -159 -113 0
-15 20 -4 0
-4 1 7 0
-137 -133 -136 0
120 -106 -104 0
-56 54 -44 0
-166 -163 172 0
172 171 -162 0
74 70 -65 0
-122 -123 -134 0
146 -150 -154 0
-27 16 -168 0
-16 -31 119 0
62 -71 -77 0
-146 -150 -141 0
-84 -90 -100 0
-96 -89 -95 0
123 3 57 0
19 8 -2 0
-18 -187 33 0
-168 165 179 0
26 30 28 0
110 -104 -118 0
39 -23 30 0
23 27 -32 0
-141 151 142 0
187 188 181 0
130 142 74 0
72 -76 -63 0
-126 -124 -121 0
53 59 -55 0
-124 121 -134 0
-144 -74 -175 0
56 101 184 0
61 -16 -171 0
-184 -188 -195 0
-105 -197 37 0
-30 31 24 0
-39 25 -21 0
-132 134 -123 0
122 129 -126 0
-15 -18 -3 0
-40 -117 190 0
43 44 -49 0
152 -147 -154 0
-43 53 -51 0
141 -159 142 0
-188 -182 184 0
55 43 -45 0
-89 95 90 0
108 101 111 0
-93 -96 -95 0
-95 88 -96 0
135 132 129 0
137 -11 -99 0
196 -194 -200 0
156 151 -143 0
149 -157 -155 0
196 -55 -20 0
42 -55 -47 0
-157 -149 145 0
-171 -161 -164 0
115 186 -80 0
3 -19 7 0
-38 -173 93 0
186 6 179 0
154 -148 145 0
-189 -194 -185 0
179 -91 67 0
6 34 192 0
84 -85 100 0
-95 -86 89 0
60 -54 43 0
187 -36 51 0
32 -30 35 0
89 94 -81 0
-138 -123 -125 0
175 -45 31 0
175 170 -180 0
-107 -117 104 0
-179 95 -5 0
153 141 152 0
-40 24 36 0
-186 194 198 0
-58 -136 -176 0
-156 158 -154 0
-169 174 -180 0
-140 129 136 0
159 -158 -154 0
120 115 -108 0
-46 52 50 0
94 -163 -198 0
-51 -41 -60 0
40 24 27 0
36 -33 31 0
-25 30 40 0
-109 112 -118 0
112 101 -107 0
52 -183 96 0
174 -169 177 0
169 126 -115 0
15 7 5 0
182 195 -190 0
-193 -199 -184 0
-79 62 74 0
190 181 189 0
117 -116 102 0
-156 150 144 0
185 194 -189 0
-73 75 69 0
160 142 144 0
47 90 -7 0
19 -200 -25 0
-10 -11 -19 0
-105 -63 -188 0
-61 79 -67 0
-50 11 104 0
6 16 11 0
2 -151 -85 0
160 146 154 0
89 90 -85 0
-120 102 109 0
-45 171 185 0
21 7 -54 0
-80 61 63 0
-77 62 -63 0
101 -114 117 0
33 -24 -40 0
3 9 13 0
-196 -90 119 0
-19 14 -17 0
-196 -107 154 0
-195 -197 -196 0
8 -9 -20 0
198 117 169 0
-127 -129 125 0
10 82 146 0
-86 90 -93 0
105 -120 -116 0
11 15 -6 0
34 -30 40 0
160 146 150 0
193 155 -34 0
-23 -22 -24 0
175 -165 164 0
-138 -122 -128 0
-89 81 96 0
-182 198 193 0
46 41 58 0
-41 48 42 0
59 49 -45 0
-7 -72 160 0
189 -180 -108 0
65 -75 -62 0
174 -167 175 0
-13 19 10 0
13 10 -18 0
-172 168 -167 0
-119 118 102 0
-56 -55 53 0
-159 -153 155 0
99 -87 83 0
134 -121 138 0
136 -104 -72 0
-69 -72 68 0
174 176 -165 0
-109 -108 120 0
-114 -141 66 0
54 48 -56 0
39 37 22 0
-40 -38 37 0
-10 22 -122 0
-169 -180 -173 0
135 -123 130 0
198 -186 200 0
-78 159 161 0
-97 -89 -85 0
198 196 188 0
-160 158 144 0
34 -29 -21 0
-120 119 -118 0
148 -147 146 0
-100 -63 -20 0
19 7 18 0
-76 14 -125 0
-82 100 95 0
-161 -180 -176 0
90 -94 91 0
85 -91 86 0
192 -200 -195 0
-102 -106 -112 0
25 -21 -36 0
-169 167 176 0
34 -117 -50 0
-195 -193 -181 0
-79 26 146 0
-127 -126 139 0
19 15 20 0
-71 78 -64 0
133 -131 -125 0
-141 146 -142 0
79 65 64 0
-98 94 -93 0
55 141 134 0
182 5 59 0
-99 -89 -96 0
66 75 -68 0
141 156 -155 0
-158 -147 157 0
57 60 43 0
36 83 -172 0
32 37 35 0
114 103 -104 0
150 160 157 0
-154 145 150 0
72 70 -75 0
143 -159 142 0
33 29 35 0
-187 42 97 0
164 -120 84 0
116 -114 -110 0
-32 21 -33 0
37 -24 38 0
-98 89 -97 0
131 -140 124 0
-127 141 -68 0
114 103 -119 0
-139 121 -122 0
121 -189 -41 0
-87 -100 96 0
183 -187 -189 0
22 27 -24 0
42 -55 -43 0
172 -179 161 0
21 36 25 0
-21 -23 -31 0
-5 3 -19 0
77 -65 -79 0
-161 168 -162 0
-113 106 -116 0
129 -123 133 0
185 -190 182 0
32 115 16 0
-175 -169 -178 0
-151 153 -144 0
-151 154 146 0
114 104 -103 0
147 65 -111 0
-106 -103 -104 0
165 167 -172 0
-177 130 14 0
141 -148 -151 0
31 -26 -38 0
40 -23 -38 0
133 -125 -137 0
1 -4 2 0
110 -116 103 0
-190 198 -185 0
142 -151 -144 0
-199 193 187 0
-12 14 11 0
66 -75 -80 0
-68 63 79 0
-40 -150 -3 0
-85 -97 -83 0
-45 55 46 0
-155 171 14 0
156 -148 -152 0
-143 -147 160 0
-143 -149 144 0
-100 93 96 0
170 -188 -55 0
-188 -185 199 0
-90 94 -92 0
183 190 -199 0
-182 -195 -193 0
196 187 -200 0
181 185 -196 0
76 72 -73 0
114 -103 -119 0
74 80 64 0
-165 177 163 0
-93 -85 82 0
-11 16 -5 0
11 5 -2 0
90 88 89 0
155 153 -157 0
57 55 59 0
53 44 -59 0
172 176 174 0
110 77 -160 0
120 105 -106 0
-178 165 176 0
-3 195 43 0
-54 -44 46 0
-169 179 -178 0
-14 -3 10 0
-186 -196 -198 0
13 -179 -22 0
-56 -59 -60 0
95 86 87 0
44 -46 58 0
-95 98 -92 0
133 -124 -135 0
-145 148 144 0
95 81 99 0
16 -10 19 0
62 -77 -71 0
-57 -56 47 0
-79 -73 -69 0
-5 -12 16 0
-170 -166 -173 0
25 35 -21 0
106 -104 -114 0
82 -154 -73 0
-98 96 81 0
-33 37 -31 0
75 -66 -80 0
143 -79 184 0
-85 96 99 0
188 -187 -200 0
-4 -14 -7 0
33 29 38 0
-18 -98 126 0
166 -37 53 0
141 -156 159 0
-103 -102 -104 0
-96 -92 -94 0
-94 -100 -92 0
-177 -175 178 0
-3 -4 11 0
-106 102 104 0
118 119 -115 0
119 107 111 0
42 56 50 0
39 -30 -29 0
-84 -94 88 0
-29 35 26 0
25 -70 -188 0
33 -24 28 0
32 24 40 0
41 56 50 0
193 137 81 0
-32 34 -21 0
-41 59 -54 0
39 -104 -68 0
-112 -119 -101 0
-49 -60 57 0
-194 -188 183 0
11 -1 13 0
-105 103 108 0
-32 19 89 0
21 -35 26 0
122 138 127 0
-11 118 150 0
66 -73 78 0
11 -16 7 0
68 82 132 0
-153 146 -145 0
-60 139 114 0
-197 -186 194 0
-4 17 -6 0
185 9 -124 0
-192 -193 190 0
-32 38 24 0
4 17 -19 0
-6 72 29 0
-39 37 -26 0
-184 47 141 0
94 96 84 0
175 188 43 0
199 187 -196 0
95 -91 85 0
143 -151 -150 0
108 -120 110 0
-56 96 -117 0
197 -183 -185 0
3 -1 -10 0
-153 -141 158 0
100 94 -85 0
86 95 -89 0
41 -116 -147 0
-183 -190 -185 0
13 2 15 0
-187 199 191 0
28 32 33 0
115 -119 104 0
-19 10 8 0
-30 21 -28 0
-20 -18 -4 0
114 -119 107 0
111 156 72 0
115 -117 105 0
-64 -189 100 0
-17 -3 16 0
-190 -196 186 0
-70 -63 61 0
-183 -131 -113 0
-114 102 101 0
18 -15 10 0
26 22 -31 0
149 158 143 0
189 48 18 0
-151 160 155 0
-15 2 14 0
-143 -144 -150 0
-112 -113 -103 0
-181 99 -170 0
-157 -149 -150 0
2 -20 19 0
-118 188 121 0
161 170 -180 0
72 -74 80 0
119 -102 109 0
-198 187 -196 0
147 -158 -142 0
200 182 -197 0
-105 -101 116 0
99 -87 -90 0
-175 -177 172 0
-61 65 -80 0
80 -75 -74 0
175 172 -180 0
24 -100 134 0
-1 -9 -11 0
134 -131 130 0
90 -20 -68 0
-26 29 -24 0
7 13 -17 0
-51 -50 -43 0
-6 -59 90 0
-143 154 160 0
-60 -55 -58 0
-26 -38 40 0
-85 -47 128 0
18 13 17 0
-10 101 35 0
-158 160 155 0
-86 84 -92 0
-34 -154 -175 0
-68 71 -76 0
107 -147 -22 0
121 -131 -127 0
-161 173 -172 0
-184 -192 -187 0
-132 -138 -130 0
133 -122 138 0
-67 -127 -81 0
-133 126 -139 0
-94 92 93 0
-144 -146 -150 0
87 -39 53 0
61 -78 -71 0
-109 108 -116 0
-68 -119 191 0
131 127 124 0
110 -144 -43 0
-84 -158 29 0
166 107 -194 0
-133 121 -137 0
162 -138 -19 0
40 -23 -24 0
-192 187 185 0
96 91 90 0
117 101 118 0
-98 91 -89 0
-192 -198 -187 0
121 133 -131 0
112 -107 113 0
-187 -192 -190 0
179 155 -87 0
89 84 -100 0
129 137 -128 0
133 -128 132 0
11 -10 19 0
-171 163 -165 0
199 -3 131 0
-150 -145 -159 0
76 126 -180 0
122 135 123 0
-126 139 138 0
-177 163 -171 0
-68 75 80 0
92 -88 91 0
97 91 -88 0
47 -97 168 0
106 93 3 0
-96 98 -82 0
140 157 116 0
-12 1 11 0
45 47 52 0
-63 -68 -78 0
102 118 -108 0
97 89 86 0
-102 6 -62 0
-142 155 -145 0
-171 16 -192 0
46 176 -115 0
-191 182 -185 0
-135 -138 -121 0
-5 -9 4 0
102 101 108 0
44 55 -53 0
-60 -54 -48 0
119 108 107 0
26 29 -31 0
-181 194 197 0
118 -104 105 0
108 -103 -111 0
-122 121 -134 0
-112 107 -113 0
10 -14 -11 0
-84 100 -85 0
58 -27 169 0
-111 -105 -101 0
178 19 25 0
-50 -44 -52 0
-138 -140 122 0
113 103 -118 0
-196 -190 -194 0
-31 34 21 0
-104 -27 -141 0
-157 -149 -143 0
-154 156 158 0
160 -158 -148 0
89 -85 -86 0
-127 -16 -54 0
32 -104 170 0
-147 -159 145 0
169 -32 107 0
23 30 -32 0
188 -110 122 0
49 59 56 0
141 142 147 0
123 -130 -138 0
45 -118 32 0
-151 144 156 0
57 -48 46 0
50 -46 -53 0
76 69 66 0
176 -174 -171 0
-95 -89 98 0
-150 2 -70 0
147 -148 142 0
87 99 89 0
-134 138 137 0
-8 12 -17 0
27 28 -29 0
94 -96 86 0
136 117 -38 0
-56 -49 -42 0
-43 -18 98 0
-49 58 -51 0
67 -63 -71 0
155 196 168 0
-3 -15 6 0
7 173 -136 0
70 64 -61 0
26 119 163 0
-152 -37 -61 0
-136 -133 125 0
83 -82 -91 0
166 -179 178 0
19 -188 50 0
-191 -98 109 0
187 -186 -197 0
192 -196 184 0
-178 173 -164 0
-5 -11 -20 0
19 -18 -17 0
34 30 -31 0
153 -149 145 0
-27 -109 -45 0
-178 173 180 0
-148 -177 126 0
120 -109 117 0
-44 54 -51 0
87 -80 -115 0
165 172 161 0
9 -10 1 0
169 -170 177 0
-171 139 -36 0
14 -101 -196 0
-139 134 131 0
74 53 -38 0
-37 180 187 0
-25 36 37 0
7 -19 3 0
-77 -200 -34 0
-66 75 -77 0
-31 23 -40 0
38 40 -23 0
-99 100 97 0
159 -154 -148 0
-40 27 36 0
-74 194 34 0
-113 107 109 0
-111 -105 112 0
68 -78 -73 0
152 117 -8 0
-31 -36 -23 0
8 4 -16 0
188 -106 -78 0
173 179 168 0
87 -95 -82 0
111 -114 104 0
-140 -136 124 0
47 -48 -54 0
-41 157 -114 0
184 -198 -187 0
-113 -102 -111 0
156 -65 -100 0
-134 -126 -136 0
-70 -66 -69 0
54 -52 -44 0
-2 -17 -16 0
190 -196 193 0
-37 -32 38 0
-34 33 -27 0
32 23 -37 0
-71 66 68 0
60 59 51 0
-81 97 -100 0
88 51 21 0
114 108 -117 0
-179 173 174 0
-101 -118 113 0
200 -184 -196 0
99 -190 158 0
-131 -134 125 0
-43 -60 49 0
-147 -13 138 0
33 -38 39 0
70 -79 -71 0
200 -195 196 0
184 15 -168 0
54 47 56 0
-51 -152 -183 0
-22 25 32 0
-139 -131 126 0
148 -145 -158 0
185 -184 198 0
184 194 182 0
71 -65 -73 0
-106 109 112 0
-177 -125 80 0
60 -50 48 0
177 -180 174 0
147 -149 -158 0
-59 41 -51 0
-170 -124 -152 0
-191 195 -192 0
-99 90 -85 0
-198 -185 -189 0
-99 -90 89 0
25 -28 22 0
-91 -94 98 0
81 95 -88 0
7 -166 -33 0
-31 -51 180 0
-11 16 -8 0
-115 -112 104 0
-156 78 -190 0
-16 3 -13 0
77 -63 74 0
93 -91 86 0
-143 -99 133 0
98 94 81 0
-166 167 -175 0
