p cnf 500 1125
-298 240 -5 0
378 484 -401 0
-375 440 -148 0
232 -187 393 0
274 -191 49 0
-463 -82 270 0
-117 372 367 0
-127 -496 73 0
-108 -379 -488 0
-370 343 -224 0
-107 122 388 0
391 481 -472 0
491 -65 -451 0
180 216 446 0
-142 -54 -126 0
263 164 276 0
179 -310 438 0
-496 155 -149 0
66 -338 113 0
230 286 461 0
-289 -455 427 0
-453 184 -409 0
46 296 55 0
366 243 -367 0
-372 -249 425 0
339 208 -28 0
49 34 -342 0
451 -29 182 0
284 -386 30 0
-208 39 -278 0
-177 14 -232 0
-93 84 -279 0
-222 283 -349 0
-106 415 -495 0
-147 141 329 0
393 270 52 0
296 -149 -213 0
295 51 313 0
95 174 -457 0
307 487 382 0
41 -141 450 0
217 -118 -298 0
213 -360 447 0
222 273 478 0
142 285 -252 0
121 -112 -414 0
389 395 -345 0
-340 -11 82 0
-109 411 18 0
463 -169 442 0
-337 477 -472 0
45 -499 -417 0
120 -488 322 0
38 61 250 0
69 -321 -102 0
-494 -480 -381 0
-205 410 443 0
494 63 85 0
-424 -215 -493 0
-148 227 -215 0
415 285 371 0
16 -352 -279 0
-391 -128 -84 0
138 -152 -395 0
71 -78 410 0
-43 59 421 0
-157 321 -84 0
-249 -332 447 0
405 -79 333 0
74 -406 -182 0
-290 -469 437 0
-86 259 -103 0
-233 1 361 0
-224 -258 289 0
-365 129 -360 0
-275 -69 32 0
-348 136 -226 0
-294 -305 -335 0
149 -3 309 0
181 99 -75 0
167 -370 -172 0
-27 313 -169 0
62 -85 354 0
82 -288 -363 0
194 -195 -197 0
-39 83 81 0
354 -286 251 0
69 414 -248 0
425 -257 -478 0
477 281 -365 0
292 454 298 0
66 341 -329 0
-63 -219 446 0
-153 -358 -494 0
385 216 -187 0
-305 356 407 0
-294 466 -316 0
-66 -408 -242 0
14 -190 -393 0
176 -398 319 0
239 -244 -286 0
454 -339 -214 0
411 -116 112 0
318 341 -407 0
-235 368 378 0
-393 85 -233 0
98 -278 5 0
-327 -62 233 0
352 -222 455 0
252 -363 239 0
454 -45 302 0
-421 115 479 0
-212 -492 -84 0
149 264 -61 0
-14 -13 -129 0
-354 -98 -65 0
305 310 -160 0
68 -267 -481 0
93 25 257 0
-484 -9 232 0
-198 -11 -379 0
452 382 74 0
-221 -97 -472 0
-477 -374 -253 0
-106 -390 -92 0
70 -469 104 0
460 -9 435 0
167 421 -255 0
104 156 269 0
289 458 -198 0
7 353 423 0
-431 356 18 0
357 232 26 0
-199 -391 -479 0
-496 -129 -291 0
197 -192 -112 0
-4 -391 -420 0
-130 -376 -70 0
-408 383 -10 0
-122 496 -335 0
-442 -24 -218 0
146 -307 402 0
-204 -194 -393 0
156 -188 421 0
43 239 218 0
263 52 463 0
-264 68 450 0
-318 442 -408 0
-148 98 271 0
131 413 -2 0
153 -106 -392 0
-297 -161 230 0
299 78 -102 0
-360 5 -254 0
35 253 -241 0
-113 87 -382 0
-450 -449 -161 0
-464 -397 204 0
-355 304 -456 0
107 81 -180 0
273 -227 -76 0
-374 -334 -344 0
-467 487 -297 0
311 -214 160 0
74 -293 -78 0
406 -195 491 0
-472 408 -498 0
-438 -327 -247 0
320 468 -368 0
-233 -241 -54 0
-396 415 -157 0
-430 305 -123 0
350 374 -104 0
-391 368 -476 0
363 441 -156 0
-449 -115 -271 0
-364 -484 116 0
-423 194 112 0
468 -204 -53 0
71 -139 -221 0
-334 403 -8 0
-170 -492 -450 0
338 -309 302 0
-355 486 -287 0
-220 372 268 0
-113 -95 206 0
399 9 -493 0
-493 186 205 0
-287 -434 -57 0
266 209 -350 0
-217 119 47 0
-249 78 -253 0
-361 352 118 0
-312 -84 314 0
-339 200 -226 0
221 -98 494 0
70 105 -6 0
220 440 305 0
111 -253 27 0
-424 379 -174 0
-36 387 119 0
-34 -300 -299 0
-87 -355 297 0
144 -12 -63 0
-273 -22 390 0
86 123 -303 0
-132 436 -439 0
-146 -218 320 0
-223 310 -198 0
-411 -17 -384 0
331 186 -459 0
140 -371 -338 0
354 -468 -245 0
19 17 175 0
330 -82 -204 0
40 -31 -349 0
499 -154 -124 0
-404 253 -469 0
-311 -272 300 0
195 219 94 0
295 -235 -415 0
311 340 74 0
68 424 285 0
283 -394 -352 0
-258 281 -252 0
250 475 -261 0
435 333 150 0
216 -214 447 0
49 73 -27 0
-104 -455 -402 0
-122 -498 -486 0
265 177 404 0
12 242 341 0
2 -448 -472 0
-420 -173 -357 0
-134 106 41 0
133 -121 -244 0
-206 83 -451 0
-85 -109 381 0
-327 -491 473 0
413 -494 156 0
9 -316 79 0
-342 -82 147 0
-158 -230 -270 0
175 133 114 0
183 -406 -345 0
-415 144 -162 0
91 229 -61 0
178 -106 -416 0
439 -202 -290 0
-230 87 -143 0
101 54 -460 0
304 -131 -191 0
246 -85 -306 0
68 168 -439 0
97 -403 -300 0
493 -71 -419 0
-258 109 -233 0
-6 482 -450 0
147 -364 134 0
-106 465 354 0
474 79 211 0
370 252 -176 0
-194 359 -335 0
259 54 190 0
-469 353 236 0
124 -41 -150 0
-432 20 419 0
24 -131 -305 0
11 -374 289 0
-195 -366 56 0
43 -323 340 0
-300 487 -135 0
-19 -304 -87 0
-110 -153 -407 0
-294 331 455 0
172 -196 311 0
108 452 -270 0
477 -490 131 0
-279 350 -255 0
470 -472 -272 0
-109 394 413 0
-194 -307 -343 0
257 478 45 0
279 404 -146 0
63 466 282 0
-477 -61 148 0
175 1 -186 0
56 -488 -332 0
-362 320 479 0
441 36 -342 0
229 278 -228 0
62 -139 222 0
118 -310 285 0
49 266 -105 0
151 -320 -470 0
334 389 414 0
-331 313 204 0
175 -120 -402 0
-336 -396 -304 0
457 212 176 0
88 342 173 0
221 -475 423 0
-208 -265 -33 0
-246 324 382 0
264 100 -173 0
-134 190 -339 0
225 50 -496 0
420 236 38 0
179 459 47 0
65 256 -260 0
-153 489 -186 0
-473 -271 358 0
-318 -22 -262 0
-277 83 467 0
-289 17 48 0
-1 -159 65 0
-462 -330 -467 0
-187 67 84 0
-47 -60 241 0
-286 -62 -446 0
137 426 334 0
-58 -419 380 0
-461 455 -88 0
244 344 102 0
138 -314 35 0
285 444 -426 0
441 469 -376 0
248 -500 314 0
203 -263 -139 0
-238 361 -41 0
-312 94 -406 0
-291 209 -405 0
345 366 167 0
100 315 -475 0
-488 223 276 0
-399 149 -230 0
160 201 74 0
481 335 -297 0
111 470 1 0
-208 -407 189 0
-331 -499 103 0
373 333 150 0
-231 -246 -238 0
-272 253 -107 0
-443 -431 -417 0
101 190 333 0
-43 271 -72 0
-145 410 82 0
192 183 78 0
132 -276 172 0
426 52 -140 0
-437 -308 -313 0
-74 62 -232 0
-311 268 220 0
307 460 -198 0
64 14 -461 0
-314 -106 486 0
-196 184 174 0
283 -246 -336 0
-69 -369 -211 0
19 -184 -341 0
491 -344 -418 0
-341 123 -192 0
252 491 498 0
218 -164 173 0
-3 447 411 0
207 -27 333 0
-19 -6 205 0
457 171 -290 0
-242 -4 -465 0
112 -495 161 0
124 -121 -297 0
-479 -292 188 0
167 -210 78 0
-288 -389 101 0
57 209 -493 0
471 -403 -80 0
-11 -265 150 0
401 158 -32 0
-160 103 205 0
307 -112 99 0
-404 72 -428 0
-67 -394 -360 0
1 -272 -413 0
376 173 159 0
478 -75 -183 0
25 488 -358 0
-34 -324 286 0
268 120 373 0
-115 410 124 0
-345 376 -57 0
-256 -144 426 0
-229 -483 -124 0
177 -315 26 0
-117 261 -312 0
-140 86 -441 0
480 -471 -152 0
-489 -404 314 0
-128 -110 -32 0
188 -498 -194 0
-312 86 480 0
-30 357 371 0
-142 -107 479 0
-464 363 271 0
-118 -245 214 0
193 -234 -191 0
96 -381 -496 0
49 -447 413 0
224 137 494 0
-76 -420 278 0
361 -161 -24 0
434 251 -284 0
-114 321 218 0
-265 -487 26 0
23 -218 -114 0
42 86 202 0
-346 -38 -76 0
354 -198 -428 0
-72 243 -175 0
-314 -446 -194 0
-393 209 270 0
278 83 -72 0
53 141 276 0
-428 -190 -163 0
-210 -362 -499 0
-50 -87 151 0
-209 8 141 0
-105 -256 297 0
302 -453 -368 0
286 -395 43 0
-10 -325 -449 0
-144 -109 333 0
-35 -481 -437 0
-444 -43 78 0
-145 234 429 0
-425 -234 -15 0
-322 139 -199 0
-499 -82 406 0
-92 164 255 0
-339 -239 -114 0
-464 -18 235 0
-278 -392 89 0
346 -317 297 0
467 199 318 0
141 -346 97 0
103 72 -379 0
-392 237 275 0
97 41 -476 0
385 -302 213 0
-480 -266 -445 0
437 -425 -180 0
-9 204 -458 0
183 176 -207 0
421 -66 311 0
292 -162 325 0
44 -291 -435 0
259 21 -368 0
-411 -277 -9 0
296 -155 272 0
-322 314 -481 0
241 -170 307 0
115 -249 469 0
-285 -330 107 0
-286 -122 420 0
416 199 358 0
-320 336 479 0
429 455 -236 0
285 -190 -483 0
-312 -385 -99 0
436 -500 481 0
470 -482 -383 0
-224 -123 -299 0
130 233 20 0
313 245 185 0
-482 -487 -89 0
487 181 -281 0
-360 383 -168 0
67 212 -56 0
-70 228 148 0
293 -29 297 0
-137 79 -315 0
-438 18 459 0
294 -319 -271 0
164 18 174 0
331 -296 326 0
187 -299 264 0
-233 -119 342 0
-168 -430 393 0
237 403 83 0
54 190 -197 0
425 313 409 0
141 -154 391 0
-35 -46 -220 0
271 451 71 0
346 -377 153 0
152 99 -30 0
15 52 -32 0
437 61 234 0
-288 -175 20 0
-141 316 371 0
-151 394 -104 0
268 127 -400 0
-445 -284 83 0
-386 -67 -484 0
259 142 -6 0
201 321 -476 0
-31 198 -453 0
-38 -254 -158 0
-65 10 458 0
142 -273 -200 0
-101 402 478 0
-304 85 70 0
-458 185 -260 0
-56 -16 181 0
-52 280 101 0
-482 -165 -478 0
29 -50 -394 0
490 425 -259 0
-334 338 -117 0
329 -430 428 0
-406 -412 417 0
-59 336 -477 0
301 -7 -217 0
-263 195 31 0
-364 277 -204 0
-460 -17 246 0
96 -269 349 0
274 -390 377 0
-394 191 239 0
233 359 329 0
339 437 -407 0
139 146 492 0
-195 -75 -187 0
221 -117 -60 0
-139 -260 -400 0
-251 326 -374 0
158 135 146 0
182 484 -292 0
494 -117 -277 0
370 -11 130 0
-334 154 248 0
56 286 349 0
185 -11 -1 0
13 -86 101 0
-403 -108 -321 0
265 -345 -338 0
425 -238 290 0
189 443 -247 0
483 -186 -375 0
-57 -110 -451 0
-255 -46 -150 0
434 -443 -68 0
17 -261 245 0
143 -134 325 0
18 478 -194 0
77 -310 -188 0
-211 59 -202 0
493 -232 131 0
-347 -254 11 0
229 -196 -422 0
368 427 164 0
-60 -209 319 0
148 274 179 0
40 343 358 0
447 -86 -371 0
37 -104 -494 0
-84 -218 302 0
23 -193 -465 0
-278 30 243 0
-302 354 -459 0
-438 -395 299 0
-436 -411 480 0
-2 -102 177 0
-376 -97 -121 0
437 477 116 0
-459 -392 79 0
-199 -321 473 0
309 -120 -194 0
216 249 32 0
-362 -477 452 0
304 73 -87 0
157 323 -52 0
475 -399 -384 0
55 -490 -467 0
141 394 313 0
244 -62 440 0
-349 -441 -83 0
-60 -311 -206 0
-416 -273 154 0
-241 -119 161 0
-24 87 -254 0
-409 205 78 0
-352 391 -71 0
-265 356 -155 0
-219 -270 -64 0
-277 -337 68 0
-106 -208 -404 0
447 174 -73 0
118 460 -234 0
-210 -190 441 0
7 -438 50 0
-276 -196 345 0
158 -304 395 0
278 -239 315 0
-57 -88 -397 0
-256 -275 -202 0
165 104 -434 0
-297 -157 10 0
-395 257 -249 0
-482 -318 288 0
-278 -283 418 0
421 41 -22 0
-475 -103 -252 0
245 -355 455 0
-77 67 -333 0
-39 164 292 0
65 -238 -363 0
144 207 419 0
11 125 -451 0
-83 180 -401 0
184 361 58 0
-150 -156 306 0
-337 130 -445 0
-76 -494 -243 0
124 -243 182 0
126 -167 273 0
-263 172 -151 0
-169 -211 -114 0
-123 302 419 0
334 454 -317 0
-417 189 432 0
-376 -334 111 0
57 -6 -294 0
32 481 40 0
-260 -223 263 0
-233 72 -334 0
147 478 162 0
82 -393 101 0
-348 -468 -113 0
421 -143 -142 0
-180 -316 422 0
-257 267 -134 0
15 283 -247 0
-360 205 30 0
110 249 -43 0
-123 210 274 0
-173 -252 361 0
-100 -79 -470 0
318 -237 119 0
-137 -118 68 0
-415 235 -107 0
45 -284 -101 0
-76 -239 -486 0
413 -408 194 0
329 2 448 0
-114 64 91 0
345 -125 15 0
493 403 -444 0
124 289 497 0
386 -32 -65 0
-347 97 160 0
-173 499 44 0
384 451 -176 0
42 -376 257 0
-256 333 -332 0
385 -359 -175 0
-322 174 -177 0
315 482 333 0
-40 355 -260 0
-445 166 -426 0
59 66 223 0
416 -492 -261 0
77 408 -436 0
-39 -200 -236 0
380 424 -430 0
-411 -8 484 0
-130 431 -119 0
436 444 66 0
483 326 195 0
152 224 95 0
227 -142 -440 0
-411 387 18 0
243 -477 -190 0
365 -87 -108 0
-277 -282 -82 0
382 -52 -209 0
-270 -499 -383 0
363 250 -481 0
31 472 210 0
-385 48 -115 0
-130 -226 142 0
-33 -185 -458 0
95 -321 296 0
-54 -464 421 0
292 406 73 0
317 -246 -181 0
-76 394 -134 0
79 -348 261 0
-135 -333 -468 0
-56 468 133 0
394 -192 -342 0
46 -203 -26 0
-413 499 -336 0
336 379 17 0
-46 274 -435 0
377 80 -136 0
193 -435 122 0
-44 327 -205 0
-358 289 258 0
-450 147 -263 0
175 -200 199 0
-100 -454 -219 0
192 206 -220 0
398 433 111 0
32 355 251 0
-249 -277 -388 0
102 -339 441 0
302 -224 -187 0
399 -398 488 0
-280 -456 -76 0
-157 -490 77 0
211 -332 -160 0
133 -257 395 0
-285 443 -127 0
-41 -36 -81 0
355 -229 -332 0
10 98 63 0
-99 482 381 0
-207 51 -446 0
-216 -430 297 0
-203 -352 14 0
60 -373 -370 0
-444 140 -146 0
194 -408 108 0
358 289 332 0
-453 385 -9 0
425 -371 -25 0
-221 -373 347 0
304 470 194 0
401 -442 -460 0
-416 178 5 0
367 -265 -276 0
-18 -348 -20 0
351 -319 -456 0
196 277 72 0
-197 253 -126 0
90 238 414 0
-282 384 482 0
-230 438 -496 0
348 -430 122 0
-4 -362 116 0
362 -254 -372 0
-134 -414 -109 0
-216 -374 -15 0
-378 491 -68 0
47 251 479 0
-357 252 392 0
-314 -250 221 0
252 299 -189 0
413 395 37 0
446 -5 325 0
260 435 39 0
135 240 177 0
388 -87 8 0
97 -435 224 0
-240 302 49 0
-120 202 -341 0
260 -39 -495 0
-53 367 82 0
232 179 -100 0
-464 24 247 0
113 303 -431 0
7 382 -127 0
65 217 92 0
-374 44 -236 0
-327 364 230 0
-16 -423 -85 0
314 -492 -416 0
260 366 -351 0
-378 462 -488 0
227 -242 222 0
-25 4 -419 0
235 463 -381 0
478 145 144 0
436 -494 -333 0
103 21 -346 0
478 479 46 0
-96 -500 71 0
55 297 421 0
-180 -247 399 0
-31 -296 306 0
385 -388 399 0
-212 -186 55 0
417 -373 -68 0
112 -266 420 0
418 168 -169 0
151 -477 138 0
448 369 93 0
66 77 355 0
-269 -146 443 0
51 -181 444 0
218 -327 -283 0
91 -265 -277 0
356 76 354 0
-272 430 -223 0
-368 -151 57 0
361 120 -252 0
337 426 488 0
-141 -457 497 0
232 143 -217 0
-352 -353 -292 0
-432 43 -359 0
-240 417 487 0
340 22 -452 0
-56 231 -414 0
412 128 -456 0
147 106 60 0
-78 -1 120 0
-499 280 -40 0
40 451 51 0
-60 155 370 0
345 351 -455 0
15 253 -484 0
-408 -409 463 0
140 -252 -332 0
-155 83 -427 0
-302 -392 -320 0
32 49 174 0
303 -336 113 0
-308 -318 34 0
468 -199 97 0
451 21 -26 0
312 147 -65 0
8 416 -469 0
-413 -60 24 0
-86 324 253 0
-321 369 252 0
-32 440 -29 0
171 -379 409 0
224 220 122 0
-108 224 -413 0
134 -145 -11 0
-307 -298 205 0
-208 175 -500 0
-331 -467 30 0
-401 176 27 0
350 29 -491 0
162 4 -478 0
156 -311 109 0
90 121 296 0
-43 99 182 0
-94 98 -143 0
-391 484 -236 0
-21 184 -412 0
-463 127 458 0
355 207 -463 0
421 75 -288 0
-105 -478 -204 0
387 16 479 0
109 -453 152 0
-321 -254 -395 0
249 195 117 0
-70 176 -318 0
-374 3 -403 0
124 -408 -413 0
-494 309 426 0
-343 475 319 0
16 96 -412 0
-276 474 -316 0
-356 -236 12 0
294 -456 -13 0
44 243 455 0
-301 -92 222 0
-354 -457 -196 0
-101 -495 -291 0
-414 193 415 0
-268 379 466 0
-401 192 -388 0
-198 116 89 0
418 445 -145 0
-290 -50 -85 0
305 497 399 0
-465 284 479 0
113 -487 -348 0
-58 362 -379 0
299 430 -325 0
-217 110 -222 0
-406 8 -48 0
-138 105 -241 0
-194 -446 -32 0
86 -427 370 0
330 -93 -377 0
-45 453 -251 0
201 -461 456 0
-434 -423 77 0
238 -112 -101 0
443 -371 374 0
192 -381 -8 0
47 155 81 0
368 235 65 0
305 203 -106 0
494 209 -306 0
-33 392 -303 0
-484 128 -329 0
292 -251 -127 0
-296 330 -110 0
214 -337 -277 0
-184 -285 338 0
90 203 498 0
201 128 -250 0
80 117 -494 0
-461 -490 -385 0
354 -3 340 0
298 330 99 0
80 -76 15 0
-384 27 -427 0
297 495 65 0
-146 -67 -486 0
176 54 500 0
117 375 -469 0
395 272 491 0
168 -63 -402 0
-255 44 197 0
388 -381 -127 0
-136 -77 -180 0
-160 -223 -120 0
350 279 343 0
63 339 -492 0
251 17 -108 0
-125 459 121 0
93 169 -334 0
-234 -33 -416 0
398 405 -285 0
282 -220 -354 0
8 401 -287 0
305 228 179 0
-100 107 113 0
-29 -35 359 0
169 -267 -148 0
106 -307 37 0
-313 440 -8 0
408 89 375 0
-440 -84 432 0
-61 274 -479 0
-257 308 420 0
19 -410 218 0
400 -358 233 0
79 261 76 0
-398 458 426 0
265 -381 -10 0
-160 -167 319 0
196 117 -137 0
-74 -9 -446 0
290 380 -149 0
-342 -488 -434 0
-436 -410 63 0
-232 -177 -188 0
-312 300 -1 0
-370 -244 164 0
-432 111 -350 0
-296 35 463 0
-456 157 16 0
-321 261 -216 0
-340 95 -312 0
-122 480 -70 0
-78 -102 -275 0
37 212 -222 0
-415 -496 175 0
-29 149 -408 0
99 485 -280 0
191 452 -51 0
284 214 -85 0
-404 -209 127 0
-134 290 -347 0
-29 -295 442 0
481 494 -82 0
414 85 408 0
-410 -450 -199 0
-79 -352 -374 0
426 349 -461 0
-78 -330 419 0
-203 -53 207 0
37 -168 -414 0
169 -83 -38 0
264 463 104 0
-403 491 462 0
177 351 -387 0
-401 -192 345 0
-89 -235 -398 0
94 -407 -202 0
217 97 -218 0
-241 -54 -404 0
208 -16 -296 0
-425 -430 -79 0
213 -239 -260 0
427 -164 -339 0
-289 38 356 0
292 -177 -358 0
117 321 364 0
-338 -461 -443 0
-49 -365 258 0
-435 -365 -462 0
362 58 -335 0
-281 -124 -497 0
-37 400 -296 0
-477 -58 341 0
-164 102 57 0
-180 -377 -215 0
-452 -428 -1 0
-428 -51 -39 0
328 -443 324 0
265 -482 -382 0
391 421 344 0
-453 34 -315 0
265 -261 262 0
-500 476 438 0
205 -357 -53 0
-433 -173 109 0
136 -407 -19 0
251 217 -384 0
421 -313 -489 0
-100 -25 -265 0
-214 119 -233 0
335 68 417 0
36 19 -437 0
137 -198 -422 0
-403 316 -268 0
-118 429 -462 0
377 85 -130 0
-113 208 36 0
263 182 26 0
111 397 -92 0
-458 -406 -375 0
44 380 -290 0
-371 36 -213 0
-384 -63 96 0
403 267 -442 0
60 224 -38 0
-193 273 360 0
-340 404 455 0
369 75 117 0
105 205 330 0
-54 -236 295 0
-201 -131 203 0
128 -37 217 0
-210 -336 -441 0
-497 240 -251 0
247 172 -308 0
-460 -276 384 0
-268 483 -195 0
-197 -76 -379 0
496 284 -146 0
-171 -252 369 0
-459 -312 -307 0
-397 350 -73 0
199 239 -443 0
-216 -378 336 0
-80 -115 -182 0
489 -254 289 0
415 -404 451 0
-41 -207 -324 0
-288 -111 126 0
188 87 -131 0
420 85 -320 0
-264 -347 391 0
86 323 -154 0
-194 -462 -170 0
-89 211 32 0
56 -18 -299 0
18 319 494 0
202 107 86 0
441 -136 219 0
494 -490 -348 0
141 303 -92 0
396 458 359 0
133 348 465 0
330 156 259 0
23 353 -57 0
-336 -267 -143 0
-107 -208 -439 0
356 429 -378 0
11 26 38 0
71 166 110 0
-229 -58 207 0
98 -189 -448 0
393 323 251 0
-230 -219 -295 0
219 208 -450 0
314 -57 -39 0
-181 -443 -162 0
49 249 -137 0
330 387 -395 0
369 -146 74 0
-379 -117 -13 0
349 336 192 0
211 386 -85 0
-290 309 35 0
-139 103 -31 0
436 24 410 0
-217 -205 -35 0
327 251 431 0
112 351 124 0
6 234 -456 0
362 109 359 0
189 -69 -93 0
87 -18 107 0
-72 -423 -266 0
370 40 -241 0
289 -249 -250 0
-187 205 -353 0
300 -148 -313 0
410 190 -207 0
-426 -269 -409 0
-476 205 429 0
-344 -365 -78 0
-226 200 196 0
-319 -123 88 0
-115 62 -310 0
-472 -279 -52 0
-323 352 -140 0
428 -384 -421 0
-256 -392 155 0
233 -145 204 0
-231 430 425 0
