p cnf 200 720
-193 -194 79 0
63 8 -11 0
-5 -147 55 0
-5 183 116 0
69 131 151 0
-142 -70 -87 0
-156 -142 97 0
-78 -33 -152 0
-37 161 -111 0
185 -171 -97 0
74 30 -104 0
-54 140 -142 0
60 199 191 0
-42 181 -39 0
112 157 114 0
169 -65 37 0
-130 175 193 0
37 104 -175 0
4 -100 58 0
169 53 10 0
-117 175 -127 0
197 -123 170 0
8 191 -147 0
191 143 -73 0
-65 -60 115 0
-149 190 -140 0
103 -52 -77 0
112 49 -177 0
-179 -194 -151 0
70 -162 -174 0
-109 -23 -190 0
-153 99 -43 0
92 131 27 0
-86 -29 151 0
87 -37 136 0
191 -163 24 0
20 25 116 0
13 19 179 0
197 31 -42 0
-91 134 -153 0
-78 196 23 0
-44 -189 62 0
161 35 -178 0
-2 -131 52 0
-166 153 105 0
-118 -180 -31 0
156 -119 188 0
50 10 54 0
111 133 -174 0
-194 106 138 0
190 127 -132 0
156 194 2 0
157 94 4 0
-190 -115 103 0
21 24 -116 0
-74 197 192 0
145 -112 -143 0
-102 -141 90 0
197 -105 -17 0
-194 127 163 0
-82 -125 -158 0
10 -128 -107 0
-69 172 -97 0
34 -45 -149 0
156 200 -151 0
81 24 68 0
-81 79 -197 0
-148 78 -8 0
88 -15 34 0
-184 101 -86 0
49 83 183 0
-113 197 46 0
32 -179 114 0
153 -51 87 0
-116 176 192 0
-83 -63 -152 0
-8 36 -47 0
-177 157 113 0
-109 -80 -162 0
-20 -140 -30 0
80 119 132 0
123 -47 73 0
-157 -80 192 0
-179 57 174 0
190 -107 3 0
-182 159 -78 0
94 -112 191 0
150 -77 -11 0
-102 1 -154 0
-36 144 140 0
-57 32 183 0
-131 -144 74 0
-121 6 -172 0
186 -62 158 0
-83 -196 -32 0
-187 40 -12 0
-29 39 36 0
13 -97 -101 0
165 -136 -166 0
130 9 145 0
-165 -142 18 0
46 32 176 0
52 -188 96 0
17 64 86 0
3 114 70 0
-151 106 34 0
146 10 163 0
186 11 137 0
174 50 139 0
-175 -143 190 0
-11 -186 -36 0
138 -73 149 0
195 30 178 0
110 -123 -91 0
137 165 145 0
-132 -85 -128 0
-120 99 -71 0
50 -52 145 0
-135 -122 63 0
-137 65 -60 0
-12 -114 50 0
184 62 -36 0
113 -136 24 0
65 31 61 0
-24 -147 -161 0
-75 -134 -106 0
117 -58 118 0
-147 166 136 0
143 -123 -126 0
88 112 -67 0
47 106 178 0
96 137 -199 0
11 -27 169 0
48 188 42 0
183 -148 132 0
-147 138 -106 0
-125 4 -28 0
129 30 -86 0
-104 127 19 0
109 -175 197 0
137 171 92 0
-130 -79 163 0
163 -19 31 0
-184 55 61 0
187 -53 120 0
-97 -155 137 0
-138 -29 -43 0
129 153 64 0
154 31 -41 0
18 2 -85 0
-144 193 -116 0
171 4 -25 0
-43 176 103 0
-155 186 115 0
-24 -69 -179 0
4 -42 123 0
179 38 21 0
-64 51 100 0
-130 -152 -45 0
15 -156 99 0
-20 -73 30 0
120 119 11 0
-58 33 78 0
77 20 30 0
-83 160 99 0
-107 -50 101 0
-179 18 85 0
-15 -187 -102 0
-117 -184 71 0
96 -83 34 0
-197 16 -17 0
-6 30 189 0
84 -71 48 0
-169 -129 92 0
82 67 -19 0
-146 -125 18 0
-39 -195 125 0
35 135 -170 0
-118 102 52 0
-170 44 98 0
-30 -89 148 0
-182 -123 -190 0
162 -105 -98 0
101 14 -7 0
-59 123 100 0
169 -170 -24 0
-194 -75 19 0
65 -142 -118 0
175 178 48 0
-85 -119 -134 0
-39 139 82 0
62 -198 -133 0
-137 120 73 0
-171 159 -123 0
115 177 166 0
-90 68 -105 0
-69 189 -23 0
178 -122 -60 0
108 -54 -171 0
99 103 -18 0
-52 176 42 0
48 -16 45 0
-80 42 117 0
125 -175 -169 0
-73 -59 173 0
-108 -36 -100 0
-7 109 -10 0
-76 -126 -22 0
21 106 174 0
-11 -57 118 0
-38 -84 -187 0
-107 -165 -6 0
75 -151 -43 0
12 164 17 0
168 -136 109 0
-58 -96 -53 0
-145 -179 -68 0
-113 133 -82 0
-87 -22 183 0
63 -143 -195 0
131 -194 15 0
-130 -170 -103 0
-93 190 162 0
105 -131 -19 0
-56 81 6 0
182 -27 -166 0
40 -78 140 0
37 14 -93 0
-106 9 52 0
-10 65 -136 0
110 30 22 0
-75 183 81 0
196 -87 -91 0
-114 17 94 0
87 116 -44 0
13 -143 -52 0
-87 4 25 0
-200 -184 60 0
-63 -98 187 0
-54 -52 -192 0
140 -3 28 0
-59 183 -52 0
180 -196 -36 0
185 61 133 0
-194 129 128 0
-27 69 120 0
169 -15 132 0
-37 31 -175 0
115 17 -96 0
-161 -50 -148 0
-28 74 -144 0
148 -43 -66 0
-42 -66 170 0
-61 -180 16 0
40 155 -140 0
175 -168 -136 0
1 -126 -17 0
40 -172 -170 0
-155 3 24 0
81 187 150 0
-56 -40 -186 0
150 -68 -131 0
-27 -14 -124 0
-11 -172 198 0
154 -31 -1 0
-33 106 152 0
-152 -83 161 0
150 -106 27 0
25 -108 -148 0
-188 43 113 0
-158 -162 21 0
114 77 -45 0
31 39 -115 0
187 171 181 0
-7 -129 -153 0
39 -153 -61 0
-175 40 172 0
-21 -159 -33 0
-166 15 106 0
-42 16 -153 0
-199 -20 182 0
166 37 -174 0
193 109 -127 0
-118 22 123 0
-146 -71 132 0
77 -103 -22 0
101 -21 -106 0
155 -21 -77 0
8 66 54 0
90 -96 172 0
168 41 -48 0
97 -166 -1 0
53 -22 49 0
193 -164 -120 0
-37 -28 -119 0
-127 -74 135 0
-12 52 55 0
-49 -45 -57 0
193 3 14 0
-69 191 -120 0
115 -143 -55 0
134 55 -28 0
-75 14 -9 0
-145 34 173 0
93 -92 -47 0
-45 48 -77 0
-143 -24 -170 0
106 -112 61 0
-196 -126 -59 0
22 -6 -92 0
-107 21 195 0
96 -168 -163 0
-186 -180 -89 0
185 42 -150 0
-169 52 40 0
-47 -24 122 0
190 -135 174 0
-38 16 -5 0
-99 73 70 0
2 -29 65 0
-150 14 118 0
-52 -93 44 0
-29 -4 163 0
-197 79 27 0
-13 51 -64 0
-32 -193 -185 0
-140 -151 102 0
-111 147 -91 0
-51 30 191 0
-171 -2 -44 0
155 47 -24 0
-113 -133 -167 0
11 45 -109 0
-172 -74 -118 0
-41 -99 144 0
173 29 135 0
7 94 -165 0
138 151 -114 0
178 63 50 0
84 -184 -177 0
-17 -119 109 0
-13 -25 143 0
-12 -39 -75 0
-2 64 -100 0
-70 -170 -25 0
7 34 -93 0
31 -107 101 0
-25 21 173 0
7 -194 -167 0
71 -200 140 0
-178 -187 85 0
130 36 -178 0
-118 95 88 0
-188 -42 194 0
190 47 192 0
-68 101 198 0
-98 -179 -58 0
-101 179 -102 0
90 -117 -170 0
-195 -131 44 0
187 -2 54 0
86 9 -159 0
32 -26 70 0
-143 -66 -96 0
-100 56 135 0
185 188 112 0
10 102 165 0
-93 12 -110 0
-69 -138 -159 0
-196 141 54 0
-12 -178 25 0
-134 -50 -182 0
76 -185 -53 0
157 -109 182 0
19 129 -171 0
-96 24 154 0
-89 -34 80 0
171 -104 44 0
34 -43 -88 0
-126 -199 150 0
172 138 83 0
67 -90 95 0
32 -167 -63 0
52 -170 134 0
74 72 166 0
32 -163 162 0
-121 27 -97 0
167 197 -27 0
-147 111 -61 0
166 139 92 0
-105 132 -93 0
24 -77 98 0
120 -64 185 0
67 -189 -24 0
-132 -36 -41 0
95 -161 99 0
-13 -43 8 0
-143 -174 170 0
-31 -63 -197 0
-75 95 114 0
-162 -71 -193 0
-148 -37 -22 0
-13 116 139 0
-18 -127 -153 0
-28 -66 -105 0
99 -68 5 0
-75 174 33 0
-116 -76 174 0
31 -83 -170 0
39 91 -148 0
163 -142 158 0
104 140 12 0
33 149 -131 0
3 -18 -65 0
-47 200 118 0
-102 22 -126 0
21 -150 186 0
35 60 136 0
142 -187 -158 0
-190 23 -34 0
175 195 -132 0
58 171 51 0
-111 2 197 0
-174 99 79 0
-105 -96 -90 0
106 46 -41 0
160 20 57 0
122 -30 -28 0
-161 14 -78 0
-21 129 -168 0
-151 -153 137 0
63 74 -62 0
-110 100 92 0
142 177 -47 0
8 -15 -16 0
-67 103 -130 0
177 16 -60 0
-128 -107 119 0
-96 130 191 0
95 102 -98 0
171 166 -78 0
-120 157 -79 0
-148 145 114 0
81 -193 -110 0
106 -89 -85 0
-41 -31 -149 0
-170 105 197 0
-140 39 -146 0
-11 -124 190 0
18 -89 107 0
175 131 81 0
-52 -86 173 0
-104 -3 -168 0
-57 -129 -141 0
-9 -138 3 0
-186 -39 -116 0
167 136 125 0
-191 -127 -104 0
-161 -191 -166 0
162 -70 164 0
-193 -162 -117 0
-52 108 -196 0
-144 -176 68 0
100 11 114 0
147 97 150 0
-158 -14 -174 0
198 12 17 0
-38 146 59 0
-40 120 -28 0
199 -9 109 0
-196 19 54 0
68 87 23 0
-116 -10 70 0
-32 -157 -71 0
-126 83 89 0
134 8 83 0
-81 -40 -59 0
166 115 -105 0
-98 -111 -5 0
96 113 -27 0
-129 106 5 0
175 -27 -3 0
-139 101 86 0
-22 145 25 0
92 156 31 0
-23 35 13 0
96 79 188 0
112 -6 -161 0
134 -123 -43 0
51 114 -167 0
-185 187 158 0
-155 -129 18 0
185 170 -9 0
35 45 153 0
193 160 -171 0
59 -60 -134 0
115 -110 55 0
124 -6 32 0
-151 111 57 0
-60 -5 88 0
-165 -72 146 0
-105 134 -47 0
-186 72 174 0
173 22 -92 0
-145 -146 -120 0
-12 -114 128 0
-143 160 27 0
-174 37 49 0
-146 26 -5 0
-147 182 142 0
-126 -164 148 0
7 -30 -102 0
129 145 -2 0
-158 -12 68 0
43 85 168 0
4 41 198 0
-43 -17 -87 0
139 38 -26 0
149 -195 -165 0
-3 -141 -29 0
-143 52 -27 0
90 -11 174 0
174 176 -130 0
6 -184 -121 0
116 157 171 0
188 94 128 0
144 -102 -112 0
-18 -166 -48 0
-131 -17 95 0
-145 112 -129 0
-182 106 -69 0
188 -101 -62 0
-120 122 -93 0
61 86 -80 0
138 46 -24 0
-106 -103 20 0
-111 174 -124 0
93 -99 -38 0
165 33 121 0
-184 -99 16 0
-100 -17 -170 0
-141 142 146 0
-21 -37 57 0
21 -87 -129 0
-127 20 56 0
139 128 -63 0
148 157 27 0
-172 -182 199 0
190 153 -145 0
-67 188 42 0
4 -98 3 0
37 117 139 0
25 70 56 0
34 140 31 0
-185 -155 -101 0
-68 -159 -66 0
24 -99 -41 0
162 -154 -37 0
16 -192 186 0
146 183 -98 0
-9 -183 -150 0
157 -183 6 0
180 -75 -23 0
-25 -130 -34 0
-180 -27 155 0
114 31 -103 0
49 -46 -128 0
-103 186 195 0
9 197 -169 0
-72 1 -13 0
142 -1 -61 0
-190 72 -89 0
93 157 -45 0
-129 161 159 0
-41 35 134 0
-177 46 -152 0
-151 157 122 0
33 196 2 0
179 -116 -168 0
-86 -145 -61 0
-14 -182 -196 0
111 -74 -96 0
178 -46 -135 0
-143 180 -81 0
30 27 -105 0
-20 119 -182 0
-166 -135 -108 0
55 83 59 0
171 166 198 0
-147 77 -186 0
93 -148 168 0
42 -46 51 0
-198 -130 29 0
-156 198 93 0
-184 -51 103 0
139 -123 -72 0
40 158 136 0
-74 -177 98 0
-166 126 192 0
5 83 64 0
-189 -158 145 0
-150 -93 -104 0
-146 130 -15 0
-14 -134 140 0
-8 -32 185 0
-16 180 3 0
-94 -144 -33 0
-78 -50 121 0
-151 67 -14 0
111 -23 200 0
-126 187 -111 0
-135 78 1 0
112 107 118 0
141 112 -154 0
190 -29 -68 0
193 133 -20 0
-88 162 -77 0
123 -12 137 0
-176 -149 -122 0
-102 -81 -92 0
-111 -53 -154 0
-25 -154 111 0
27 -192 -179 0
73 -126 -70 0
91 -174 -74 0
-15 83 31 0
13 -164 -1 0
83 -56 69 0
-44 -131 -185 0
-172 -87 159 0
-59 -165 55 0
46 127 119 0
-199 175 55 0
182 -141 -57 0
-72 -3 -170 0
142 -53 65 0
111 -17 -78 0
-114 -78 100 0
-23 -154 54 0
-81 -61 -46 0
-96 33 -15 0
-196 -112 26 0
-74 40 -60 0
-14 56 139 0
162 -144 -97 0
-18 103 -75 0
198 -106 53 0
80 -192 101 0
73 159 42 0
-14 -1 50 0
-61 -64 -153 0
-178 23 -154 0
-84 117 28 0
8 -91 115 0
145 29 -71 0
110 184 -22 0
89 -105 -108 0
198 73 -77 0
-32 91 -145 0
63 2 -152 0
-121 26 151 0
-98 179 -41 0
-148 -7 1 0
-174 160 179 0
162 -129 153 0
125 -196 55 0
183 153 -106 0
-93 -80 28 0
-20 -113 162 0
168 63 70 0
31 146 194 0
178 149 71 0
-117 -135 -161 0
-51 86 81 0
193 -185 -118 0
-145 -20 37 0
-31 -83 65 0
158 185 -24 0
77 59 -81 0
-82 96 -69 0
105 21 -84 0
146 -110 -31 0
-135 -180 -48 0
-27 -108 -124 0
-83 40 -71 0
46 176 -63 0
-88 -105 -94 0
11 -18 -132 0
93 37 117 0
-34 183 146 0
-68 7 -135 0
119 -151 -100 0
-147 87 -148 0
49 -133 59 0
25 127 73 0
37 99 127 0
115 28 -54 0
-3 32 -65 0
13 -29 -88 0
91 -13 95 0
200 -127 120 0
-9 -31 -117 0
-31 -182 -176 0
-77 95 193 0
78 -192 -14 0
146 -187 28 0
-21 133 41 0
104 44 93 0
55 179 9 0
-154 199 121 0
-2 -136 183 0
-121 -7 -152 0
58 -136 38 0
-172 -99 131 0
63 142 -160 0
-96 -116 -60 0
-189 -105 -143 0
-125 -178 68 0
111 -143 188 0
175 -159 -105 0
