p cnf 1000 4700
-489 266 -850 0
917 -998 920 0
893 603 -220 0
-185 -835 -338 0
9 49 -75 0
202 533 -57 0
-343 -836 -124 0
123 371 722 0
-861 869 -362 0
-836 -832 -209 0
-761 471 -191 0
-629 -92 14 0
-269 -677 204 0
-805 -24 749 0
-355 450 -701 0
-748 -931 -804 0
330 -284 364 0
403 557 906 0
710 -747 586 0
-854 255 481 0
-732 817 706 0
393 -218 -685 0
-320 830 42 0
-582 -782 204 0
27 -733 636 0
-735 158 -957 0
-288 610 -852 0
-321 -310 -416 0
502 994 86 0
-507 942 451 0
-573 -23 857 0
277 418 -874 0
-286 -889 668 0
465 146 -879 0
306 -434 502 0
-2 6 814 0
-390 -154 -290 0
875 -584 -667 0
-454 -315 529 0
69 901 -565 0
662 -557 -966 0
-37 -38 -84 0
-536 -649 128 0
513 865 -439 0
-567 52 -452 0
-289 -323 -677 0
231 -804 -84 0
-228 -798 682 0
681 17 708 0
-858 -665 143 0
986 904 6 0
564 -764 -842 0
-6 282 -890 0
28 -475 -671 0
-514 179 -699 0
835 -703 473 0
-892 -115 317 0
-175 -784 -283 0
-370 -435 958 0
167 -630 3 0
199 197 -555 0
694 -686 413 0
757 172 -787 0
-22 79 -650 0
444 -792 -612 0
284 700 -457 0
488 460 906 0
-278 533 -64 0
252 999 -591 0
100 987 -501 0
984 -720 -731 0
890 206 -759 0
532 -920 910 0
838 491 -521 0
-900 -651 82 0
-724 -102 -120 0
353 351 586 0
8 -285 -30 0
-313 127 259 0
110 -458 -163 0
-315 -272 -412 0
-461 -467 828 0
-617 959 122 0
-251 -582 573 0
70 832 408 0
978 403 -833 0
-831 19 -548 0
-176 -629 447 0
636 269 -127 0
823 -513 -544 0
432 240 -440 0
-445 -742 819 0
634 -746 -377 0
-780 -625 392 0
29 -363 951 0
-631 -107 175 0
-185 853 331 0
808 778 -257 0
-160 -845 42 0
-153 584 -925 0
222 786 -931 0
-529 -91 486 0
692 -389 567 0
-873 -137 -402 0
-238 952 -784 0
618 241 632 0
13 -233 564 0
192 985 -496 0
-477 -923 -618 0
644 482 -831 0
-709 -469 -986 0
-605 -109 629 0
-981 659 -654 0
398 -77 366 0
-193 -666 845 0
-160 -506 -228 0
-54 125 -577 0
-552 -61 -490 0
938 -861 92 0
-989 239 -15 0
-571 903 -769 0
628 -601 -370 0
230 -726 388 0
-408 -451 450 0
195 -392 -39 0
181 -834 365 0
-418 34 -822 0
-218 -252 -704 0
864 761 -463 0
-133 -934 434 0
-356 -345 763 0
-257 933 44 0
-49 -57 -658 0
464 427 -865 0
783 -91 61 0
-849 -941 394 0
-325 755 -924 0
530 -769 584 0
-27 -587 -798 0
-59 -681 314 0
-447 284 981 0
-817 58 693 0
616 -29 963 0
858 605 -428 0
-979 905 192 0
-549 -263 -170 0
675 -658 -727 0
-942 637 -822 0
-862 -565 -18 0
-799 869 941 0
681 -369 -839 0
107 989 720 0
-338 904 -436 0
-637 999 -541 0
319 302 202 0
885 590 302 0
702 -136 -758 0
658 702 -195 0
391 -461 222 0
821 -433 -88 0
637 -978 -647 0
545 801 828 0
336 948 345 0
29 -133 58 0
666 -111 886 0
558 -580 486 0
-698 315 639 0
-736 522 622 0
181 -296 -49 0
3 -412 -953 0
-297 -284 478 0
127 716 -543 0
288 -737 227 0
504 716 -104 0
729 271 426 0
-663 -946 396 0
178 688 92 0
-564 685 -350 0
-506 527 402 0
510 678 -444 0
-581 -532 460 0
324 -418 -262 0
587 -789 934 0
-667 512 482 0
78 18 -773 0
967 -242 996 0
464 -970 -664 0
912 507 896 0
-328 -60 195 0
-877 49 154 0
-920 704 -743 0
-979 -877 417 0
-816 675 38 0
-621 -111 -120 0
-192 -9 51 0
-983 -970 88 0
271 319 -968 0
-505 -121 36 0
159 -683 829 0
-3 -880 -187 0
115 -406 627 0
244 -576 -185 0
-670 107 128 0
387 247 -566 0
220 344 840 0
-95 28 -735 0
-133 115 437 0
379 -248 1000 0
-376 248 597 0
23 -275 -730 0
881 -991 842 0
8 -769 -256 0
-589 -894 -527 0
-238 -877 -219 0
726 436 -854 0
-92 364 530 0
-317 547 -378 0
12 323 355 0
423 252 811 0
-437 -975 835 0
-122 -65 870 0
-111 110 -149 0
-494 307 -670 0
814 -471 600 0
942 -664 -789 0
-361 638 -705 0
935 799 -674 0
279 546 717 0
935 -123 -371 0
562 800 533 0
704 -456 -110 0
-820 -286 849 0
853 -698 -802 0
589 -62 -52 0
-950 -216 -275 0
187 -315 -768 0
-470 904 29 0
-75 -392 -460 0
-728 -163 -856 0
-666 -859 90 0
290 92 152 0
-257 -40 36 0
-612 -555 -573 0
-352 238 -195 0
823 852 936 0
-794 -516 844 0
-792 -440 632 0
387 591 -50 0
-987 -566 885 0
-735 -275 302 0
483 -252 -970 0
306 -439 956 0
940 -529 -677 0
-694 -779 265 0
670 -229 459 0
415 -94 -753 0
-854 -758 999 0
131 767 169 0
97 999 976 0
-391 94 726 0
655 395 -456 0
922 227 430 0
-122 -307 812 0
-696 -477 928 0
856 -922 594 0
-399 -639 534 0
-271 169 126 0
805 537 325 0
-699 205 966 0
106 -853 -437 0
-4 -481 -604 0
613 440 545 0
-439 549 274 0
117 -166 203 0
-848 140 -437 0
-190 634 769 0
-621 794 -792 0
100 -138 -584 0
609 -368 551 0
344 -70 964 0
-443 -558 510 0
-808 -845 578 0
437 252 268 0
338 -221 581 0
582 387 870 0
-901 -628 -313 0
-207 162 691 0
63 18 -852 0
257 -328 808 0
-710 -45 -77 0
-240 421 -943 0
-582 -154 237 0
-413 -807 -908 0
467 992 -787 0
-777 866 136 0
894 694 -522 0
729 514 835 0
-280 -390 196 0
329 -224 503 0
356 -625 -432 0
-849 92 -288 0
640 -875 -237 0
-695 -282 112 0
-68 -208 402 0
-109 -747 -725 0
176 852 -820 0
896 -64 577 0
581 692 493 0
-498 -854 -971 0
989 122 -203 0
-127 -446 50 0
-721 866 -594 0
-694 143 71 0
69 943 -394 0
791 -336 -778 0
-423 706 -229 0
212 -453 585 0
911 117 859 0
-493 515 -696 0
-487 -625 198 0
-816 -717 -224 0
722 656 773 0
991 -718 -273 0
820 529 391 0
836 -183 -32 0
393 156 -682 0
334 -241 -765 0
-936 -99 -722 0
704 -68 508 0
41 -75 -699 0
-280 -146 116 0
-187 -967 723 0
317 -182 323 0
-755 -973 -208 0
-38 772 -394 0
-490 -13 -771 0
-874 574 -696 0
273 829 332 0
-156 137 -226 0
-941 -679 695 0
467 -777 -965 0
702 801 -213 0
381 -813 176 0
-341 664 305 0
-76 -655 -231 0
-440 505 -303 0
851 -371 971 0
267 388 -699 0
-667 288 124 0
-24 271 323 0
710 -553 -129 0
-872 -582 -170 0
-560 230 -576 0
-698 -869 813 0
718 814 132 0
310 -15 735 0
-487 822 -69 0
-878 -101 -893 0
884 -770 162 0
-255 217 -558 0
390 -580 -33 0
-82 762 292 0
325 -944 597 0
-275 302 273 0
18 795 682 0
989 775 266 0
-694 749 531 0
-537 444 -281 0
-644 -817 -799 0
-109 -637 -733 0
598 -979 768 0
483 199 846 0
68 -357 103 0
-864 128 -417 0
-959 -974 915 0
50 569 -952 0
-478 -664 -61 0
183 410 239 0
151 -484 68 0
-124 497 922 0
-539 -657 431 0
904 649 935 0
440 -107 -213 0
776 978 367 0
485 387 -534 0
-216 231 673 0
-649 536 682 0
-588 -71 -112 0
-702 263 807 0
987 19 670 0
-973 550 -484 0
580 955 120 0
-747 -337 988 0
-54 458 -640 0
-583 -589 737 0
-833 754 -593 0
-627 -446 -457 0
538 -100 -868 0
148 -195 -377 0
731 -691 364 0
-391 373 466 0
827 45 -1 0
720 701 -450 0
-159 -54 -166 0
-383 -865 672 0
10 -19 -829 0
-776 429 579 0
-92 -301 -123 0
-44 389 -725 0
696 985 912 0
-27 204 283 0
-465 -638 155 0
-144 -772 985 0
-520 -687 -104 0
883 297 965 0
304 -825 -411 0
-134 185 -902 0
670 619 510 0
-99 -929 -630 0
357 -827 694 0
5 190 710 0
857 -444 205 0
-479 -770 -139 0
53 914 905 0
-140 -380 565 0
828 986 124 0
898 -472 933 0
-500 119 302 0
407 -323 46 0
713 -203 -154 0
420 -683 -516 0
-837 -11 461 0
-806 70 435 0
137 -218 879 0
411 -734 551 0
-471 -453 -550 0
-837 -132 -508 0
-685 -246 -851 0
315 188 -310 0
161 422 995 0
-983 363 -143 0
-275 355 178 0
283 284 -217 0
565 531 -897 0
-345 -646 -492 0
221 939 -113 0
664 -281 -584 0
622 830 -939 0
-231 -53 -29 0
764 263 156 0
-188 255 -128 0
-912 271 -428 0
-833 -492 418 0
170 329 706 0
1000 403 -871 0
-319 351 -851 0
-880 -816 440 0
348 253 -750 0
-388 919 30 0
-875 -907 391 0
939 -31 608 0
769 -457 -352 0
125 -916 -591 0
-559 503 -907 0
214 -352 379 0
862 -646 -792 0
-820 -5 152 0
299 -675 -548 0
-88 604 831 0
576 933 492 0
-414 455 220 0
463 -573 -382 0
-668 -245 29 0
-549 -979 880 0
561 -637 -34 0
-598 -27 168 0
25 612 989 0
757 344 -178 0
-332 -754 771 0
-945 829 -620 0
-803 -377 -551 0
-84 166 -862 0
283 681 774 0
-388 249 208 0
-996 -2 -499 0
-717 693 56 0
766 -14 171 0
662 -195 -193 0
161 -553 64 0
-411 -208 -309 0
81 -208 -684 0
-693 -422 -966 0
-638 -763 321 0
-122 -642 647 0
-713 -784 -370 0
-378 -865 368 0
657 478 -964 0
214 -312 -842 0
-814 953 950 0
-319 35 825 0
642 217 625 0
-521 -379 820 0
935 975 -444 0
-403 536 499 0
722 -357 -610 0
-740 496 987 0
-678 123 -94 0
305 -420 -103 0
-65 17 -619 0
-827 619 245 0
218 538 -539 0
-12 -899 628 0
-443 -601 -729 0
-945 902 828 0
478 -28 -353 0
-124 384 216 0
448 956 163 0
-228 493 -394 0
829 592 715 0
814 -287 705 0
-746 819 -61 0
-64 -370 -203 0
11 383 -314 0
708 -304 -863 0
-216 -81 683 0
-489 -213 127 0
-538 -287 350 0
168 -47 -498 0
975 -490 416 0
64 939 778 0
354 -79 -155 0
269 734 16 0
558 785 -825 0
819 -85 -578 0
98 -897 346 0
-112 849 64 0
-992 745 -542 0
378 -486 69 0
-863 -258 551 0
96 -23 -260 0
-33 -997 313 0
-282 201 811 0
-645 -500 212 0
-822 -492 -875 0
-397 586 -136 0
-12 527 365 0
-534 87 -106 0
922 785 -455 0
-802 988 -693 0
573 963 -808 0
642 616 202 0
408 -233 354 0
-296 -113 546 0
457 -933 -186 0
60 -706 787 0
494 -949 -562 0
-381 722 -666 0
42 -341 -269 0
129 686 -747 0
-517 331 -17 0
-176 449 -154 0
198 17 -409 0
-383 241 578 0
405 -845 68 0
-687 946 -214 0
83 -895 -490 0
896 -653 -749 0
175 326 539 0
-305 -461 -981 0
669 35 -602 0
435 594 -632 0
-568 9 -805 0
-600 467 223 0
-831 -158 232 0
-371 377 -902 0
-680 58 620 0
521 388 -354 0
78 876 -723 0
-450 372 350 0
415 223 494 0
846 556 -799 0
-920 -696 422 0
-788 97 785 0
-651 599 -738 0
768 724 851 0
-923 223 711 0
83 -674 -998 0
343 -906 267 0
-775 -190 -117 0
-761 -839 285 0
481 126 -740 0
963 590 -11 0
697 -194 -716 0
666 296 -174 0
-29 -209 -225 0
-119 191 455 0
-487 -504 912 0
143 -918 -229 0
-301 -556 965 0
711 -985 -843 0
328 -177 -258 0
578 882 949 0
-419 -619 207 0
784 -742 299 0
535 -615 932 0
-562 988 144 0
-309 -507 237 0
-672 280 -690 0
-50 302 -911 0
905 822 39 0
-119 339 -993 0
120 -499 -380 0
912 -126 493 0
859 962 -564 0
-935 176 535 0
-612 -489 877 0
-638 -115 -489 0
71 250 885 0
289 -273 -427 0
112 -316 352 0
-993 -912 644 0
774 606 -14 0
-585 -913 -219 0
-844 75 39 0
-357 442 -400 0
-179 -819 -926 0
535 709 -887 0
625 816 284 0
-348 454 59 0
-436 122 411 0
588 -84 -317 0
-57 -976 -178 0
-875 680 937 0
-840 42 180 0
347 -25 221 0
375 779 -461 0
378 664 -30 0
782 39 -556 0
375 -312 -295 0
-319 656 -996 0
-906 -832 -584 0
496 -761 -877 0
-803 -712 -672 0
781 702 150 0
259 -721 63 0
-134 -528 -995 0
327 -755 218 0
688 -849 -873 0
-383 281 -442 0
-827 -277 135 0
-775 -124 675 0
-17 -126 647 0
-858 -679 65 0
337 592 -932 0
925 -141 -933 0
-327 -722 399 0
432 354 700 0
639 676 -343 0
376 -482 -992 0
-326 646 218 0
442 -990 -23 0
326 -673 -564 0
-924 769 153 0
461 -863 -419 0
747 -894 154 0
470 951 -963 0
-495 -524 377 0
-240 -106 987 0
824 245 33 0
-473 667 -484 0
887 484 -20 0
-91 -266 -294 0
-148 844 124 0
325 -645 184 0
855 179 521 0
323 -29 -807 0
764 -316 126 0
927 -225 718 0
609 -891 -341 0
17 341 767 0
151 206 178 0
-10 868 52 0
164 363 962 0
634 -804 27 0
-449 -124 -603 0
-918 -267 -509 0
918 -658 773 0
247 -219 -641 0
-707 -310 -846 0
630 -453 -990 0
533 -783 -934 0
414 63 -287 0
-349 -425 513 0
-232 -778 863 0
717 368 157 0
-769 -393 476 0
474 488 511 0
-814 748 -27 0
331 -22 683 0
-711 466 -857 0
-498 -973 855 0
864 -880 602 0
573 -724 585 0
624 269 -579 0
483 477 741 0
-762 -279 632 0
460 -145 -139 0
525 -115 158 0
-992 -191 2 0
-420 -190 850 0
448 698 -377 0
129 -559 -307 0
551 37 281 0
-811 387 -753 0
321 -676 -204 0
-702 -930 895 0
806 -718 -880 0
76 341 390 0
-41 -479 85 0
-823 -66 305 0
-268 -447 266 0
-737 -884 487 0
-392 -233 981 0
662 510 559 0
-164 362 -732 0
836 -607 -390 0
480 397 980 0
114 -831 468 0
-265 -809 177 0
-763 -985 -277 0
597 -327 666 0
523 383 879 0
-913 -23 -771 0
-192 283 -899 0
139 335 -359 0
-121 427 378 0
-160 -594 219 0
763 976 -69 0
-538 412 -503 0
-257 539 -172 0
-253 -466 -692 0
169 591 -579 0
-457 200 474 0
305 -131 -511 0
111 150 -776 0
888 109 -165 0
126 -595 -191 0
-122 -30 949 0
594 -308 785 0
781 -30 -761 0
556 775 428 0
-810 -619 893 0
434 312 545 0
457 157 28 0
-176 163 -567 0
-678 -770 410 0
-691 828 218 0
-776 967 649 0
502 947 976 0
693 269 -673 0
158 -695 949 0
612 631 -863 0
-352 484 -946 0
1 815 -850 0
-62 -57 -341 0
924 328 998 0
676 -481 55 0
-537 -97 289 0
-642 -335 276 0
-776 173 906 0
752 -604 568 0
344 -542 -590 0
245 106 -582 0
-891 908 387 0
784 612 -899 0
791 122 579 0
-65 186 -900 0
-754 -182 665 0
203 327 893 0
-897 949 682 0
-726 864 984 0
343 2 -445 0
-47 654 163 0
-455 672 236 0
872 -685 911 0
-574 -464 292 0
57 242 -587 0
-136 810 -269 0
-786 475 -767 0
397 269 139 0
-908 -605 223 0
264 923 -273 0
44 -591 929 0
-980 -390 434 0
406 -894 131 0
2 -998 -759 0
-172 -582 280 0
-873 -513 675 0
801 -970 -966 0
-23 -699 672 0
686 -267 193 0
279 20 -961 0
190 -260 -100 0
-357 211 -684 0
-456 962 825 0
-322 -580 706 0
-566 -2 -726 0
24 -37 -436 0
987 906 652 0
827 -141 -58 0
-912 904 -411 0
-60 552 -238 0
386 627 66 0
-448 -702 68 0
-567 -850 -958 0
923 637 204 0
670 -985 869 0
-92 911 -661 0
-199 -469 -692 0
260 -829 221 0
417 -882 -420 0
402 493 464 0
-597 -414 -192 0
-686 375 898 0
896 -157 -646 0
-39 -104 601 0
-998 46 144 0
319 -911 322 0
286 -186 92 0
247 678 -217 0
-99 -917 216 0
-963 980 779 0
983 503 -861 0
-893 435 476 0
775 816 203 0
-997 -1000 518 0
-226 -462 -23 0
642 315 573 0
762 776 -350 0
-908 -945 598 0
967 -202 -498 0
511 162 818 0
-278 -709 60 0
173 139 -485 0
-368 -806 -607 0
868 -51 -973 0
456 -233 356 0
-874 893 -838 0
823 -335 -877 0
970 217 857 0
686 -26 -410 0
666 -614 233 0
532 131 215 0
651 -246 -125 0
-210 -433 -157 0
-880 -592 -451 0
958 -847 -676 0
105 -466 -363 0
440 -347 -262 0
559 -734 -317 0
-434 -909 537 0
299 -81 -628 0
378 -747 612 0
634 -892 -826 0
511 611 -159 0
-502 867 774 0
-188 -690 999 0
93 -831 -928 0
789 461 -662 0
-478 910 -923 0
-212 430 -254 0
666 547 -372 0
585 983 564 0
-748 205 -393 0
78 -84 927 0
653 369 -370 0
158 -924 901 0
-20 -676 -154 0
546 -907 252 0
-465 -577 188 0
515 772 -253 0
117 128 -690 0
676 -846 -456 0
764 -271 608 0
-567 152 -497 0
-556 -673 -105 0
-762 251 -38 0
-801 -863 541 0
231 184 479 0
954 -751 631 0
-524 -249 480 0
697 475 -534 0
204 428 -775 0
243 862 -716 0
-186 656 -166 0
-359 -93 146 0
541 702 522 0
902 -113 -152 0
-596 -656 993 0
174 -670 -659 0
905 -505 -801 0
-309 -85 -343 0
469 372 -733 0
307 605 698 0
-922 -451 798 0
873 371 496 0
-666 -657 -330 0
-286 50 -642 0
244 201 412 0
209 729 -545 0
346 411 -43 0
537 -879 17 0
-904 -945 -318 0
-237 -88 -508 0
-867 702 249 0
492 -774 671 0
-217 52 -124 0
20 971 -32 0
494 -138 -347 0
326 114 -818 0
909 -231 -727 0
859 464 -410 0
-999 -272 -69 0
27 -77 -624 0
721 -617 -876 0
-892 -682 72 0
643 -292 298 0
-768 780 -361 0
703 480 -547 0
812 826 657 0
-474 -556 717 0
31 758 959 0
765 -670 -947 0
158 -940 -481 0
-576 128 -630 0
-138 -847 677 0
992 305 -755 0
492 -130 -792 0
-533 -371 -618 0
-360 -674 786 0
-671 -599 178 0
-880 -17 -758 0
-244 504 392 0
-191 115 365 0
-308 526 -498 0
69 22 -154 0
418 842 -454 0
-697 -637 425 0
684 -154 617 0
463 -994 -64 0
188 760 -279 0
-53 -179 639 0
-165 -30 952 0
902 -844 127 0
88 -983 97 0
47 812 494 0
953 72 496 0
321 -858 293 0
305 -448 105 0
155 104 -590 0
881 -917 359 0
-708 -43 390 0
475 776 601 0
382 -118 -952 0
378 839 105 0
-728 668 931 0
-335 -73 -389 0
463 619 11 0
258 -174 557 0
-146 -982 -393 0
-529 457 -844 0
-11 373 891 0
610 349 986 0
193 409 273 0
-585 -232 939 0
85 -996 -54 0
-329 380 916 0
959 998 187 0
165 -979 442 0
-580 -208 -387 0
-430 181 307 0
-430 195 -768 0
215 559 -400 0
-898 -571 -166 0
646 -375 -608 0
-908 545 -327 0
-349 -177 -41 0
627 131 -198 0
802 -426 -38 0
390 -497 -185 0
-500 -364 925 0
285 842 94 0
-581 -880 897 0
-789 -911 370 0
710 -327 -820 0
-954 -203 907 0
240 267 -986 0
-678 -13 251 0
722 565 -377 0
10 -945 900 0
-121 -296 -126 0
-183 482 91 0
-705 -420 -157 0
-272 188 -298 0
790 -42 -69 0
626 -253 987 0
-735 487 -395 0
234 479 -735 0
53 612 293 0
821 56 282 0
-237 958 862 0
788 -767 198 0
74 155 402 0
977 29 982 0
593 780 -984 0
843 -144 837 0
-313 -893 723 0
-185 -279 -404 0
948 870 -677 0
-722 399 434 0
307 143 887 0
234 -464 390 0
867 197 304 0
-874 408 -25 0
-147 -221 810 0
987 -642 233 0
-260 680 337 0
-534 -795 -607 0
-785 -11 -517 0
-84 -652 736 0
706 184 821 0
-74 -377 438 0
902 -862 -219 0
175 324 -231 0
869 -733 -760 0
-554 962 885 0
618 -511 50 0
-742 932 822 0
607 868 311 0
899 -615 -145 0
151 84 228 0
-892 -729 -17 0
-158 -696 -533 0
-994 423 33 0
-147 3 354 0
-912 670 -138 0
487 -70 197 0
463 859 -547 0
-964 666 641 0
-888 211 712 0
-463 -83 554 0
107 -913 763 0
441 -363 -138 0
507 734 -851 0
559 -568 995 0
-75 -675 296 0
580 -174 124 0
-135 53 -610 0
78 -429 16 0
-52 272 328 0
-944 -219 -384 0
-600 -500 -522 0
477 -875 -707 0
-496 -887 -922 0
-773 207 -984 0
-186 -526 -350 0
-65 -76 15 0
108 133 -395 0
-38 738 736 0
-611 -260 -704 0
-877 401 205 0
742 471 -263 0
-447 726 369 0
53 675 -141 0
198 -944 -591 0
210 -843 592 0
-870 -859 -879 0
286 -104 96 0
-710 208 186 0
428 -183 -314 0
-97 -541 -903 0
-1000 248 -567 0
770 155 56 0
340 556 -569 0
176 -254 252 0
-129 -473 691 0
-761 -349 728 0
-635 -583 724 0
961 916 540 0
998 -973 -277 0
-521 -1 -479 0
756 841 -152 0
-51 -253 244 0
-699 440 283 0
-229 -310 -278 0
-147 -845 232 0
337 750 479 0
-743 503 533 0
377 -344 -86 0
513 -514 -250 0
-893 -693 -386 0
223 706 -624 0
-164 604 -490 0
-421 407 164 0
808 -936 -563 0
401 -999 -170 0
136 -45 918 0
-810 -41 -460 0
988 59 -650 0
584 259 697 0
508 554 -758 0
-664 509 -64 0
-359 354 -697 0
-766 145 393 0
661 818 -569 0
416 293 730 0
-429 628 625 0
783 423 956 0
280 413 -699 0
550 -490 643 0
772 -479 -875 0
-832 -493 219 0
-899 184 32 0
498 -935 556 0
264 -821 29 0
919 -51 533 0
-997 773 -423 0
487 -840 166 0
66 625 -412 0
384 -810 642 0
-106 90 699 0
107 498 -19 0
35 298 -882 0
-377 856 942 0
-699 29 215 0
125 212 750 0
351 -497 370 0
-196 180 192 0
471 590 -192 0
350 -463 72 0
930 158 762 0
390 -174 884 0
-70 319 764 0
-892 871 440 0
833 -330 834 0
-152 -466 -76 0
962 -940 -656 0
-248 -301 103 0
270 618 155 0
33 920 -785 0
-50 622 719 0
-918 133 -156 0
213 227 -541 0
-545 -730 -641 0
-426 -497 -3 0
612 -355 474 0
-597 -807 -31 0
-218 494 731 0
123 -652 -56 0
-586 -183 -632 0
-134 -611 -117 0
-615 -79 -885 0
-640 -718 506 0
-522 -745 -195 0
458 -317 432 0
188 272 -437 0
426 -368 435 0
-893 -632 -722 0
-566 223 293 0
685 448 779 0
-298 -204 873 0
-592 -54 -409 0
-493 821 -750 0
-758 -790 -21 0
310 -953 686 0
343 -295 -787 0
580 -111 622 0
230 -899 71 0
-235 600 -338 0
158 206 -96 0
-356 307 440 0
575 241 -655 0
-34 -639 89 0
-853 931 -391 0
816 -410 415 0
628 718 -731 0
-985 -742 987 0
-249 890 -385 0
901 -164 -240 0
-557 -625 -356 0
619 652 -353 0
-431 -611 939 0
-86 446 -252 0
117 790 -969 0
-534 -226 635 0
-470 -953 -378 0
528 -578 355 0
338 -543 956 0
-477 354 -571 0
-429 739 -984 0
-164 268 102 0
-720 562 402 0
270 -321 445 0
693 -437 231 0
112 852 -638 0
-868 411 -489 0
-461 -485 916 0
-803 915 -56 0
441 -538 471 0
-817 61 888 0
-638 -520 -516 0
-97 694 -399 0
926 927 -211 0
281 797 133 0
856 24 566 0
245 -904 -919 0
-406 730 1 0
-118 319 -296 0
72 -147 -654 0
-865 466 856 0
-435 -249 -109 0
-126 547 616 0
-369 686 -602 0
466 89 -197 0
338 -104 -1 0
-527 -194 959 0
-351 -95 -172 0
-844 -297 105 0
-942 641 -963 0
-471 -178 939 0
-10 579 -31 0
-237 -289 823 0
931 686 -842 0
731 255 -114 0
318 784 -924 0
955 890 -78 0
-442 998 -545 0
267 658 -849 0
-931 56 -255 0
-824 882 305 0
636 819 906 0
320 -414 142 0
142 195 -336 0
-650 -111 990 0
-226 22 -218 0
448 151 -640 0
802 -471 750 0
-71 -392 909 0
-977 -193 217 0
-150 141 -346 0
-694 407 -746 0
682 829 270 0
172 73 -634 0
747 199 597 0
954 -363 78 0
382 912 -874 0
-450 519 -302 0
-893 658 70 0
691 -868 -770 0
734 832 -385 0
249 -681 -994 0
-832 926 186 0
948 504 -771 0
758 -519 -418 0
799 950 -146 0
672 -76 -881 0
866 -445 276 0
931 233 759 0
629 -801 -153 0
-313 -697 -454 0
-339 738 607 0
354 543 -666 0
314 -5 88 0
828 -719 573 0
441 369 695 0
507 -597 588 0
423 -276 -56 0
993 -341 -496 0
954 -184 -263 0
-482 -726 -62 0
8 -496 536 0
-240 161 122 0
-362 -297 -78 0
221 -700 -36 0
-325 690 400 0
126 641 -674 0
-95 -450 771 0
183 505 -847 0
685 596 -377 0
-121 641 -436 0
381 -435 -956 0
-732 -728 50 0
-426 58 187 0
-68 -490 -14 0
-809 621 462 0
248 -582 633 0
-875 345 603 0
-662 476 86 0
337 414 865 0
-389 -922 738 0
12 621 -216 0
-217 908 -704 0
10 -798 39 0
512 924 493 0
638 630 -598 0
832 587 463 0
-766 -599 176 0
194 -902 -682 0
-654 -473 658 0
340 -333 606 0
307 -384 332 0
-348 -859 -880 0
937 963 -424 0
595 -291 -884 0
-970 -642 -617 0
586 637 -494 0
558 -365 -849 0
522 853 -552 0
-453 -567 483 0
680 -362 -899 0
952 -594 -433 0
586 -570 45 0
-781 474 -590 0
-792 437 -932 0
-274 90 -414 0
552 -383 384 0
-276 524 242 0
384 201 255 0
-479 -163 -432 0
-504 -601 986 0
853 -464 609 0
-144 -418 946 0
-599 -940 -458 0
-266 962 -594 0
-758 -453 -496 0
-318 -914 453 0
884 203 -267 0
-552 594 279 0
-411 -314 953 0
-135 -741 -206 0
206 500 881 0
-501 997 686 0
928 -422 -188 0
953 -14 557 0
955 584 -505 0
-166 -352 69 0
207 368 836 0
807 -267 322 0
-897 -139 861 0
-372 -782 477 0
-293 -682 438 0
-364 786 238 0
663 -323 332 0
-33 -96 -303 0
942 172 914 0
-661 308 448 0
82 170 913 0
540 -906 -927 0
-964 661 569 0
-269 -942 550 0
410 1 454 0
-412 152 542 0
557 -998 -330 0
367 371 -557 0
923 251 -232 0
-995 -618 633 0
-588 783 -197 0
-460 -194 -818 0
-424 -267 450 0
-445 853 608 0
35 -185 800 0
272 603 649 0
77 908 -68 0
954 -594 567 0
-774 138 286 0
-307 780 -81 0
978 524 -105 0
-565 -423 -945 0
-259 -277 206 0
380 -280 323 0
-23 925 -923 0
998 -867 363 0
713 -888 308 0
321 -812 832 0
784 -939 836 0
-55 -958 -78 0
771 -808 692 0
862 -397 -510 0
42 658 -241 0
-753 925 383 0
-357 964 -316 0
849 -450 -331 0
786 -263 110 0
953 801 -440 0
714 -766 -342 0
-88 635 930 0
991 -334 168 0
-123 976 -499 0
871 -498 -411 0
916 650 719 0
-37 867 180 0
-218 543 789 0
-603 -343 230 0
-377 784 720 0
-788 377 -61 0
696 443 -827 0
568 93 398 0
253 917 224 0
425 602 -975 0
-505 -884 -747 0
-558 -4 321 0
-42 738 919 0
214 -500 -928 0
946 327 832 0
582 883 519 0
154 -577 289 0
817 933 939 0
371 -165 -571 0
434 836 -147 0
-902 -779 -946 0
671 915 -422 0
-27 -663 421 0
892 999 647 0
214 457 -486 0
536 -898 371 0
477 345 32 0
-413 -513 -429 0
-237 252 -189 0
238 356 827 0
743 -794 601 0
613 -346 36 0
717 174 -119 0
440 -402 381 0
226 -298 793 0
-337 540 168 0
-259 624 209 0
-20 -304 -75 0
675 702 -157 0
-305 255 33 0
-821 255 795 0
-103 105 963 0
107 -95 648 0
73 230 773 0
867 616 -548 0
596 184 620 0
383 606 -797 0
-179 906 -965 0
28 373 391 0
-163 -682 201 0
-94 -588 225 0
830 712 -520 0
662 545 -281 0
464 -14 476 0
843 -587 -293 0
-263 -713 854 0
-191 292 -60 0
546 -35 802 0
-981 751 -765 0
583 137 673 0
-827 -187 -312 0
696 1 228 0
862 -142 67 0
-315 77 869 0
-178 386 438 0
889 242 -850 0
343 369 34 0
-534 -170 321 0
191 706 294 0
-130 360 117 0
-809 -729 332 0
-508 906 407 0
-116 -623 -714 0
114 73 -692 0
-466 976 401 0
-87 -119 582 0
464 416 -344 0
508 76 -421 0
-5 600 -746 0
-727 -806 67 0
241 -570 -633 0
-987 -325 971 0
-47 -78 -937 0
-879 -83 -963 0
-240 -145 -702 0
-285 153 -592 0
-592 900 -924 0
-46 687 216 0
-784 -37 -119 0
444 823 -522 0
-999 -783 684 0
327 -100 -114 0
71 799 -97 0
-306 475 201 0
856 459 770 0
-246 -513 782 0
740 -815 716 0
-134 39 251 0
709 763 729 0
-958 658 13 0
853 -664 142 0
-990 562 907 0
-387 -735 963 0
430 -48 -235 0
-500 31 241 0
-506 951 550 0
700 238 -947 0
-289 945 992 0
327 303 80 0
-566 581 -731 0
-747 -301 -771 0
-94 -173 -233 0
-961 845 -437 0
908 -448 -229 0
198 898 -166 0
816 -148 -13 0
-364 220 -24 0
-609 -66 -789 0
-663 -866 -834 0
-47 762 -945 0
-485 -545 -533 0
-240 337 -5 0
867 439 -512 0
-121 26 -872 0
789 823 543 0
956 -275 -632 0
371 212 638 0
744 715 504 0
-863 -339 553 0
-493 241 -66 0
-244 552 47 0
981 51 -609 0
492 438 -806 0
-320 -488 963 0
-411 753 452 0
-121 916 262 0
-126 -850 -741 0
-896 -173 992 0
-964 61 -506 0
-654 840 869 0
-644 -591 -487 0
831 394 434 0
-242 -356 456 0
-658 829 627 0
-653 665 433 0
459 273 130 0
-748 -460 -708 0
-370 -313 162 0
563 936 931 0
-336 -266 -557 0
56 -945 -271 0
-807 -172 154 0
-795 692 798 0
779 -660 -981 0
-785 -629 395 0
909 -89 992 0
876 -190 -196 0
285 -213 839 0
-626 525 385 0
864 133 -884 0
-343 -666 -815 0
591 -547 -59 0
586 -796 544 0
747 -863 -278 0
-118 292 -836 0
16 293 -78 0
-92 -787 -562 0
662 -283 -432 0
-820 -345 90 0
-902 -985 655 0
49 996 -272 0
53 910 159 0
422 -620 659 0
706 -249 588 0
830 -469 -420 0
550 55 157 0
745 705 694 0
123 -625 -68 0
-741 174 -52 0
110 -122 949 0
960 -922 526 0
-893 215 216 0
447 -66 121 0
125 861 409 0
-495 913 677 0
108 -684 -732 0
40 940 -119 0
66 450 429 0
-170 -600 -509 0
617 896 -539 0
-624 928 -157 0
460 -816 771 0
934 -78 422 0
559 -735 -64 0
-390 628 -441 0
283 640 210 0
-545 870 -884 0
-824 907 633 0
68 592 948 0
556 811 -465 0
-88 523 795 0
99 297 -453 0
-813 117 -761 0
881 -376 887 0
-214 -369 -541 0
-10 -540 -611 0
582 719 716 0
415 -279 -337 0
703 441 -546 0
944 -416 353 0
507 940 903 0
515 36 158 0
-695 666 583 0
31 944 -242 0
-603 967 902 0
624 -937 -275 0
891 345 -249 0
154 -135 116 0
-167 570 380 0
-386 369 -246 0
770 -490 81 0
705 -97 -162 0
388 -340 -369 0
-75 -513 -11 0
470 916 870 0
-373 -963 -473 0
-454 -26 -547 0
193 505 943 0
424 330 -179 0
945 637 -370 0
96 714 -849 0
-170 -744 412 0
-766 71 -975 0
-363 812 215 0
-97 -926 643 0
-322 -858 874 0
-439 -503 42 0
-321 910 656 0
-557 -780 126 0
-340 77 422 0
-253 -190 -533 0
-418 572 628 0
-411 -712 -520 0
436 -854 -380 0
987 -603 976 0
-884 66 -967 0
334 -187 764 0
-719 173 -433 0
-658 -770 454 0
-608 -86 290 0
-900 -594 -235 0
-407 -953 -595 0
31 104 981 0
941 -614 -942 0
817 932 -743 0
-773 920 710 0
-389 117 -912 0
978 443 225 0
203 -229 -428 0
506 -486 485 0
-991 946 813 0
310 -349 -236 0
-152 191 34 0
174 491 -910 0
239 -682 -68 0
-95 624 -378 0
-23 -308 426 0
-415 -763 469 0
521 528 347 0
-216 -924 933 0
838 481 48 0
516 -721 846 0
691 -963 586 0
-300 925 5 0
-545 941 -296 0
952 -483 831 0
290 -341 444 0
-958 -756 339 0
-879 201 -258 0
711 605 -376 0
663 522 710 0
994 754 -505 0
-53 950 972 0
-152 -266 -421 0
212 -360 280 0
-95 -931 -576 0
779 634 -309 0
276 -742 796 0
-988 -273 870 0
-535 390 635 0
157 -546 -460 0
-364 617 -858 0
688 -779 -777 0
-727 -897 685 0
-663 -873 -108 0
77 -822 697 0
53 572 510 0
-766 -128 132 0
-640 465 133 0
-972 -634 998 0
616 -866 -455 0
445 -800 -438 0
-850 -780 -926 0
8 -925 -503 0
-297 587 539 0
624 352 268 0
563 174 923 0
-579 463 461 0
89 -370 390 0
-497 -995 -806 0
-984 218 -36 0
-868 870 593 0
-469 -695 878 0
-885 -595 -813 0
810 -479 739 0
934 730 621 0
824 -547 -336 0
-41 -673 -401 0
-943 981 -790 0
-677 517 147 0
924 -45 240 0
-13 742 38 0
571 -849 660 0
-187 547 -63 0
395 63 -982 0
698 -767 -108 0
-358 -709 -630 0
749 80 -86 0
64 169 714 0
-293 -168 818 0
946 -614 -169 0
-163 833 -97 0
953 -888 -196 0
-666 947 339 0
-541 934 -827 0
-827 141 -138 0
-564 -646 714 0
-105 134 510 0
-408 -389 -756 0
-958 -24 -816 0
399 432 -95 0
544 225 -75 0
823 593 199 0
873 21 177 0
-755 -48 -246 0
683 -762 -140 0
-545 -259 965 0
667 -608 963 0
-437 707 405 0
676 -922 -356 0
-127 808 -663 0
-58 -375 -758 0
-739 781 973 0
863 -482 -699 0
187 65 948 0
-622 73 -125 0
-722 308 431 0
-915 883 -93 0
-943 278 203 0
-636 -455 -155 0
430 660 -84 0
-488 565 556 0
-176 -306 -137 0
39 441 -372 0
-768 903 -174 0
756 205 333 0
-959 -20 -539 0
-540 -518 -122 0
-464 256 666 0
921 -377 99 0
333 634 93 0
556 -655 305 0
500 695 818 0
233 535 -559 0
762 799 -157 0
-55 338 -168 0
-780 811 -97 0
-617 885 -587 0
433 604 -785 0
110 198 -59 0
-876 626 145 0
-163 28 -98 0
702 -621 427 0
507 -83 -275 0
-289 -85 213 0
790 -543 -974 0
520 105 374 0
-755 -198 -668 0
-405 -681 902 0
127 -927 522 0
-465 -261 788 0
-481 -325 147 0
261 746 -454 0
435 604 -687 0
-645 17 414 0
-806 30 -500 0
117 -670 90 0
-934 -426 547 0
-508 437 418 0
333 -21 428 0
-153 -65 -895 0
832 245 -809 0
-41 952 753 0
618 698 -236 0
-593 888 -677 0
919 362 -822 0
439 826 -416 0
184 469 -447 0
-193 -126 929 0
-861 773 180 0
138 930 532 0
444 621 662 0
-863 485 527 0
-514 -836 195 0
-41 -740 -494 0
-259 -91 -64 0
-518 -473 -830 0
-149 -46 -966 0
992 -722 711 0
270 126 328 0
-578 804 -267 0
-638 759 851 0
9 -574 -393 0
-132 184 -11 0
945 -1000 957 0
432 823 -233 0
-983 56 -749 0
-822 -799 310 0
780 60 309 0
817 785 674 0
31 517 -246 0
-507 48 -845 0
511 127 -533 0
-372 -752 167 0
908 695 141 0
-442 -425 733 0
-900 197 -942 0
34 -885 -520 0
344 -47 25 0
-737 757 -959 0
565 321 -797 0
724 79 835 0
129 196 -47 0
801 -396 -108 0
555 -373 -696 0
-644 -72 427 0
-377 781 861 0
208 378 166 0
-449 29 723 0
-154 -676 -709 0
629 -478 -785 0
310 511 -546 0
453 908 836 0
952 -125 186 0
-402 63 -888 0
993 189 12 0
-557 662 -652 0
484 874 -338 0
825 -531 -178 0
99 42 -97 0
-453 -420 -22 0
592 238 -947 0
-792 91 132 0
-107 -138 752 0
-741 622 -761 0
480 712 -979 0
-872 71 -850 0
556 -286 -544 0
268 -513 310 0
-842 -371 -996 0
930 -884 334 0
375 464 -828 0
-856 298 924 0
72 945 -88 0
638 -374 -559 0
-589 -765 448 0
166 18 745 0
817 -973 -375 0
-260 -52 -682 0
-228 804 522 0
820 801 967 0
-978 520 -840 0
859 -656 721 0
-111 -330 998 0
-522 -52 788 0
855 628 452 0
789 27 769 0
391 607 230 0
614 -497 -563 0
29 -765 568 0
829 -565 -824 0
-706 712 -59 0
-46 -691 887 0
9 424 493 0
-913 775 640 0
-554 775 529 0
347 -343 785 0
322 -420 -4 0
373 445 734 0
-423 877 144 0
-396 121 -637 0
250 -602 392 0
628 147 -176 0
615 -453 855 0
-814 -603 -717 0
-174 -786 -128 0
-841 876 950 0
-582 122 586 0
746 -401 199 0
425 104 -496 0
-940 -534 -436 0
227 832 -128 0
-221 410 548 0
601 575 -193 0
13 162 -368 0
705 -852 -976 0
200 -589 311 0
-847 -862 -872 0
355 -138 -788 0
294 629 275 0
285 -129 -192 0
884 388 412 0
-13 288 -735 0
-278 419 602 0
593 -387 -27 0
909 684 723 0
26 957 -695 0
681 50 367 0
-660 900 -412 0
-18 252 448 0
542 -307 -180 0
75 210 -256 0
-836 -355 982 0
-142 -405 345 0
659 224 -311 0
-26 475 824 0
219 977 292 0
623 -318 -310 0
-773 -736 513 0
290 200 -348 0
447 -747 -35 0
-726 -588 -219 0
131 -335 807 0
-653 -30 -8 0
-85 -166 -459 0
405 204 -595 0
664 -210 646 0
172 -714 -955 0
-811 -49 -375 0
981 646 -767 0
-585 -881 646 0
-345 -927 -389 0
-540 -903 589 0
743 -679 -43 0
-11 1 481 0
-31 971 -462 0
-483 -328 906 0
581 709 -309 0
-27 723 -351 0
-35 -355 200 0
900 275 -980 0
415 304 -756 0
-452 -331 -518 0
-460 681 291 0
-430 211 941 0
-434 -162 -232 0
833 -688 350 0
-700 -753 -367 0
841 746 -452 0
260 524 219 0
-53 -208 -817 0
-207 547 -124 0
87 -657 -900 0
-246 28 782 0
996 270 -306 0
380 -76 -728 0
-757 -664 490 0
373 -572 -673 0
748 -19 635 0
-750 690 443 0
-484 -872 762 0
941 718 429 0
-12 -123 -548 0
404 462 -699 0
280 882 802 0
-692 -86 292 0
-736 -624 236 0
439 901 793 0
-784 817 397 0
749 -713 -236 0
-880 525 -810 0
-334 -924 -417 0
359 569 677 0
-32 171 551 0
-519 566 19 0
646 691 -153 0
235 -845 278 0
163 -876 30 0
-297 798 -198 0
367 -783 -396 0
-177 -438 320 0
-976 -905 -86 0
658 186 998 0
-525 947 545 0
-526 201 243 0
627 178 865 0
436 956 85 0
-490 908 -608 0
-810 542 618 0
-164 63 -476 0
831 26 443 0
-624 302 823 0
-531 -200 967 0
-340 -185 588 0
556 353 -937 0
-144 -88 -876 0
-285 483 606 0
867 -475 739 0
-567 179 537 0
-697 -417 292 0
-988 622 -535 0
167 -691 473 0
-349 228 54 0
-959 543 -223 0
51 -458 -412 0
302 998 -57 0
331 -652 270 0
125 745 -166 0
391 892 -601 0
-76 955 -319 0
857 309 -531 0
42 959 485 0
-720 -411 4 0
891 -859 -982 0
958 51 580 0
668 -337 830 0
-941 322 305 0
-640 -592 -221 0
647 -122 -890 0
692 724 568 0
-500 796 619 0
-5 -443 993 0
612 -118 57 0
-795 -285 963 0
-91 962 -83 0
-681 -430 -766 0
419 46 21 0
-822 697 320 0
-130 484 -871 0
-712 427 391 0
271 308 -906 0
-286 313 -209 0
-47 411 961 0
255 552 -134 0
925 20 -432 0
-325 -153 -20 0
-697 168 -280 0
-320 195 -86 0
-56 -907 -849 0
-656 -513 817 0
-670 539 650 0
-306 209 352 0
-537 362 863 0
243 -938 351 0
-879 966 5 0
59 171 512 0
-111 734 679 0
715 173 -799 0
19 -196 -623 0
762 223 -820 0
509 -533 -128 0
206 634 -989 0
724 -609 910 0
241 428 578 0
-227 158 633 0
-995 625 -501 0
-856 -460 -467 0
-551 14 520 0
432 992 499 0
-883 -654 -601 0
-227 761 -311 0
-481 -485 894 0
-62 227 -723 0
-618 -791 756 0
26 -349 -160 0
643 644 -47 0
324 -222 64 0
117 408 -742 0
843 683 -707 0
480 -549 -617 0
186 423 -816 0
803 -95 -905 0
871 530 979 0
350 -490 317 0
-269 477 -335 0
-615 226 -371 0
721 5 -332 0
-191 -28 277 0
91 79 -690 0
-979 -731 -585 0
758 -860 547 0
-36 940 -832 0
-187 921 788 0
184 -637 96 0
956 335 465 0
398 -740 -916 0
-923 -373 740 0
7 -525 -945 0
166 148 -618 0
60 235 715 0
939 336 -307 0
345 -511 318 0
-35 134 -130 0
-794 381 819 0
-294 981 612 0
-242 51 829 0
-646 866 888 0
-181 872 104 0
566 -674 -586 0
-34 -368 -435 0
151 576 104 0
-311 -962 205 0
-27 -765 -755 0
-185 -844 771 0
-377 -854 -340 0
156 340 400 0
697 -690 537 0
-319 -742 -741 0
382 963 344 0
-921 644 528 0
372 420 754 0
652 891 380 0
614 739 470 0
267 884 315 0
-269 506 -496 0
-259 -153 -965 0
729 -438 -796 0
514 600 -238 0
-112 -901 801 0
850 -219 -618 0
-685 481 -956 0
630 -553 -936 0
260 348 670 0
581 410 -523 0
-43 -351 -794 0
967 -725 868 0
712 -434 -718 0
431 -148 270 0
-595 465 611 0
685 917 46 0
-825 698 -729 0
599 158 918 0
-169 -352 -670 0
186 541 -360 0
296 651 -436 0
633 567 950 0
-506 262 155 0
530 703 992 0
540 589 708 0
-231 -191 -248 0
754 -646 753 0
340 999 -397 0
141 665 221 0
-878 835 -551 0
-395 590 772 0
-29 -845 -88 0
-963 354 -254 0
516 917 -103 0
-527 -867 667 0
22 207 -478 0
196 -545 333 0
-392 161 -605 0
273 278 897 0
-864 -518 -598 0
-803 860 -750 0
252 998 709 0
-214 -557 673 0
-151 350 58 0
-983 140 -377 0
-869 -528 -561 0
-474 205 -45 0
207 -6 -923 0
-32 155 -77 0
393 356 -727 0
-681 -820 -950 0
57 -336 -1 0
-290 -847 -369 0
118 -886 601 0
824 356 681 0
-810 641 -147 0
622 427 184 0
380 18 -780 0
470 -346 345 0
-816 -586 -535 0
643 865 878 0
-522 -578 732 0
-615 746 -201 0
-292 -485 452 0
976 -135 -342 0
737 161 -226 0
147 222 683 0
644 558 -620 0
-849 -863 102 0
403 -29 648 0
-509 -698 -900 0
-636 275 47 0
62 -964 461 0
-759 917 804 0
565 -666 299 0
-651 240 -915 0
-295 -466 848 0
-350 897 685 0
973 -59 816 0
-87 -465 507 0
-185 -412 708 0
-372 -405 497 0
766 -323 729 0
411 -537 672 0
-699 292 -68 0
898 866 -601 0
-840 686 -806 0
-958 764 132 0
-844 629 -735 0
633 -555 224 0
-116 -29 -821 0
230 -426 -746 0
-80 223 146 0
966 521 464 0
-327 93 -967 0
-60 -508 115 0
-863 -52 -429 0
319 463 -749 0
55 600 -502 0
-224 -262 -440 0
678 472 -657 0
68 729 -941 0
-857 846 89 0
341 -860 711 0
-68 -579 801 0
37 678 -556 0
-309 -67 -259 0
763 275 -511 0
488 -137 373 0
136 14 -317 0
567 526 -710 0
-543 -759 -720 0
-888 -266 -99 0
-186 -980 6 0
-911 746 -147 0
-10 588 847 0
-383 168 429 0
-970 337 540 0
-182 -295 -475 0
611 -903 -849 0
78 -992 96 0
375 -306 -4 0
-507 -685 465 0
896 420 443 0
491 791 807 0
474 435 332 0
-702 -109 -648 0
593 -354 -214 0
-641 415 712 0
-1000 752 378 0
284 699 -275 0
-732 -534 173 0
-599 464 -207 0
-854 436 -414 0
70 941 333 0
594 -568 -752 0
-922 -383 7 0
-216 276 604 0
735 361 -640 0
-202 -663 -994 0
-192 -180 -120 0
894 37 809 0
927 594 134 0
-449 88 393 0
163 435 -373 0
-431 -19 678 0
735 998 695 0
536 -607 -813 0
680 714 819 0
303 23 428 0
-910 -934 -863 0
883 -701 -438 0
-706 697 -845 0
-113 599 328 0
-305 -382 -534 0
968 -289 -605 0
-553 -366 192 0
592 150 -491 0
-427 -445 -117 0
-728 -695 217 0
527 58 -734 0
239 -996 -556 0
599 -733 530 0
507 113 332 0
-934 -842 148 0
380 103 887 0
-540 397 578 0
-233 -693 -283 0
-502 -964 -380 0
251 445 806 0
552 -1 -192 0
-506 599 -510 0
-209 -558 -55 0
-363 772 119 0
-23 -846 747 0
-722 962 164 0
-885 -78 -678 0
399 507 723 0
834 -666 68 0
-158 15 -189 0
-562 530 776 0
-583 517 184 0
-139 775 375 0
-335 -520 723 0
-725 862 -385 0
848 -776 -158 0
-739 -202 374 0
753 -757 685 0
861 566 -436 0
58 482 701 0
-888 232 616 0
-225 412 94 0
770 -95 -386 0
922 -589 -552 0
669 989 595 0
-282 -166 -272 0
404 657 -559 0
588 934 143 0
347 -207 -428 0
-674 -673 335 0
233 786 -49 0
645 -881 -451 0
900 311 -654 0
-58 24 -21 0
858 -38 -739 0
132 -709 -963 0
-303 -145 256 0
141 885 -894 0
-42 424 287 0
409 -595 899 0
-562 -936 14 0
-377 993 200 0
647 -19 -924 0
-667 367 513 0
-697 -110 -611 0
-2 -149 219 0
294 -833 901 0
500 273 258 0
256 211 620 0
918 -632 -960 0
-236 97 358 0
740 194 296 0
-83 177 -604 0
759 595 463 0
-204 637 748 0
-781 -795 -667 0
465 -953 66 0
587 -379 -124 0
-418 621 -944 0
-962 -141 903 0
140 843 -575 0
-334 894 -182 0
-695 -319 440 0
-855 536 -36 0
-34 -125 -40 0
365 920 172 0
486 391 641 0
-179 831 -705 0
-897 549 -134 0
650 -850 -680 0
943 -555 -966 0
248 696 70 0
332 -686 112 0
-579 859 312 0
-695 -597 -456 0
-497 335 550 0
778 -297 607 0
131 -862 -396 0
566 -860 -442 0
-72 199 691 0
27 954 852 0
-11 -542 -152 0
-328 454 -830 0
-669 -715 -967 0
717 895 -312 0
927 -697 513 0
-911 -184 438 0
-404 -837 70 0
-765 -16 -310 0
-331 -804 602 0
-993 -107 -711 0
347 -499 -61 0
-639 -420 -109 0
-225 8 862 0
214 -377 -300 0
-139 253 810 0
-745 -52 328 0
-592 -316 -839 0
-993 499 -504 0
228 735 129 0
776 936 87 0
-273 397 901 0
-967 735 869 0
-144 -408 191 0
-352 -753 -203 0
-544 66 -759 0
-900 -274 -976 0
651 925 -858 0
-804 917 -989 0
930 776 -17 0
534 555 269 0
881 52 811 0
-810 426 204 0
-73 -251 167 0
697 -147 626 0
349 262 -7 0
952 65 696 0
306 89 -362 0
-600 -4 885 0
-464 545 -448 0
-498 -982 -853 0
388 494 684 0
18 -609 -906 0
-798 306 -105 0
781 -415 331 0
252 961 113 0
-630 201 -335 0
-934 -264 152 0
28 -323 142 0
-352 537 886 0
-562 -784 850 0
770 -41 134 0
-705 -240 988 0
-912 -961 37 0
395 771 172 0
-396 -357 10 0
616 -287 -891 0
381 -75 -680 0
-322 633 866 0
-524 -305 -575 0
690 -212 365 0
809 -157 391 0
-501 385 870 0
791 -112 259 0
851 -520 761 0
35 113 -325 0
-32 374 640 0
-755 -15 332 0
-269 -229 715 0
302 189 461 0
-637 -118 -257 0
-243 -594 272 0
424 -343 -696 0
832 -993 -605 0
619 29 681 0
-626 674 438 0
438 -482 -885 0
-997 -696 463 0
-243 -271 -778 0
-301 -293 428 0
-559 769 4 0
-199 332 897 0
727 -213 -328 0
146 734 -665 0
-937 283 -292 0
-383 -301 -85 0
-555 186 -655 0
-446 990 -624 0
466 -355 -974 0
-426 -765 615 0
747 -863 626 0
-461 -956 -865 0
-202 536 -745 0
-327 892 -484 0
692 -61 -342 0
488 -612 731 0
-997 -208 657 0
-910 -114 -991 0
-91 -887 -848 0
-272 851 792 0
303 405 -730 0
617 361 -590 0
456 850 -341 0
-43 -959 -26 0
758 17 469 0
163 952 -951 0
649 904 973 0
420 -848 794 0
831 806 672 0
7 -818 -908 0
882 -669 -797 0
-930 -945 -622 0
-160 333 144 0
-120 -190 529 0
-16 946 26 0
236 -170 290 0
-563 -417 212 0
375 -290 -195 0
624 -471 -183 0
677 69 119 0
391 260 -270 0
212 -89 549 0
704 641 -329 0
24 -835 133 0
-501 -697 -713 0
-687 922 -642 0
-65 953 977 0
764 349 -232 0
-38 660 -709 0
749 172 -538 0
694 318 -277 0
-673 -870 -850 0
62 842 145 0
193 -58 765 0
955 82 274 0
789 -295 844 0
652 -678 -574 0
-442 363 293 0
-235 -161 -710 0
167 62 957 0
367 -596 826 0
110 662 -231 0
-207 973 396 0
-299 -165 762 0
-573 680 -762 0
-480 799 537 0
834 -175 -487 0
-688 -812 298 0
457 569 -129 0
-348 -752 480 0
592 -761 -857 0
786 839 -89 0
514 -617 -864 0
195 -978 378 0
-51 182 775 0
803 -375 81 0
-268 -861 -422 0
-927 -37 -251 0
490 -888 -552 0
-86 459 945 0
-553 -865 -790 0
-671 73 -789 0
-39 663 540 0
151 369 122 0
783 -799 -82 0
605 -797 -320 0
270 818 -545 0
897 959 839 0
-250 -432 48 0
567 -524 -871 0
582 -875 -336 0
-146 -238 -681 0
-751 758 -162 0
-659 -517 222 0
-623 -490 4 0
-695 -478 -577 0
903 -191 -311 0
589 535 -55 0
353 -221 487 0
698 -807 -735 0
25 846 422 0
654 -595 -701 0
-656 -941 -191 0
-640 -310 729 0
-394 40 700 0
79 -483 -489 0
117 109 -53 0
657 -961 -597 0
-180 -889 848 0
-729 683 836 0
267 -638 -233 0
-701 326 69 0
86 -700 368 0
247 -504 47 0
239 -240 -191 0
-828 -459 -258 0
-471 655 646 0
830 -770 -37 0
-776 -87 -628 0
495 -690 -782 0
484 -962 10 0
487 -322 -225 0
-301 6 125 0
-842 -872 117 0
842 424 500 0
875 -660 -703 0
-413 557 -92 0
-98 -812 -249 0
-882 454 890 0
798 -816 -236 0
-79 -410 417 0
-934 -250 -14 0
527 708 -707 0
-214 55 451 0
555 27 421 0
-716 210 728 0
905 813 447 0
593 -480 806 0
-769 236 -602 0
247 -988 -752 0
607 156 159 0
204 353 -543 0
772 426 452 0
287 -146 -484 0
735 234 -337 0
-976 -917 -869 0
750 341 -904 0
299 375 -14 0
-285 975 998 0
-926 -787 -706 0
862 864 -24 0
374 81 -533 0
221 189 -412 0
-800 -316 629 0
-968 742 -255 0
-330 -659 -384 0
406 -218 119 0
950 222 -912 0
317 -715 115 0
-451 244 -374 0
-97 -897 260 0
715 -41 -584 0
-188 -192 625 0
-46 -199 172 0
30 -890 874 0
-774 -410 897 0
273 187 1000 0
-741 555 -427 0
-262 352 555 0
120 -544 636 0
125 133 -818 0
-761 587 -4 0
487 -795 274 0
-839 110 759 0
864 611 -644 0
476 28 561 0
331 789 236 0
50 -124 166 0
89 556 -249 0
749 729 511 0
837 -640 873 0
-571 155 646 0
390 -581 531 0
-234 907 750 0
21 983 492 0
-563 -8 84 0
-457 789 181 0
418 -825 683 0
832 455 273 0
961 -125 515 0
-249 121 943 0
-334 590 -619 0
944 328 817 0
72 -839 -240 0
-35 115 -904 0
551 -859 885 0
405 448 41 0
930 -132 28 0
-775 851 -588 0
-221 -757 -837 0
163 -852 523 0
-367 -974 825 0
703 345 817 0
335 -506 -764 0
886 -792 -675 0
-301 957 -182 0
-921 27 595 0
-515 -85 -797 0
-90 -821 840 0
-535 259 -37 0
670 -635 -928 0
-63 -970 292 0
-394 60 -430 0
383 -378 -821 0
-567 948 643 0
-558 -434 570 0
375 771 -236 0
387 736 93 0
-782 812 -216 0
-795 906 31 0
592 632 176 0
-837 -103 160 0
-298 -506 -766 0
-296 -684 -524 0
-412 -601 -667 0
-430 488 243 0
-282 404 174 0
862 -672 -252 0
-685 -69 -413 0
-344 -118 -925 0
6 768 -440 0
-738 341 924 0
-868 -442 728 0
-830 119 842 0
-883 -284 623 0
473 911 969 0
575 -197 -936 0
419 652 367 0
-902 -461 -807 0
-5 989 -426 0
-842 -121 739 0
8 -785 -392 0
-323 146 -301 0
588 804 377 0
-649 -296 620 0
-267 -915 552 0
-298 -955 -182 0
57 499 742 0
890 766 114 0
-24 -252 -177 0
-496 -450 -472 0
-173 826 242 0
344 667 278 0
-642 -323 -440 0
-66 235 -8 0
656 48 880 0
933 -470 -285 0
-203 -444 -41 0
940 -645 971 0
308 270 165 0
654 -558 -616 0
-715 544 -397 0
-17 422 -230 0
-140 647 -518 0
-168 388 21 0
575 -496 -639 0
-483 -870 165 0
-904 -322 -446 0
928 -673 719 0
805 -216 -619 0
43 -733 -125 0
-911 -482 -633 0
687 -912 735 0
574 54 589 0
591 -480 218 0
401 507 285 0
939 348 -14 0
346 -141 -530 0
-369 614 115 0
171 -831 -144 0
688 170 837 0
-75 -22 907 0
450 -847 -256 0
944 -936 -451 0
-749 761 -412 0
101 -767 -18 0
39 -550 -289 0
-495 701 -857 0
521 -393 -670 0
372 -844 667 0
-627 449 353 0
672 385 -117 0
-497 -987 -68 0
-448 -470 7 0
-257 -470 -949 0
45 961 -104 0
-974 145 -366 0
691 812 203 0
210 -67 986 0
-22 766 689 0
-865 -409 -171 0
919 -145 655 0
-611 936 702 0
-784 -982 -523 0
-197 315 369 0
-380 115 803 0
172 -248 286 0
-284 410 390 0
177 -538 -932 0
455 147 466 0
755 372 970 0
-651 -925 -807 0
180 -624 -555 0
-429 -904 233 0
-938 575 -900 0
-506 77 -887 0
487 973 -124 0
-809 -454 170 0
851 342 999 0
-801 -552 -438 0
55 -54 718 0
-213 618 555 0
-924 404 -648 0
-490 863 -371 0
45 267 2 0
874 995 535 0
659 85 -148 0
4 -400 898 0
462 695 762 0
762 267 407 0
-115 -569 272 0
795 -244 612 0
-129 -219 809 0
37 962 208 0
146 544 846 0
-866 -568 -542 0
85 -496 931 0
-510 -369 -685 0
-225 632 -606 0
-566 691 445 0
822 -790 674 0
697 -570 50 0
255 -667 -514 0
262 923 -645 0
852 345 952 0
-757 -484 583 0
125 361 -666 0
-284 -458 -275 0
-643 -832 504 0
-801 -537 -202 0
341 853 470 0
-280 527 -79 0
-735 -618 -740 0
-613 78 620 0
-796 746 -873 0
-981 91 840 0
-106 893 -109 0
-852 -387 -851 0
-249 524 146 0
-447 -31 -81 0
504 790 705 0
-372 -110 -455 0
-825 19 -47 0
-649 993 -687 0
-474 864 -871 0
-640 -82 -344 0
994 654 842 0
-576 -153 838 0
-922 857 -183 0
986 481 142 0
-920 -277 -641 0
-700 946 -624 0
-82 -958 364 0
111 292 465 0
-806 430 909 0
519 -473 -55 0
775 -585 -9 0
-479 525 357 0
-969 123 109 0
-302 75 -750 0
418 -564 318 0
-335 797 212 0
258 -884 629 0
-475 990 733 0
618 -394 -73 0
849 524 833 0
848 -482 -680 0
-991 -825 885 0
-512 979 83 0
521 826 -731 0
-432 -672 -701 0
785 -761 160 0
-607 -17 140 0
-10 -288 248 0
-9 -33 -15 0
687 766 430 0
-145 93 -127 0
676 155 638 0
-787 -898 -236 0
-527 854 300 0
864 -413 598 0
-686 -207 461 0
770 950 -143 0
-672 452 858 0
-555 -734 -27 0
-862 -425 -329 0
559 958 141 0
253 -19 -101 0
352 -448 275 0
-284 292 667 0
-405 -414 691 0
-111 246 475 0
-848 857 -435 0
64 -86 -889 0
35 354 -28 0
914 -304 265 0
425 -6 287 0
522 71 -236 0
352 885 -501 0
-546 772 57 0
49 -543 369 0
-514 406 871 0
5 -419 -690 0
229 10 -624 0
-586 -259 510 0
-77 477 586 0
-894 -488 743 0
-466 286 229 0
995 -456 -636 0
-842 30 -428 0
623 53 557 0
-247 627 570 0
-888 -548 -434 0
-754 353 318 0
-769 661 -516 0
-717 269 -405 0
195 122 -524 0
-849 752 448 0
409 99 525 0
-45 -940 -755 0
172 707 -593 0
475 -974 -376 0
207 282 91 0
520 252 -924 0
195 179 -507 0
-253 -312 -561 0
592 849 -857 0
968 672 -491 0
439 436 885 0
-656 632 667 0
-489 370 -364 0
415 -36 649 0
-280 -851 -168 0
847 -55 798 0
311 -187 -394 0
-8 245 147 0
-511 554 -192 0
-411 361 427 0
743 740 211 0
-597 287 696 0
21 77 656 0
956 873 445 0
243 431 151 0
98 -11 81 0
878 -64 905 0
-891 -249 -503 0
221 363 419 0
925 -93 173 0
-966 -654 226 0
780 838 -790 0
584 -200 -510 0
197 276 -704 0
3 -246 -690 0
-701 691 872 0
-877 623 421 0
170 -102 -557 0
694 -919 715 0
-689 -443 -913 0
-494 -791 930 0
511 874 15 0
-876 -131 -162 0
-171 256 785 0
517 -882 635 0
631 -942 294 0
974 642 353 0
-381 407 719 0
373 -14 904 0
773 671 -476 0
-754 9 -625 0
-278 49 994 0
-196 403 116 0
640 -886 -478 0
-325 262 858 0
830 952 24 0
806 -869 188 0
633 -226 548 0
-577 -848 -13 0
505 -207 716 0
284 867 -572 0
-160 159 959 0
825 273 -272 0
-959 623 -137 0
-772 -243 -929 0
-397 355 -459 0
304 796 -822 0
-58 -874 -926 0
-347 168 23 0
904 -798 -439 0
-932 -548 -678 0
-47 -436 -345 0
117 -74 -693 0
442 -333 296 0
353 -199 -407 0
525 836 -318 0
-628 903 -13 0
631 -306 -723 0
-662 -650 211 0
40 303 -444 0
450 188 -352 0
-250 -196 204 0
494 -854 370 0
-782 -828 272 0
-430 -113 -788 0
724 -893 25 0
341 88 -105 0
-58 -60 -17 0
-775 -84 -635 0
-210 552 157 0
-306 901 927 0
441 -586 -386 0
-68 -484 -436 0
407 635 391 0
-639 165 322 0
-22 568 -984 0
-497 -329 -899 0
-304 -977 82 0
954 757 -425 0
798 961 -753 0
-494 280 -323 0
-496 228 963 0
346 627 108 0
49 -88 700 0
186 353 521 0
903 379 218 0
-968 -845 -988 0
-75 -626 16 0
919 577 92 0
942 -803 694 0
-869 881 -10 0
279 438 581 0
61 -742 409 0
-534 596 567 0
788 874 158 0
-324 -936 -847 0
-517 -337 552 0
-568 205 295 0
-636 -906 100 0
910 -797 -542 0
-218 154 -900 0
-415 -470 -906 0
-415 678 781 0
-216 16 834 0
332 -346 -477 0
351 977 99 0
-599 -978 207 0
853 494 -823 0
616 -847 -689 0
750 870 -580 0
738 911 782 0
151 -157 955 0
359 -240 348 0
-727 -659 483 0
756 182 -561 0
919 -689 858 0
-650 -879 905 0
-963 -257 -999 0
26 -832 345 0
-848 491 860 0
141 -61 -590 0
-175 -294 958 0
-977 158 -235 0
-192 -708 425 0
-691 884 503 0
-251 402 -812 0
583 743 -266 0
332 630 -902 0
571 435 135 0
26 -772 -700 0
-759 -329 552 0
-132 322 89 0
-998 -87 193 0
143 581 -120 0
-459 -714 -439 0
-814 -466 -598 0
-168 -326 879 0
-733 -467 -23 0
-828 13 -93 0
326 -544 -781 0
429 791 564 0
-600 -890 -258 0
160 884 -205 0
-812 702 213 0
309 706 -830 0
38 -109 -22 0
-605 -896 -631 0
-577 -170 -463 0
-442 -464 303 0
-822 968 333 0
-854 -408 195 0
931 244 -624 0
13 853 940 0
422 -387 -273 0
-108 848 859 0
735 384 -75 0
-857 -825 -403 0
315 -43 -825 0
-40 509 635 0
-197 -743 -887 0
-922 485 682 0
128 825 -359 0
-912 149 32 0
-511 674 -564 0
-145 -196 244 0
-854 28 -300 0
484 76 991 0
-517 394 -579 0
13 171 -210 0
159 -383 1000 0
315 -253 -757 0
-822 588 950 0
28 892 515 0
-192 -309 -610 0
-627 152 -315 0
947 -168 379 0
-217 -239 967 0
616 -903 -415 0
-641 116 906 0
925 805 571 0
-820 -638 -475 0
-808 -335 -164 0
482 367 -230 0
829 -113 367 0
856 -762 81 0
-81 319 -978 0
-882 218 -468 0
-908 -352 52 0
-461 712 -90 0
870 816 675 0
-35 -881 711 0
-346 -832 715 0
-926 842 -48 0
-688 961 462 0
-563 -240 -874 0
-695 89 162 0
-620 -77 -410 0
-388 -585 109 0
415 -57 -70 0
197 953 566 0
322 -148 534 0
-93 -479 -94 0
-422 776 -143 0
-454 -32 630 0
91 -127 658 0
-642 -701 206 0
957 -33 187 0
638 476 -223 0
-787 -49 33 0
605 -221 779 0
618 864 547 0
-236 -229 969 0
-669 6 518 0
-58 -652 -466 0
-338 -582 863 0
94 -507 319 0
530 -543 -383 0
766 -892 422 0
993 93 -777 0
440 494 -811 0
-703 -565 554 0
462 243 -594 0
-846 -191 608 0
-906 -136 601 0
-90 391 284 0
248 995 938 0
-160 -290 256 0
-555 405 408 0
31 -36 -905 0
170 26 -559 0
620 397 770 0
-329 731 -10 0
791 612 -123 0
807 -481 -42 0
132 352 -658 0
-728 306 91 0
-806 668 821 0
-143 424 -441 0
805 236 -116 0
-240 -311 -818 0
100 631 -669 0
490 -950 392 0
-745 -815 -15 0
-539 92 -138 0
758 -406 295 0
318 352 -924 0
499 -723 -687 0
-901 540 -961 0
-596 -279 339 0
47 -625 370 0
678 443 989 0
146 -678 451 0
148 -951 -345 0
574 90 -93 0
226 613 624 0
757 -188 -41 0
-27 189 -900 0
-604 -845 -471 0
-419 794 -306 0
-132 366 928 0
633 -664 78 0
-918 -329 175 0
104 128 -438 0
-920 -625 171 0
123 401 -215 0
818 798 -18 0
311 902 412 0
489 176 988 0
607 625 -918 0
-609 -513 -397 0
-441 -547 -821 0
-453 -393 -430 0
-794 -354 -821 0
-645 188 113 0
119 468 542 0
-609 160 -994 0
-319 -581 514 0
-757 -743 703 0
425 -972 -880 0
-737 857 407 0
900 639 -202 0
78 -171 451 0
-130 -243 662 0
-649 -507 23 0
-905 -392 293 0
114 291 218 0
-125 621 -908 0
607 548 571 0
892 240 -605 0
-311 387 -478 0
-325 584 885 0
-74 -93 -619 0
109 -487 -463 0
354 300 -248 0
-462 716 342 0
-795 -745 -820 0
484 -888 -85 0
433 -945 408 0
-103 232 -172 0
735 -17 468 0
743 -584 560 0
673 -543 -395 0
198 -415 -160 0
-930 630 -915 0
180 -32 356 0
-280 255 569 0
273 -30 409 0
-706 -494 -185 0
528 169 992 0
34 282 -768 0
859 -575 577 0
-335 -945 -248 0
-535 546 588 0
-233 -261 -772 0
-524 -595 471 0
822 845 841 0
-996 -997 257 0
-211 890 993 0
821 115 -653 0
939 638 720 0
-96 -357 401 0
-955 547 -895 0
-477 -832 215 0
-788 -164 881 0
-871 -45 -767 0
-22 248 -422 0
-199 582 882 0
677 915 983 0
-845 -716 -115 0
910 256 112 0
-905 -399 569 0
-775 490 158 0
827 -124 142 0
-186 934 108 0
-750 -969 295 0
745 829 -80 0
117 890 -784 0
-358 320 46 0
707 -174 -26 0
939 -248 392 0
690 -675 854 0
475 -386 -772 0
-649 153 -628 0
528 436 438 0
-974 598 -843 0
216 818 903 0
-500 -813 457 0
277 -196 -981 0
418 -729 -720 0
474 -529 559 0
775 313 -965 0
-783 658 -559 0
21 448 -924 0
-991 -721 -678 0
911 -8 -733 0
588 502 911 0
176 -2 -657 0
760 -818 737 0
573 -819 -851 0
-914 -70 -450 0
347 -217 -24 0
-833 -458 958 0
892 -402 18 0
-648 -277 289 0
-961 508 -397 0
66 -199 568 0
-170 -788 798 0
-10 264 -449 0
795 501 -866 0
-707 -838 -899 0
933 -190 -800 0
671 661 59 0
-681 -989 -306 0
-763 523 -471 0
970 179 513 0
-522 196 -530 0
-238 -148 -1000 0
-881 608 -109 0
-350 570 -985 0
630 -382 -597 0
838 996 430 0
-65 -632 268 0
-21 784 -790 0
-888 51 789 0
292 376 948 0
21 772 8 0
769 -86 603 0
973 -131 -201 0
-221 -1000 237 0
-710 235 665 0
651 788 -180 0
54 -672 -757 0
-4 -851 747 0
498 618 -626 0
-1 930 -957 0
826 216 648 0
-986 128 -502 0
-406 116 -702 0
-287 488 582 0
461 -291 -292 0
142 -48 -454 0
-442 -712 120 0
-940 -992 854 0
525 10 96 0
155 224 -67 0
197 698 907 0
-584 -572 360 0
-207 362 985 0
-665 -620 -886 0
961 -512 905 0
-956 642 2 0
-901 159 944 0
882 307 -742 0
-1000 83 -855 0
-495 -510 -844 0
943 664 161 0
-401 732 837 0
-406 -383 -627 0
804 -496 826 0
125 -648 422 0
-618 334 -926 0
-230 -123 -656 0
843 -462 -456 0
630 -729 473 0
852 640 522 0
-861 58 860 0
258 2 336 0
267 960 975 0
-753 461 266 0
-34 124 647 0
-338 716 549 0
121 218 -766 0
74 385 -389 0
-201 365 -407 0
642 -693 838 0
310 -392 -396 0
832 -284 894 0
910 843 -849 0
-676 369 453 0
374 -932 318 0
660 -840 -276 0
-287 -821 -200 0
525 723 -84 0
533 -690 -424 0
262 633 918 0
-840 506 -257 0
-927 -113 -754 0
-875 -760 884 0
-187 950 -742 0
509 -866 -37 0
-624 519 509 0
634 801 657 0
-880 -263 670 0
748 -727 208 0
618 823 976 0
-430 671 417 0
-242 591 -115 0
260 -471 -526 0
618 -168 14 0
626 -633 -968 0
-503 -656 -170 0
392 -268 -903 0
27 -194 -396 0
-680 -623 -588 0
-417 -370 -503 0
-372 351 870 0
22 -300 118 0
151 -454 715 0
286 -963 -856 0
-968 -713 -550 0
-815 -627 -93 0
-761 497 81 0
-481 -380 -296 0
862 246 761 0
-379 539 564 0
629 -939 -233 0
-917 -591 395 0
99 -504 996 0
369 442 -357 0
-247 -808 -826 0
234 440 -255 0
-377 81 514 0
272 -789 625 0
392 706 695 0
137 227 -694 0
-535 -399 -378 0
379 663 -630 0
346 808 -272 0
125 1 896 0
428 -409 629 0
754 -68 -222 0
-883 -967 -488 0
403 282 -30 0
687 -562 -601 0
-661 379 235 0
-248 -134 -249 0
812 -530 -189 0
-24 507 -250 0
900 404 575 0
-154 30 -870 0
-834 680 815 0
425 -253 -827 0
-137 776 917 0
850 -774 257 0
811 596 -269 0
-851 577 -721 0
5 -791 93 0
249 861 245 0
-410 -285 -713 0
718 181 -756 0
712 813 -493 0
681 956 583 0
-719 564 -843 0
-937 698 -326 0
798 121 -716 0
-958 -612 -314 0
-833 -366 343 0
-706 321 829 0
89 -167 415 0
637 -832 363 0
-329 546 -157 0
-639 109 650 0
-333 -413 -405 0
451 -189 -499 0
-308 173 94 0
-873 -287 -958 0
563 921 567 0
773 148 -181 0
-126 -594 127 0
-793 362 -488 0
460 653 191 0
-801 580 -429 0
960 -413 207 0
16 983 58 0
410 -709 -317 0
423 -301 -965 0
-137 -2 -432 0
773 8 787 0
-695 232 361 0
-798 436 864 0
-932 -10 380 0
506 -257 768 0
879 108 618 0
-187 262 -362 0
30 186 -822 0
-815 -442 -478 0
496 -406 77 0
541 107 -695 0
835 952 612 0
-305 995 -721 0
434 -761 -750 0
-312 176 770 0
92 124 -1 0
136 -530 -331 0
363 -845 -726 0
-118 665 304 0
730 498 -367 0
-836 -234 570 0
-425 802 -922 0
811 346 -690 0
896 -784 -730 0
396 790 870 0
-948 908 239 0
222 -485 -116 0
41 468 -427 0
264 -464 23 0
926 -467 701 0
-437 103 528 0
22 -359 -979 0
999 -753 -247 0
667 -296 -897 0
-27 651 -953 0
-692 -452 -57 0
648 -698 -835 0
293 -759 238 0
-966 -896 -950 0
376 -764 -652 0
-62 719 -892 0
503 103 -568 0
411 -64 171 0
-835 748 167 0
-994 -194 -772 0
248 -864 128 0
95 395 -648 0
-425 326 -406 0
-900 -256 49 0
-626 855 -880 0
645 -243 -396 0
-526 -885 -466 0
403 788 -669 0
609 -10 991 0
-806 -248 482 0
826 470 131 0
701 -980 -925 0
545 -933 -177 0
574 641 846 0
241 952 -158 0
-681 -465 555 0
-338 544 -222 0
239 -287 76 0
-909 824 -915 0
210 968 466 0
-592 852 588 0
949 -520 -646 0
883 -675 926 0
72 189 -310 0
949 543 321 0
-971 -254 -647 0
-867 575 115 0
-896 962 -597 0
161 371 -401 0
897 -156 556 0
-524 44 33 0
-864 -32 -404 0
232 288 38 0
193 -999 -794 0
-199 207 -212 0
232 292 -876 0
-684 226 -2 0
-318 486 -647 0
834 -741 -296 0
-533 -592 -229 0
987 -653 102 0
-193 134 859 0
-416 -548 596 0
991 171 660 0
-568 399 -13 0
135 -302 -913 0
679 948 -275 0
731 -25 -420 0
-704 105 86 0
-223 -423 46 0
-12 202 181 0
427 -266 -300 0
-956 -232 -242 0
-508 -123 -285 0
-115 303 971 0
741 312 -137 0
-415 470 980 0
-552 -542 -983 0
649 617 964 0
140 267 297 0
978 -606 178 0
-755 575 -725 0
-257 812 -950 0
411 -336 102 0
439 524 -59 0
645 89 -551 0
-340 -313 -666 0
-62 417 -762 0
-241 309 52 0
-904 -396 -293 0
-972 156 -931 0
259 463 483 0
828 755 860 0
103 -196 768 0
411 -114 -240 0
-56 -620 682 0
-704 -625 -753 0
-740 -408 325 0
-540 -541 629 0
202 -109 62 0
-458 479 -413 0
-182 -144 217 0
168 260 -944 0
675 -868 29 0
-875 -647 295 0
538 -71 -313 0
-759 -399 -939 0
-237 -809 -63 0
284 905 672 0
553 716 757 0
807 24 -292 0
-707 -63 860 0
-468 -695 -896 0
-369 858 -598 0
744 -85 -313 0
664 820 719 0
533 195 864 0
916 344 40 0
809 -527 -276 0
857 66 758 0
626 470 475 0
-801 -894 246 0
-959 -644 -401 0
872 -504 -308 0
796 80 611 0
724 -654 -314 0
212 -905 -479 0
-514 -699 -862 0
-233 -324 879 0
-568 55 266 0
516 965 -82 0
-410 490 -266 0
-636 932 -454 0
60 -840 -856 0
557 -203 -823 0
-160 -161 393 0
2 405 457 0
-390 128 -447 0
3 867 -560 0
691 923 839 0
-965 734 173 0
67 -178 -70 0
-491 160 -456 0
-959 464 -531 0
644 -304 -174 0
409 -956 -729 0
965 -894 -615 0
407 296 8 0
-665 364 241 0
-753 -525 483 0
840 691 -657 0
-67 340 510 0
-478 -441 209 0
549 -837 973 0
402 -790 -683 0
259 -84 34 0
-907 353 -933 0
-41 -14 888 0
598 333 665 0
-124 541 -627 0
701 955 152 0
855 -137 105 0
625 741 -381 0
555 -755 525 0
-747 -542 162 0
566 913 -507 0
-764 -247 -508 0
912 102 -44 0
26 -571 -352 0
4 -967 -345 0
709 -92 -558 0
-780 -250 -155 0
-183 461 -866 0
-146 413 -561 0
-643 53 229 0
-272 -831 -355 0
737 -49 599 0
-989 -101 -248 0
308 -373 -330 0
-885 -114 -177 0
-417 -8 -994 0
538 652 570 0
-410 -143 733 0
-385 540 -159 0
-811 -539 359 0
754 376 -667 0
158 941 933 0
-11 -115 -491 0
731 306 -764 0
12 -944 -615 0
584 563 -192 0
-477 -941 699 0
960 41 -575 0
-461 -73 862 0
-557 79 445 0
-309 -163 -469 0
84 836 192 0
239 -783 103 0
786 543 633 0
331 720 894 0
916 -138 253 0
-631 -767 289 0
850 860 -421 0
672 -528 40 0
-94 921 164 0
-997 184 -800 0
31 956 -356 0
-645 -874 -897 0
278 319 -779 0
-158 -334 901 0
-895 770 923 0
-41 495 -581 0
95 678 614 0
-184 473 -113 0
989 375 -701 0
-776 -564 285 0
-684 818 842 0
-158 -955 388 0
590 32 319 0
-393 -61 -629 0
-665 202 789 0
288 -939 18 0
-626 427 921 0
-320 665 938 0
-445 366 436 0
-348 -476 400 0
-525 51 -324 0
-672 881 281 0
-680 648 -262 0
-871 603 136 0
692 171 -807 0
409 226 -222 0
-836 -257 527 0
975 -897 -438 0
-503 -210 -637 0
30 471 -742 0
11 -665 885 0
505 713 53 0
-102 560 -701 0
-142 978 -818 0
103 377 -669 0
-818 -675 50 0
-72 431 785 0
864 398 803 0
-580 -387 10 0
868 516 986 0
-604 181 384 0
24 13 -39 0
-588 -284 124 0
604 932 -666 0
892 -472 214 0
450 -350 -974 0
-494 -667 523 0
-443 -895 297 0
-361 363 -247 0
855 301 331 0
-708 -13 918 0
211 -442 -931 0
95 658 791 0
-284 -343 257 0
86 -858 -653 0
-211 -981 -799 0
-294 595 -978 0
433 -683 201 0
149 -49 127 0
713 -740 -690 0
-677 384 -976 0
-511 -783 -115 0
419 895 79 0
-802 464 613 0
-858 -930 -790 0
-262 -507 -649 0
-580 -820 -932 0
580 402 -231 0
754 71 -920 0
-772 688 -508 0
-441 -311 -513 0
-565 641 -908 0
-681 -576 -518 0
39 934 -877 0
924 618 -759 0
674 -736 552 0
451 415 -883 0
-834 280 650 0
132 -683 -71 0
198 729 446 0
-725 -256 564 0
507 109 232 0
653 64 107 0
-860 192 791 0
337 124 5 0
-914 -848 705 0
-339 -195 -223 0
-528 -718 -835 0
-64 586 521 0
-841 309 -575 0
-256 -632 -699 0
863 -933 104 0
-3 789 -749 0
-760 -402 -387 0
70 582 -711 0
-886 -705 -589 0
534 617 569 0
481 -821 30 0
91 845 -90 0
-471 -25 254 0
-476 -185 596 0
975 -55 16 0
730 -205 -946 0
55 -966 -740 0
-174 233 -488 0
-715 -312 -13 0
469 -564 -515 0
-382 -358 -886 0
16 -437 -26 0
650 156 22 0
792 303 921 0
-854 -271 -515 0
420 -392 219 0
948 -760 785 0
308 34 -787 0
49 954 -687 0
983 910 -888 0
-313 -968 -95 0
-188 -541 -658 0
123 78 -473 0
-916 533 800 0
-455 914 178 0
758 -855 281 0
202 758 -820 0
-781 -214 141 0
-194 -298 -913 0
449 -325 -708 0
56 -484 -610 0
174 653 633 0
-772 -540 -413 0
359 -519 72 0
500 -588 61 0
-283 167 -898 0
743 833 -454 0
-113 95 -108 0
817 336 -957 0
-74 903 187 0
-718 258 568 0
143 645 -343 0
366 626 196 0
390 -500 237 0
881 856 -494 0
722 384 876 0
487 367 870 0
414 123 -161 0
-801 935 843 0
582 -630 -796 0
541 15 -322 0
469 -783 -707 0
-134 -878 541 0
-102 -130 178 0
424 166 -784 0
601 655 -799 0
-71 844 -864 0
-120 -9 310 0
-619 664 66 0
-537 -918 409 0
983 -434 -688 0
310 346 825 0
463 -141 934 0
-496 -392 70 0
-559 -360 -707 0
-574 40 -315 0
-434 -350 552 0
937 -873 -965 0
136 -666 -678 0
71 609 -229 0
231 432 -489 0
890 -574 898 0
-294 -802 -605 0
810 -237 66 0
-807 -551 -428 0
-158 712 -836 0
-447 -459 -419 0
-745 -805 -239 0
752 -899 497 0
-836 -969 -961 0
-633 897 701 0
-550 862 -316 0
358 -989 -473 0
238 -218 393 0
-844 55 -210 0
422 -166 -596 0
-572 -653 -357 0
-733 530 443 0
330 -462 74 0
499 -356 -987 0
-80 -933 -396 0
-617 -184 -827 0
-468 -9 -660 0
704 232 842 0
-67 -417 -538 0
781 735 748 0
-500 -823 -813 0
208 -178 433 0
-762 -369 -798 0
-346 -905 -823 0
90 -663 -942 0
507 951 571 0
-572 -698 832 0
-485 -717 502 0
-775 -466 256 0
169 -137 151 0
-696 -455 237 0
344 -707 -338 0
593 706 90 0
-925 -476 -814 0
275 408 238 0
-963 -969 -101 0
872 -362 78 0
593 -137 -765 0
-73 960 726 0
828 -790 -827 0
751 927 -688 0
-931 -3 834 0
207 781 11 0
828 848 1 0
-469 -372 404 0
-126 777 920 0
-643 -696 -198 0
-986 -635 449 0
-59 944 389 0
454 -808 20 0
-404 727 -531 0
789 -69 -325 0
-260 -915 687 0
-212 -186 620 0
273 359 387 0
718 521 -866 0
-166 490 -116 0
411 -223 739 0
77 473 191 0
-504 88 -224 0
-930 495 -608 0
558 -1000 -374 0
81 -117 -863 0
206 282 196 0
-789 706 163 0
-261 -88 952 0
965 -238 681 0
-514 676 -402 0
693 -503 453 0
363 -252 -472 0
280 436 989 0
-564 224 161 0
-250 693 339 0
104 -473 -333 0
-22 -28 -214 0
-361 251 404 0
157 -922 -607 0
-907 -428 537 0
417 356 -357 0
-728 -827 598 0
533 983 645 0
-467 -828 -826 0
-162 356 955 0
367 695 -884 0
-41 675 15 0
-576 373 508 0
-328 572 -540 0
951 147 -49 0
912 618 -41 0
-118 -96 677 0
-890 -784 -28 0
653 513 -649 0
771 -552 877 0
-174 83 -527 0
739 31 975 0
-484 18 -367 0
-923 -568 -808 0
-279 633 906 0
933 496 319 0
-843 -791 -434 0
-526 95 -621 0
-261 175 970 0
-351 -892 975 0
-715 -860 -174 0
309 -356 351 0
-816 -107 488 0
-385 257 357 0
546 896 125 0
336 193 -644 0
506 177 516 0
-38 -259 -912 0
-255 -574 547 0
-110 -565 390 0
29 44 -988 0
461 322 -717 0
505 677 -635 0
27 295 785 0
-756 -668 170 0
636 512 -217 0
-660 -971 533 0
859 -789 390 0
-837 -546 203 0
382 -263 18 0
6 619 -28 0
-999 -743 987 0
589 -933 -152 0
836 223 636 0
-721 -917 -864 0
-397 543 751 0
-55 500 784 0
-578 -73 -98 0
352 -512 644 0
688 -859 73 0
-460 978 -161 0
664 487 -172 0
-866 572 235 0
-282 792 65 0
559 -282 -683 0
811 576 -438 0
670 -18 -385 0
240 463 572 0
-237 -428 -186 0
960 709 551 0
904 -440 -161 0
609 -417 -809 0
-91 -330 884 0
-20 -284 -739 0
524 -814 -842 0
251 -33 -317 0
313 -917 -906 0
435 -17 -799 0
-890 -532 -139 0
-561 -986 491 0
-863 814 -876 0
-52 481 392 0
351 -372 -472 0
550 775 -292 0
358 -74 -210 0
620 -24 314 0
-8 523 404 0
-860 348 -713 0
-25 222 668 0
896 766 -276 0
557 -92 -586 0
465 -191 393 0
-259 523 -183 0
-736 -641 814 0
-529 361 -743 0
406 -182 -120 0
984 -443 775 0
487 -883 -172 0
192 520 378 0
590 332 718 0
646 647 -533 0
-750 -668 19 0
-396 -997 532 0
626 -68 -153 0
-9 59 276 0
61 506 -460 0
485 417 -566 0
947 -33 494 0
657 964 -228 0
-828 -472 755 0
641 184 -83 0
-647 126 -960 0
601 -811 -201 0
96 -308 619 0
-131 15 -860 0
-571 871 -615 0
743 649 -848 0
86 -829 141 0
423 108 -311 0
-612 481 -541 0
-898 849 -198 0
852 -287 -821 0
-699 287 143 0
-937 -594 325 0
-138 739 -105 0
85 991 -293 0
795 571 300 0
-466 355 636 0
62 -848 675 0
-110 -171 34 0
201 -859 444 0
986 -601 -756 0
-251 -450 -441 0
393 392 -178 0
777 -257 -949 0
216 752 -800 0
203 437 793 0
-708 -753 -388 0
-681 207 -73 0
560 200 -618 0
315 608 -397 0
761 -874 866 0
-394 467 694 0
316 272 72 0
-238 -147 158 0
-406 164 -601 0
-140 -770 -419 0
748 395 219 0
-184 -893 555 0
635 -122 737 0
445 -153 -961 0
474 -495 463 0
-491 -368 -621 0
-176 220 511 0
18 970 -967 0
-233 -615 -175 0
451 972 -284 0
166 -413 -718 0
-934 -68 250 0
-164 -928 653 0
752 479 947 0
-782 -695 -779 0
367 -769 454 0
-307 -678 -191 0
-252 -79 -843 0
647 284 290 0
9 -593 -403 0
804 -604 262 0
-926 493 39 0
929 903 477 0
770 596 -819 0
-857 -485 -880 0
-915 183 -745 0
968 808 66 0
547 116 803 0
271 393 642 0
519 994 -463 0
843 151 -431 0
856 -182 -499 0
-556 -288 -291 0
-545 -313 21 0
117 98 -329 0
99 -28 -903 0
93 -859 974 0
-542 956 -896 0
-382 595 390 0
435 -650 -379 0
259 -853 86 0
112 157 -244 0
-515 58 25 0
632 -154 -740 0
-724 619 235 0
580 667 -170 0
-11 -530 -684 0
971 -779 -104 0
-53 -403 214 0
-507 577 558 0
-221 413 -485 0
-247 330 -974 0
931 362 -580 0
126 470 648 0
-807 -619 710 0
146 -887 328 0
-63 -141 872 0
-164 765 610 0
261 -516 -588 0
625 619 873 0
391 318 -766 0
581 -707 675 0
-718 -484 -426 0
-337 3 267 0
316 145 414 0
-883 -985 948 0
252 301 -896 0
105 -259 -324 0
59 -251 -189 0
621 -64 -325 0
490 538 730 0
-258 -920 555 0
438 821 -921 0
-240 72 -965 0
86 -712 -687 0
913 -595 -847 0
858 930 -779 0
-259 -643 163 0
-143 716 400 0
-878 144 723 0
-183 950 790 0
478 800 794 0
752 -14 -837 0
731 857 -49 0
-150 82 272 0
-980 -64 670 0
658 -305 -418 0
-882 177 -885 0
-407 304 -100 0
573 783 -772 0
-519 682 -279 0
-487 -226 488 0
-395 937 293 0
-711 674 -743 0
412 -330 -106 0
-905 912 863 0
-861 371 962 0
894 -354 40 0
-823 287 -927 0
573 522 -72 0
979 984 -528 0
-160 -979 -490 0
679 -859 -273 0
-194 -770 184 0
-261 581 317 0
-856 556 -864 0
767 -935 987 0
598 -671 322 0
21 -772 118 0
63 501 249 0
173 -8 -650 0
-375 -214 585 0
-874 297 -774 0
-674 -205 -494 0
915 -648 311 0
438 -416 -760 0
-424 758 -849 0
-635 -821 -311 0
184 -952 -730 0
-34 -684 809 0
504 453 738 0
-557 -972 592 0
942 -930 -980 0
-527 -810 -137 0
468 -720 533 0
742 991 -236 0
756 605 -551 0
-13 -952 813 0
358 -459 216 0
386 839 596 0
874 998 52 0
-965 929 -904 0
766 -500 415 0
-327 -726 110 0
473 355 434 0
229 471 -151 0
-732 341 -755 0
-338 -396 -559 0
49 -448 -952 0
-751 872 798 0
-281 544 -428 0
-896 -51 -611 0
-759 -162 467 0
-445 345 -252 0
-189 -22 666 0
-647 32 878 0
-964 -180 359 0
99 -524 -336 0
-455 5 789 0
963 -941 -181 0
-33 667 154 0
111 -649 -49 0
159 -876 455 0
609 18 -283 0
901 411 514 0
-234 -273 -200 0
759 -822 627 0
751 797 334 0
-535 607 -74 0
940 -367 163 0
-860 61 103 0
71 330 -240 0
805 770 -653 0
18 631 691 0
-524 -660 909 0
557 577 -121 0
-103 -96 -594 0
374 680 -74 0
-206 349 522 0
707 507 491 0
405 464 86 0
507 28 696 0
-26 620 -701 0
736 -287 -554 0
-828 -38 39 0
288 5 -769 0
-537 -635 -594 0
835 -652 694 0
456 -116 240 0
18 525 -991 0
157 900 -387 0
-267 802 -9 0
905 342 -308 0
94 -307 -177 0
-465 -543 856 0
135 740 766 0
105 -395 630 0
324 -580 -992 0
-52 712 -541 0
-19 390 -152 0
-972 -462 -633 0
-219 -336 -480 0
121 -892 655 0
32 974 776 0
68 -664 -293 0
-702 179 -273 0
-480 536 -259 0
-139 -994 210 0
-494 -615 -800 0
-593 217 -648 0
752 558 178 0
-410 -332 -823 0
504 -151 113 0
-764 713 -839 0
431 -754 481 0
-510 -596 532 0
575 -923 427 0
-258 768 826 0
-237 657 -101 0
772 -714 291 0
-573 -437 -423 0
330 -550 -642 0
456 -811 896 0
456 602 284 0
-549 -609 -539 0
-277 -640 -498 0
-993 788 204 0
-293 471 162 0
-267 -59 -553 0
-200 216 -415 0
641 666 -34 0
-817 53 -357 0
688 -153 -588 0
142 958 861 0
967 354 183 0
-249 -769 242 0
494 -322 -52 0
821 -795 -928 0
113 843 162 0
568 -79 259 0
667 -564 -870 0
609 579 -934 0
399 -156 826 0
729 197 -761 0
-465 51 -406 0
-337 -261 -448 0
-995 181 -999 0
-890 -798 -302 0
-921 -21 -272 0
95 -643 -762 0
-573 537 -92 0
-192 -329 844 0
903 -244 359 0
-264 804 164 0
75 -717 380 0
-171 -419 -185 0
-623 -312 -854 0
-790 161 -545 0
91 -878 -456 0
-283 -742 674 0
-536 180 -121 0
-335 712 -903 0
21 -418 -745 0
-690 -461 47 0
386 215 -686 0
-556 58 289 0
608 -413 86 0
532 -871 -343 0
934 -265 927 0
187 -366 12 0
-583 14 493 0
-563 868 -402 0
742 -442 303 0
-249 856 -769 0
-372 -541 322 0
339 -706 892 0
817 203 144 0
-663 101 255 0
583 644 143 0
721 -33 -449 0
298 -137 -732 0
721 610 714 0
57 917 256 0
923 625 339 0
-168 409 824 0
-237 -815 240 0
-129 -788 -841 0
183 130 -904 0
841 -257 -721 0
118 -288 347 0
80 806 132 0
-566 419 364 0
193 520 3 0
-520 292 835 0
-982 -377 326 0
260 642 387 0
286 -624 -121 0
648 287 783 0
-768 735 898 0
-967 184 365 0
-272 -52 -670 0
999 878 571 0
499 471 369 0
994 36 45 0
870 975 120 0
-865 -50 368 0
-48 -972 -74 0
-498 324 -508 0
985 -556 706 0
-925 204 -701 0
-999 -625 581 0
-838 -308 925 0
444 994 614 0
611 447 225 0
372 -917 -686 0
143 -618 127 0
593 -729 -65 0
-728 696 -370 0
145 572 -435 0
-620 682 228 0
257 347 78 0
-129 -410 -907 0
52 -868 -710 0
-185 -743 921 0
-459 81 -327 0
-425 -397 154 0
955 698 224 0
-353 -541 496 0
-17 225 -351 0
665 48 -283 0
984 185 -47 0
634 -855 105 0
685 137 -757 0
56 89 -467 0
323 487 642 0
-104 -21 329 0
-882 -314 790 0
-27 -149 -703 0
-879 858 785 0
514 113 808 0
432 764 -918 0
-102 -200 -984 0
-862 892 -937 0
-379 -992 113 0
415 -260 85 0
706 -529 -948 0
438 803 -954 0
46 -649 12 0
-370 797 -10 0
-353 676 118 0
-138 -67 -712 0
-973 685 -93 0
-130 -893 -700 0
-426 605 -908 0
551 330 -503 0
811 937 -962 0
268 -572 801 0
-637 -663 -16 0
-285 699 282 0
889 -263 -344 0
-589 -214 -330 0
-93 902 -48 0
-254 -581 899 0
795 980 -495 0
-713 165 279 0
-512 432 -629 0
828 534 338 0
115 126 -84 0
-121 -977 763 0
663 874 -708 0
483 -50 977 0
679 496 -885 0
-826 973 678 0
-996 889 -675 0
-795 -243 -53 0
853 -408 -17 0
-666 -420 -890 0
-306 715 -601 0
133 -1000 324 0
890 -372 -815 0
957 -35 -569 0
326 392 746 0
145 -886 597 0
290 467 333 0
-944 243 135 0
-770 291 296 0
618 -930 64 0
-449 821 37 0
-250 396 704 0
-113 767 -755 0
141 -432 391 0
-100 917 -734 0
857 572 -273 0
349 232 -461 0
-236 -391 -149 0
-657 55 -970 0
920 871 -105 0
494 -762 998 0
-487 -874 -982 0
-228 448 445 0
767 78 422 0
554 347 -356 0
-551 363 -66 0
-461 95 -412 0
266 -215 -932 0
-647 629 -253 0
-806 -931 -789 0
-496 -193 -729 0
549 9 -730 0
-345 -505 -374 0
514 589 -74 0
414 284 -260 0
179 343 -821 0
55 263 -621 0
937 184 919 0
-291 975 890 0
-515 862 -18 0
-647 -797 -250 0
-443 -941 -988 0
724 -397 -454 0
-899 60 -646 0
-258 424 576 0
-92 -993 -273 0
758 456 -340 0
636 -982 -570 0
-909 167 16 0
-451 -620 -764 0
103 722 548 0
147 -466 -270 0
-313 427 531 0
-245 780 384 0
-119 -114 391 0
-256 -196 461 0
355 414 526 0
-952 -504 194 0
-762 -699 603 0
179 924 -982 0
488 -544 836 0
733 868 -893 0
-894 430 -973 0
725 -137 -576 0
743 548 503 0
-331 239 -346 0
561 -459 -353 0
-485 675 503 0
-434 -742 157 0
-854 -671 -406 0
941 -236 -446 0
-350 146 767 0
993 46 444 0
-863 886 -622 0
941 714 -568 0
-824 310 475 0
-316 -695 869 0
803 733 -921 0
-631 386 903 0
-953 -890 -925 0
645 555 559 0
-748 255 293 0
-658 -274 -690 0
654 558 723 0
290 -701 20 0
836 -246 777 0
889 -497 -715 0
-890 471 899 0
499 184 -619 0
-773 -812 685 0
520 204 714 0
368 -261 -87 0
-373 -48 -581 0
384 210 716 0
-180 14 -666 0
-917 893 668 0
-347 -309 37 0
263 251 409 0
128 685 686 0
-61 -913 26 0
394 -99 -975 0
-408 464 -717 0
805 -964 206 0
894 294 584 0
572 -84 -860 0
-362 439 -832 0
277 -29 -900 0
711 119 572 0
25 -380 -985 0
379 243 -417 0
967 -337 -620 0
993 801 823 0
657 142 -977 0
-726 -654 -362 0
686 -204 950 0
917 121 631 0
996 -845 -170 0
632 -885 -777 0
-895 589 110 0
-761 -240 -168 0
-245 957 801 0
-589 945 689 0
344 -583 73 0
847 293 342 0
-12 -643 -184 0
-567 -726 -692 0
-732 -357 298 0
-924 507 -506 0
-248 -18 -6 0
-773 328 -144 0
-764 -820 -514 0
-547 138 -352 0
720 -560 -669 0
167 -421 451 0
996 -850 -380 0
-245 62 -232 0
127 -579 671 0
208 -345 -249 0
801 -776 -881 0
-167 -743 -924 0
-751 -720 -782 0
930 -590 415 0
-326 -831 731 0
33 -713 -702 0
665 264 -937 0
831 130 -492 0
-247 -69 -806 0
-219 -26 -34 0
824 -672 -46 0
837 711 718 0
-699 367 523 0
-498 -709 -738 0
-74 918 229 0
-734 122 -513 0
-846 -629 479 0
691 -518 580 0
335 -844 529 0
-959 -521 352 0
-361 -125 605 0
91 372 44 0
-906 895 -1 0
-225 859 -271 0
-557 664 -393 0
804 669 349 0
-497 726 -438 0
-933 172 54 0
542 267 147 0
-225 -732 615 0
537 267 -885 0
859 530 356 0
359 -696 816 0
492 -476 -986 0
438 822 52 0
-2 309 -810 0
-316 -692 467 0
384 -396 770 0
852 973 938 0
-593 462 728 0
-169 523 -333 0
57 492 648 0
-811 -564 149 0
35 -303 768 0
13 551 -994 0
885 634 -93 0
-689 674 560 0
-74 -948 -687 0
-81 255 982 0
-301 -343 -800 0
164 -622 929 0
296 657 -316 0
950 811 -21 0
850 -57 642 0
876 -101 -564 0
-176 85 341 0
648 -60 918 0
546 701 817 0
755 -279 94 0
524 269 907 0
-660 -608 643 0
-634 -319 81 0
-633 255 782 0
-321 -787 -483 0
-367 -592 -92 0
149 -935 -420 0
-415 -471 -844 0
640 430 -660 0
-680 -332 -174 0
-996 93 -896 0
-940 279 -449 0
-369 135 -696 0
546 -979 650 0
-164 -708 529 0
157 -855 385 0
407 -208 -706 0
-234 902 -744 0
939 515 -556 0
715 170 -3 0
-127 195 -957 0
-539 -846 72 0
-946 708 -831 0
301 438 -703 0
909 -971 361 0
-45 878 638 0
457 -378 94 0
347 -390 -543 0
286 -82 601 0
840 -451 579 0
138 -570 -861 0
588 140 497 0
807 -322 -769 0
-359 -754 543 0
619 -750 -397 0
-933 -536 -595 0
-164 458 844 0
883 -56 878 0
360 -645 -372 0
-19 156 504 0
683 920 968 0
-904 886 257 0
572 -242 -803 0
-214 701 81 0
-441 644 -704 0
-80 967 -300 0
-364 906 576 0
-201 -617 -598 0
208 690 621 0
-389 143 -150 0
-1 -804 -18 0
-653 -102 892 0
219 479 4 0
503 -462 -51 0
