c Modularity-based k-CNF Generator (V2.0). J. Giraldez-Cru and J. Levy
c   value n = 500
c   value m = 1500
c   value k = 3
c   value Q = 0.7
c   value c = 10
c   value seed = 83
p cnf 500 1500
73 53 64 0
-35 204 -280 0
-209 -204 -228 0
409 -177 -314 0
146 -129 -114 0
63 -85 65 0
-481 -465 496 0
49 29 28 0
-331 -343 -306 0
395 380 366 0
83 -34 -248 0
284 -288 262 0
28 -29 -18 0
495 -335 -237 0
-137 -387 -292 0
-462 452 474 0
-448 444 434 0
-217 -207 -232 0
311 -327 -325 0
11 -3 -9 0
86 -91 100 0
392 -390 -389 0
389 364 381 0
-35 41 9 0
387 -378 366 0
-286 274 -299 0
362 -382 -369 0
458 -453 -452 0
-439 437 -433 0
435 408 -450 0
289 -280 -255 0
53 92 65 0
-371 113 177 0
-479 485 -468 0
257 -282 297 0
-354 -366 -360 0
341 338 -311 0
454 -497 492 0
3 -232 147 0
81 -92 63 0
496 -452 467 0
384 -373 390 0
-227 202 -247 0
296 259 298 0
-261 -289 -297 0
-210 239 -206 0
208 -218 248 0
-5 -7 -45 0
423 450 418 0
-213 -249 205 0
167 -188 -162 0
74 63 -60 0
442 247 313 0
-107 148 -122 0
391 -372 -354 0
-58 -52 88 0
-95 24 -463 0
-21 -24 36 0
-332 342 317 0
481 -161 -398 0
302 326 305 0
-96 -63 51 0
315 350 309 0
157 58 364 0
-71 -87 -84 0
2 -21 -16 0
-230 -229 -223 0
17 -32 46 0
33 41 36 0
113 105 -140 0
-13 48 -47 0
339 350 306 0
-285 257 -288 0
-354 364 -383 0
-165 -162 -190 0
-285 80 378 0
327 -348 346 0
-334 -321 -326 0
-332 338 339 0
103 105 114 0
-25 47 35 0
2 -6 -30 0
308 -306 -303 0
239 -242 -230 0
-39 136 319 0
461 58 -445 0
347 346 -335 0
-241 -234 232 0
-376 197 -32 0
346 -341 338 0
430 421 443 0
50 25 27 0
22 -13 49 0
234 -230 -203 0
-105 149 132 0
-228 -234 -205 0
-157 -224 268 0
494 -487 -471 0
-19 -14 7 0
230 -66 174 0
288 290 -289 0
-201 192 -417 0
-425 -426 -403 0
-370 -363 -366 0
-69 -79 83 0
500 -468 -470 0
-210 245 -249 0
9 -18 -42 0
206 66 -467 0
-34 -11 -2 0
-84 100 -51 0
323 -340 -332 0
-149 136 -131 0
-408 412 -431 0
88 78 -100 0
386 377 361 0
371 281 458 0
-481 476 457 0
193 188 -171 0
-153 -157 -185 0
-272 333 -154 0
-50 -2 23 0
15 3 43 0
-401 387 -207 0
-110 128 141 0
-476 -269 208 0
-219 -211 -226 0
209 -233 -249 0
240 219 224 0
60 -62 -95 0
-122 -132 121 0
-455 -469 480 0
-404 433 -441 0
-275 -289 -288 0
-415 -414 420 0
432 37 -491 0
-475 477 453 0
-195 52 221 0
-101 135 -119 0
-194 192 -188 0
-28 3 -27 0
-419 417 449 0
-151 180 179 0
225 226 -215 0
467 -488 -458 0
144 -62 30 0
308 333 -305 0
-495 -206 -102 0
406 364 302 0
41 15 40 0
-441 -404 442 0
214 -221 242 0
319 348 -332 0
189 -195 168 0
-164 -175 158 0
-38 8 -15 0
-14 -20 16 0
-296 -491 -17 0
466 457 452 0
-246 226 -214 0
40 -47 -8 0
268 257 -264 0
85 -94 78 0
248 207 -236 0
47 31 39 0
-434 446 416 0
-307 -338 335 0
-420 433 -435 0
108 -120 -106 0
2 -33 -38 0
431 -458 235 0
143 -466 -343 0
93 -47 -107 0
-228 212 242 0
-174 -198 -152 0
439 -405 -428 0
273 -252 -262 0
407 447 -420 0
-342 -309 305 0
261 280 -277 0
492 -476 489 0
-5 -336 56 0
359 396 375 0
-68 29 -391 0
142 -143 -144 0
-95 -60 -63 0
-358 -373 -356 0
444 -446 413 0
158 -177 -182 0
-431 428 427 0
-210 -215 250 0
-321 301 -347 0
-146 145 -147 0
227 -247 -233 0
-38 46 -28 0
-176 154 -181 0
338 316 343 0
479 459 472 0
-144 -123 -137 0
-374 -369 376 0
326 -347 305 0
-458 483 -474 0
302 -328 344 0
-122 124 -144 0
290 -273 255 0
-478 -451 477 0
452 -483 -464 0
223 -239 -228 0
-329 342 328 0
-350 -345 330 0
-246 -234 219 0
-318 -329 319 0
343 -354 -5 0
184 180 -170 0
99 87 80 0
-160 194 178 0
-497 -458 -496 0
366 362 -354 0
406 -438 -414 0
237 430 -260 0
381 -448 -320 0
-299 257 -263 0
57 -159 -143 0
-358 375 355 0
-481 50 324 0
-400 -359 388 0
443 422 -425 0
-483 433 316 0
378 392 -385 0
253 -273 -286 0
287 275 -284 0
-194 -162 197 0
-269 -289 -261 0
422 -485 -64 0
-155 -183 167 0
-339 -338 -344 0
-79 53 -85 0
184 189 171 0
418 -53 14 0
-427 -437 404 0
20 -35 10 0
247 -204 203 0
155 194 -158 0
-346 340 330 0
122 144 -125 0
-65 63 -70 0
-292 289 -282 0
408 -449 404 0
-387 -364 -352 0
130 144 -123 0
-495 -481 -463 0
296 -288 -278 0
-375 -359 -396 0
46 -16 12 0
369 388 -391 0
-177 -298 -61 0
193 -161 167 0
-405 -438 425 0
-183 161 -172 0
340 -307 317 0
-157 199 179 0
458 -481 -460 0
-302 318 343 0
-251 312 16 0
140 -130 -129 0
387 -395 367 0
115 111 -137 0
-369 375 -373 0
393 390 391 0
293 -268 300 0
222 -248 236 0
376 388 374 0
478 -456 481 0
-48 -35 45 0
-22 15 -20 0
-52 357 -315 0
364 393 381 0
-368 366 -359 0
166 170 159 0
345 -330 -339 0
155 197 168 0
174 -190 -160 0
-339 -304 341 0
-309 339 312 0
-355 385 397 0
-463 460 452 0
-205 210 -232 0
387 -397 399 0
-226 308 -139 0
252 -254 -273 0
462 -433 83 0
-368 369 398 0
-95 -87 90 0
229 220 -224 0
-331 311 -332 0
-88 52 70 0
93 90 -54 0
94 -93 72 0
-213 237 233 0
-468 483 -490 0
138 125 115 0
-176 -159 155 0
-426 -438 429 0
232 224 209 0
-153 168 -151 0
72 -55 -54 0
-408 -401 -423 0
-76 -100 -82 0
-320 -307 336 0
301 332 313 0
228 214 -202 0
426 -402 405 0
-153 191 -166 0
-189 -152 -163 0
111 144 141 0
129 -147 -124 0
310 -319 320 0
-368 389 351 0
417 -426 -409 0
-173 -155 187 0
-444 -382 10 0
302 -348 -317 0
-470 72 313 0
390 -399 -372 0
146 150 -109 0
408 430 -419 0
130 -144 -119 0
-187 153 163 0
196 -13 -429 0
229 -206 -248 0
-147 -111 144 0
-423 -406 -421 0
-217 -205 -216 0
171 -174 -163 0
-252 289 -282 0
-210 231 -242 0
190 174 -177 0
51 84 -65 0
383 393 -386 0
-256 269 251 0
154 -190 184 0
245 -369 259 0
32 6 37 0
-270 292 -289 0
326 319 -322 0
324 -334 330 0
214 -213 239 0
483 462 -468 0
77 274 379 0
-317 -341 303 0
427 -445 450 0
279 286 289 0
182 153 159 0
-469 -464 -471 0
-101 416 28 0
-366 -456 244 0
355 -388 386 0
380 -274 -401 0
182 -288 -71 0
488 471 -461 0
27 -11 8 0
215 -225 214 0
-341 -328 334 0
-308 353 -68 0
-157 154 -178 0
50 -387 -299 0
325 -322 -333 0
151 180 153 0
11 43 -33 0
-260 -55 -8 0
-308 322 335 0
19 -209 290 0
365 -351 -377 0
160 177 -192 0
-195 -198 -154 0
-164 168 -153 0
-437 431 449 0
317 -331 338 0
452 -469 458 0
-217 246 233 0
-106 142 -111 0
376 -379 -400 0
-438 -429 -418 0
-314 255 73 0
-130 -134 129 0
-411 -408 423 0
265 281 -277 0
257 -263 -254 0
-84 94 63 0
456 -475 484 0
108 -109 -126 0
306 349 -317 0
-332 -343 -347 0
254 268 270 0
-71 -92 -86 0
-129 -350 -467 0
336 -354 -244 0
-162 187 178 0
-283 -263 -252 0
-293 158 220 0
323 -469 -241 0
228 -225 210 0
-371 367 -385 0
-169 197 178 0
-484 497 -478 0
-239 -250 -205 0
-277 -268 259 0
236 225 244 0
-165 185 -169 0
-439 -444 -426 0
111 109 -149 0
-109 -428 -180 0
390 387 -382 0
-25 43 -44 0
-364 -389 -376 0
153 167 -197 0
-247 -204 239 0
-153 162 -161 0
360 -373 -384 0
-340 292 -358 0
248 -244 -209 0
-275 280 261 0
-264 290 278 0
-89 -60 77 0
1 24 -12 0
-461 40 -407 0
352 -376 -369 0
100 -60 55 0
245 -204 -224 0
235 -215 -233 0
-206 218 -214 0
-354 389 -388 0
277 -263 283 0
191 272 149 0
224 221 -208 0
-132 220 39 0
178 171 187 0
315 -52 -138 0
-159 -187 -178 0
20 -91 -360 0
322 -316 -317 0
-442 -438 -419 0
-65 -81 90 0
-341 -346 335 0
-272 -264 292 0
349 -303 -310 0
408 -432 406 0
154 169 183 0
431 -295 398 0
-393 362 -374 0
239 -241 -218 0
-73 -67 -52 0
-279 221 -70 0
170 169 183 0
230 228 -202 0
-424 -316 115 0
106 117 -141 0
-344 369 174 0
36 9 10 0
10 -19 20 0
93 -76 99 0
-14 -30 45 0
-344 90 -497 0
268 262 251 0
-310 317 303 0
-321 -322 315 0
-190 192 -181 0
312 -337 346 0
-475 493 489 0
-24 -41 -42 0
-489 -486 -466 0
444 -413 -410 0
-276 300 258 0
-252 -416 -479 0
419 -401 441 0
-133 121 -142 0
-360 -365 396 0
-406 413 -436 0
-135 140 106 0
-385 -394 375 0
135 126 129 0
499 464 -482 0
-148 102 -127 0
-440 -413 441 0
-480 -457 -492 0
-137 -113 -109 0
-393 -386 375 0
271 -165 -78 0
-160 5 -429 0
-160 -171 -197 0
-246 61 -118 0
-241 240 -218 0
-484 -491 -452 0
125 -139 -111 0
-291 -299 251 0
-48 1 -36 0
-110 -129 125 0
-160 171 153 0
-213 215 227 0
150 -140 104 0
-299 -253 -276 0
298 257 285 0
447 -412 -443 0
-204 -246 230 0
-492 499 458 0
-7 -49 16 0
-253 -165 -128 0
-84 87 -95 0
109 -149 135 0
264 -288 287 0
-251 -214 416 0
32 -45 -46 0
-259 260 284 0
-166 -164 177 0
332 -312 307 0
394 363 -383 0
-248 210 -236 0
32 36 38 0
167 253 383 0
-296 261 266 0
79 -70 -60 0
-272 -281 259 0
-468 476 -472 0
309 -347 315 0
232 -209 -247 0
115 -109 105 0
196 -158 -156 0
-29 -37 -19 0
401 100 -497 0
93 98 52 0
21 -198 -234 0
202 150 1 0
272 -299 256 0
145 -347 9 0
451 458 491 0
-384 396 390 0
-74 226 431 0
263 -261 -297 0
-258 257 -265 0
-11 102 330 0
-71 -87 -77 0
-261 299 -289 0
-363 433 309 0
277 271 -252 0
-5 20 17 0
437 449 -419 0
238 203 237 0
-225 211 202 0
318 177 -475 0
-379 386 388 0
457 451 -495 0
-343 -325 -312 0
-114 107 -149 0
111 131 -128 0
-158 186 -171 0
420 414 407 0
114 -149 -118 0
145 150 113 0
219 209 244 0
424 431 437 0
-373 392 -374 0
-37 19 -17 0
-122 -500 -221 0
-271 279 254 0
-348 -80 4 0
-373 368 -390 0
145 126 -130 0
-116 -135 124 0
375 374 -370 0
-73 83 -98 0
148 -115 116 0
-124 -4 -238 0
469 482 -474 0
349 -337 -324 0
499 -493 458 0
390 -400 -353 0
-420 -417 426 0
320 -327 313 0
344 -327 -328 0
-100 272 240 0
485 -469 -470 0
-359 -19 277 0
-180 -184 165 0
374 357 -391 0
-159 -164 182 0
203 -215 -226 0
46 43 -2 0
-209 -213 -233 0
78 69 -75 0
324 -316 -333 0
-319 -324 332 0
497 454 466 0
316 -320 319 0
169 467 -430 0
-206 240 -212 0
-246 224 -216 0
-201 -422 486 0
-401 448 420 0
117 -442 19 0
408 414 431 0
76 88 79 0
98 66 -95 0
-3 120 438 0
93 74 -55 0
-498 -481 -491 0
6 29 5 0
242 -246 -250 0
217 231 -213 0
134 -122 -121 0
-263 -271 -270 0
69 60 54 0
460 498 -454 0
-53 332 -117 0
-82 90 -65 0
-110 353 -302 0
181 -193 -190 0
42 -6 8 0
111 144 108 0
207 176 -352 0
442 412 450 0
-131 -118 145 0
86 -71 -72 0
382 -374 -361 0
320 307 -343 0
-119 -484 -74 0
-235 208 220 0
389 -393 364 0
407 -212 157 0
-155 392 240 0
191 169 -157 0
-333 -301 -334 0
-37 144 276 0
-332 336 -323 0
79 107 295 0
-485 -496 -486 0
170 -153 -158 0
-232 -215 -250 0
427 -442 411 0
-74 91 76 0
254 -294 -291 0
127 -110 129 0
-36 493 170 0
130 114 -106 0
-185 -160 199 0
-236 -223 240 0
221 -206 -241 0
-398 -52 -461 0
405 425 -426 0
191 -175 162 0
23 -12 40 0
-412 -446 -432 0
340 -320 -316 0
-17 -6 45 0
33 35 -8 0
-398 378 352 0
374 376 379 0
-340 -328 -308 0
-297 291 -263 0
31 13 -25 0
-108 -142 -107 0
246 -217 222 0
411 -421 407 0
133 131 -132 0
-480 491 -490 0
222 -225 209 0
-226 39 -274 0
242 243 -231 0
-153 179 -193 0
25 41 4 0
494 -465 -463 0
-339 349 -335 0
-492 -451 -468 0
104 -109 -115 0
11 464 -446 0
438 426 414 0
-460 -417 12 0
137 -139 146 0
-412 411 422 0
354 -397 389 0
-134 138 -101 0
-164 181 185 0
146 112 -114 0
-200 -196 -159 0
273 -299 -267 0
367 400 -375 0
139 140 -101 0
-66 54 -92 0
-359 160 303 0
-448 435 449 0
303 477 -88 0
144 116 141 0
-379 -394 -383 0
-334 332 -342 0
218 202 -232 0
-487 -459 -499 0
-26 49 -12 0
80 71 -74 0
-19 -30 -35 0
-218 -238 247 0
431 -429 432 0
-31 -50 42 0
404 409 418 0
497 -458 475 0
-43 24 47 0
417 -439 -435 0
-415 408 -450 0
-32 -30 15 0
304 113 450 0
75 -93 -82 0
281 -270 256 0
-490 -474 480 0
131 -136 -123 0
-306 329 308 0
108 -146 -115 0
389 384 392 0
59 52 73 0
-382 356 -371 0
56 -91 -99 0
-324 280 -237 0
-304 -341 -324 0
-277 326 217 0
464 483 497 0
260 -292 288 0
-6 -178 -300 0
322 -225 87 0
54 79 -78 0
-209 -412 468 0
328 -338 346 0
-467 -112 -252 0
365 -356 374 0
-499 -202 337 0
-6 5 -44 0
-47 89 -398 0
18 241 161 0
-318 158 -292 0
-428 -413 -441 0
-336 -309 -318 0
-7 -36 -49 0
-149 122 129 0
470 474 468 0
-35 -14 4 0
167 -117 335 0
339 163 -28 0
392 81 302 0
475 -456 -467 0
371 107 272 0
-138 121 110 0
-313 -333 -336 0
64 -163 238 0
170 195 191 0
23 44 15 0
172 -190 168 0
438 -405 421 0
-454 -471 496 0
311 79 -473 0
-374 431 289 0
259 284 -267 0
14 -28 38 0
374 -388 -353 0
-220 -240 227 0
55 -74 -76 0
175 131 399 0
432 -438 433 0
-320 321 317 0
-469 489 495 0
-471 491 482 0
151 -409 333 0
441 62 -472 0
-394 364 388 0
-226 220 204 0
494 489 -466 0
-347 318 349 0
482 -465 -452 0
294 -265 -280 0
75 -51 88 0
-252 290 -295 0
-336 -301 -335 0
-433 -401 -426 0
425 -279 -218 0
184 162 161 0
263 -264 299 0
-338 -334 324 0
26 22 25 0
-187 -284 -89 0
19 20 -41 0
104 -102 -129 0
-295 -287 -253 0
-312 -358 261 0
247 -239 -210 0
329 -205 -366 0
309 302 -350 0
-140 128 -127 0
-139 -105 -120 0
353 -464 -333 0
-242 -218 -219 0
-326 308 346 0
348 326 -329 0
208 245 240 0
-410 -422 419 0
21 6 -43 0
-500 327 -80 0
227 -201 -224 0
-38 212 -87 0
-381 -305 431 0
-286 -289 267 0
-66 -98 53 0
180 -195 -184 0
65 -254 371 0
-128 -140 123 0
-253 273 290 0
-56 -59 85 0
-438 -417 442 0
-136 -393 -30 0
382 -30 -244 0
-90 -58 95 0
332 -325 -304 0
79 -51 97 0
-339 -497 -14 0
413 423 -404 0
99 100 -94 0
-388 354 -356 0
462 -463 -491 0
-241 -236 -207 0
329 350 -346 0
-492 -299 -301 0
-400 -390 389 0
442 417 402 0
-364 369 -379 0
255 -315 -214 0
-446 217 375 0
366 -383 -377 0
-343 -346 -348 0
13 -40 -39 0
327 -334 -301 0
-449 68 -263 0
189 -190 -151 0
-179 -199 -200 0
-299 296 256 0
234 323 -65 0
266 -288 -267 0
-384 -363 383 0
-172 158 197 0
253 -447 220 0
457 -454 -492 0
408 -425 -444 0
163 -173 151 0
-383 -367 -391 0
-498 -453 -489 0
-49 -235 -416 0
-22 -2 -32 0
8 -45 34 0
408 -422 407 0
325 -337 314 0
268 254 292 0
418 -479 247 0
-78 -92 87 0
-308 -347 335 0
-229 240 218 0
-53 71 97 0
-465 -496 -458 0
238 217 -205 0
283 -386 139 0
-173 -188 -154 0
373 365 361 0
-224 324 -119 0
-183 -171 161 0
-56 -87 -88 0
180 -157 169 0
-272 264 -263 0
-373 -370 364 0
-137 105 -113 0
-397 395 360 0
-266 -275 293 0
-386 384 -357 0
254 279 251 0
-178 193 196 0
-178 -452 -401 0
-495 -487 -488 0
164 -174 -159 0
44 21 -17 0
221 -8 -135 0
461 455 481 0
383 -367 -357 0
-259 485 -419 0
245 168 110 0
80 -83 -97 0
209 201 -215 0
-397 -365 366 0
-62 86 82 0
-451 495 466 0
-438 36 -268 0
-16 15 -5 0
219 -37 -87 0
-400 380 -390 0
-414 -58 -356 0
-364 383 356 0
26 50 -15 0
-229 202 247 0
-484 491 464 0
-493 -484 -463 0
333 308 -336 0
56 53 86 0
-237 -236 203 0
-482 -468 -457 0
-442 -425 -402 0
346 -320 331 0
386 103 350 0
236 203 242 0
356 339 259 0
244 213 -238 0
-173 -186 161 0
450 444 431 0
433 -446 -419 0
-21 31 -4 0
-329 317 -345 0
-41 33 -3 0
68 55 90 0
458 -477 493 0
171 -169 191 0
-11 -40 6 0
-385 -388 395 0
387 -356 382 0
-349 323 348 0
55 -54 65 0
-485 -465 -498 0
-265 6 362 0
-499 458 465 0
222 -210 213 0
35 28 -38 0
-144 -120 -125 0
-334 -16 -72 0
-78 -84 95 0
215 -149 257 0
37 -36 47 0
-252 -297 -271 0
115 218 67 0
-469 425 -107 0
411 -424 -423 0
-119 488 19 0
123 -131 135 0
-229 -219 -246 0
-487 485 -462 0
421 -446 -417 0
43 -64 -124 0
-208 -242 207 0
354 397 358 0
-253 278 -267 0
81 -98 -71 0
218 -432 -126 0
-192 -195 -153 0
-246 -232 -245 0
-318 110 -84 0
327 -308 309 0
461 -471 -469 0
452 -471 462 0
158 181 191 0
-272 -258 -300 0
-31 -27 -10 0
-238 245 -232 0
-12 -6 43 0
-111 238 -151 0
365 368 351 0
-410 -424 -449 0
266 -262 275 0
223 -230 208 0
107 25 -54 0
243 -202 -227 0
292 -162 -81 0
-77 -489 28 0
45 226 362 0
-465 452 -487 0
115 131 -121 0
-112 124 135 0
-255 282 267 0
-455 -464 460 0
39 21 26 0
27 17 -22 0
-256 349 -490 0
-463 -495 -489 0
-20 -16 39 0
105 -140 -149 0
22 -30 -42 0
294 2 131 0
40 3 5 0
7 -36 -13 0
331 -235 297 0
218 216 246 0
-142 128 145 0
46 14 38 0
299 -109 423 0
-317 -318 -303 0
-119 133 118 0
121 487 375 0
70 8 222 0
-483 76 -171 0
75 67 -94 0
442 105 -469 0
-43 4 -22 0
-491 472 -482 0
63 67 93 0
469 489 -451 0
-118 108 -116 0
409 424 -437 0
188 -96 285 0
468 -484 -471 0
-463 499 -451 0
304 345 -349 0
59 90 -71 0
447 416 420 0
-344 232 429 0
414 435 -429 0
-477 -466 -482 0
-26 16 43 0
-182 152 -198 0
-59 -65 98 0
-23 428 351 0
365 359 387 0
451 452 -468 0
198 -189 178 0
-109 148 112 0
-260 -266 -286 0
205 -469 -325 0
-411 -401 421 0
98 387 419 0
285 22 -247 0
-308 310 334 0
-193 -164 168 0
489 -492 452 0
92 191 -38 0
-225 221 202 0
90 -457 163 0
227 218 220 0
-24 -410 -72 0
-166 -188 167 0
327 -323 303 0
275 167 31 0
-403 437 -405 0
-301 304 317 0
379 358 -365 0
-104 120 -130 0
304 -335 346 0
-386 -353 366 0
245 -221 224 0
-180 -151 198 0
-325 326 -344 0
-418 -446 -449 0
397 -353 -365 0
36 180 -447 0
-169 195 176 0
279 -259 274 0
-249 210 227 0
-423 430 -427 0
281 268 269 0
-95 420 138 0
213 229 -240 0
-413 -405 -424 0
252 -293 -294 0
73 -78 99 0
-317 316 330 0
-178 -98 -44 0
436 447 404 0
-73 -411 -352 0
176 -178 184 0
152 -194 156 0
-347 -329 342 0
-416 -30 108 0
150 135 -101 0
-463 -461 -458 0
265 312 134 0
332 10 295 0
-24 -321 -464 0
-316 335 -330 0
111 -411 -96 0
-256 -289 296 0
-177 -183 -198 0
116 127 -114 0
-429 -417 405 0
7 330 -206 0
330 314 -332 0
457 -474 -488 0
108 126 -139 0
-468 52 -358 0
355 -353 379 0
37 -239 -408 0
233 -235 -236 0
-162 -196 179 0
-326 100 -193 0
-443 256 124 0
464 453 500 0
487 334 -261 0
308 309 301 0
-475 463 471 0
30 9 -16 0
131 -370 234 0
-80 -60 58 0
-95 313 467 0
430 -437 -407 0
368 388 -360 0
479 489 494 0
-28 -13 32 0
189 174 197 0
-276 -272 -298 0
-486 474 -476 0
146 111 -130 0
-19 -85 143 0
175 -330 100 0
-425 -433 -404 0
-98 -87 69 0
163 -166 -159 0
-315 305 -338 0
275 294 256 0
-482 367 62 0
146 -115 -140 0
-228 -246 -237 0
354 -383 353 0
416 -462 170 0
187 169 -195 0
456 -496 -476 0
305 336 -317 0
212 -210 -228 0
-180 185 182 0
196 187 167 0
80 -51 -61 0
202 -67 -1 0
38 9 23 0
-482 -490 484 0
-42 424 353 0
469 -472 470 0
176 226 -277 0
369 -365 377 0
-318 -280 -496 0
-453 -482 473 0
62 76 85 0
-319 -326 -322 0
150 139 -130 0
146 -145 -141 0
-112 -141 -122 0
-121 114 -143 0
306 348 -311 0
-181 -164 -165 0
367 -365 -397 0
444 -431 -412 0
125 -110 146 0
68 -97 57 0
-416 -146 -354 0
369 378 -354 0
-170 184 180 0
313 303 -346 0
358 -383 -361 0
-459 -458 -462 0
-79 96 89 0
317 -302 -335 0
430 443 -422 0
100 -72 -85 0
-362 355 392 0
244 -234 214 0
-159 296 220 0
-71 -52 -83 0
42 209 -81 0
-128 125 -106 0
-281 291 -259 0
-165 -179 161 0
407 -420 -406 0
59 -53 52 0
-433 -437 -416 0
-45 -22 -38 0
420 421 -448 0
-164 165 -185 0
161 -10 -278 0
181 -161 -193 0
-231 233 -242 0
-307 -204 -123 0
-109 -103 -116 0
-432 429 431 0
442 449 410 0
-420 450 -444 0
97 -255 375 0
142 382 184 0
437 164 102 0
-210 480 -307 0
-173 -193 151 0
-5 -6 -40 0
-215 -211 -216 0
-265 259 -289 0
254 300 -273 0
-409 -420 -428 0
-453 491 -474 0
-115 112 130 0
15 23 43 0
-131 -388 294 0
-143 102 -101 0
-22 23 29 0
220 229 -230 0
-142 123 150 0
-322 317 319 0
266 -277 256 0
298 254 258 0
320 -321 319 0
295 -267 254 0
-497 -391 -221 0
441 -416 -425 0
-180 -166 -200 0
409 -429 417 0
35 -25 28 0
-181 156 -155 0
-215 412 -347 0
64 -100 -58 0
25 -9 11 0
346 -442 -97 0
428 417 -402 0
-81 -57 -62 0
125 -105 -148 0
-49 36 -28 0
38 42 6 0
67 -51 -73 0
-197 -474 14 0
77 88 -55 0
-54 -78 -62 0
-141 -135 -123 0
380 385 -360 0
-334 311 329 0
27 -26 16 0
492 493 466 0
-269 -270 300 0
-240 212 209 0
439 406 450 0
-134 147 105 0
-405 441 427 0
251 106 -373 0
211 -164 -257 0
247 -208 242 0
186 -180 190 0
-239 -244 235 0
-230 -250 -228 0
485 -492 -470 0
217 222 -230 0
-16 -20 50 0
-393 395 -397 0
230 128 88 0
339 -324 -326 0
370 -435 -476 0
301 -331 -334 0
-493 489 474 0
308 324 329 0
106 119 -149 0
-324 342 347 0
458 -453 -496 0
-126 200 -206 0
-194 -181 183 0
470 261 16 0
-30 47 -35 0
119 -132 -150 0
495 -169 293 0
-299 -288 272 0
-51 -70 -78 0
490 479 -500 0
236 -231 -217 0
-168 -177 195 0
190 -172 -186 0
420 319 -94 0
423 435 -430 0
110 113 125 0
-405 403 420 0
-15 26 27 0
-447 100 362 0
407 441 409 0
-238 242 -240 0
-164 183 -152 0
-258 391 -5 0
-310 333 330 0
-430 413 -447 0
439 408 -447 0
-338 307 -343 0
78 97 93 0
-194 140 -56 0
-50 470 -71 0
-320 -330 307 0
372 375 367 0
-410 -449 446 0
-31 -455 265 0
-257 -215 -347 0
-365 -400 -360 0
389 395 354 0
173 167 168 0
-228 -234 -240 0
-454 500 458 0
366 387 376 0
192 -196 175 0
264 -259 -279 0
-56 21 310 0
-493 -462 -459 0
-358 -392 390 0
326 -313 305 0
-201 216 -219 0
-429 408 -449 0
37 20 -31 0
-80 90 55 0
174 200 167 0
326 -338 301 0
-405 -430 446 0
417 -274 219 0
488 -457 -479 0
-283 -277 -270 0
-286 -271 264 0
-15 43 -39 0
-184 -198 183 0
-175 -445 59 0
48 -422 -98 0
-76 57 -52 0
-412 -405 411 0
-385 387 -375 0
302 493 -76 0
-328 -349 -348 0
97 96 -53 0
56 -65 -71 0
33 -21 -48 0
-474 -485 -456 0
-38 -5 45 0
-271 -295 -266 0
89 67 69 0
-471 -499 456 0
-377 -375 -390 0
-199 -200 180 0
233 246 211 0
478 -498 456 0
329 -332 335 0
327 320 -325 0
94 60 -88 0
283 -284 -287 0
93 95 87 0
48 -30 -20 0
-239 -232 209 0
35 1 50 0
138 181 -33 0
-345 -314 -309 0
-63 64 100 0
-103 -119 123 0
348 -317 -311 0
381 26 78 0
158 -165 -186 0
52 -85 53 0
202 -244 -250 0
174 194 193 0
455 471 -477 0
159 -151 181 0
-265 419 -53 0
-455 452 -487 0
-238 -214 211 0
303 334 -318 0
-197 184 -157 0
240 -246 202 0
-103 -144 121 0
292 -264 -298 0
196 308 363 0
-248 -274 18 0
-213 -236 244 0
499 335 -226 0
77 274 -223 0
-18 40 15 0
154 456 212 0
476 474 -464 0
164 -86 -254 0
-434 35 280 0
219 -201 239 0
-145 366 -459 0
455 -176 -89 0
-144 134 106 0
-408 -78 494 0
-482 452 464 0
-403 -411 -445 0
-84 -87 -95 0
186 157 -177 0
-490 328 -244 0
340 -326 -336 0
-458 -54 -349 0
433 439 -406 0
-384 -447 195 0
381 -389 399 0
-247 -214 -224 0
-46 -4 -2 0
-108 135 -117 0
-305 333 -346 0
-159 170 -200 0
210 235 245 0
181 157 159 0
-36 -463 88 0
-72 -66 100 0
132 -136 109 0
278 287 -251 0
287 279 -253 0
-409 -439 415 0
468 478 465 0
-386 -376 395 0
-253 -325 -403 0
241 203 -236 0
416 441 421 0
12 -39 -42 0
-269 -275 262 0
149 -305 -9 0
-436 422 411 0
-63 -77 100 0
-140 126 119 0
-314 104 374 0
43 287 -119 0
126 -490 430 0
-206 -237 210 0
-385 -368 369 0
-252 271 291 0
167 -157 -182 0
-468 -500 -453 0
43 -48 23 0
329 325 338 0
174 -198 172 0
275 -265 -266 0
-33 40 -44 0
443 136 248 0
220 208 -221 0
297 -285 -266 0
366 -372 -355 0
-371 358 -379 0
-468 478 -455 0
-472 452 -476 0
-293 85 -487 0
-23 48 -31 0
104 138 -103 0
-410 431 443 0
-457 -10 381 0
301 347 340 0
228 -221 -215 0
382 -350 -171 0
133 -24 -248 0
-158 191 -155 0
-44 41 -47 0
-459 -377 -191 0
392 -365 -393 0
339 -327 -320 0
-415 -446 401 0
-201 -217 227 0
-57 -87 -91 0
386 376 -374 0
477 -113 -282 0
-4 -3 1 0
452 493 487 0
413 -403 422 0
-12 -36 -38 0
185 147 -244 0
-109 103 140 0
294 -300 278 0
-120 132 106 0
-159 -152 -165 0
-252 -289 265 0
141 -101 -150 0
-72 -95 75 0
232 207 246 0
498 481 483 0
-26 14 -42 0
-446 -404 445 0
436 -415 -408 0
-281 268 -260 0
94 -100 -58 0
-5 -32 -33 0
-160 -173 158 0
438 401 -442 0
-200 -168 -178 0
16 42 -8 0
221 220 -236 0
55 -372 246 0
-119 -106 -136 0
127 352 -452 0
46 53 -293 0
-414 444 426 0
222 -136 -425 0
45 27 8 0
46 -2 48 0
243 -227 -217 0
221 223 -247 0
-390 -385 383 0
-461 -478 487 0
407 433 425 0
245 -210 239 0
-393 -385 -384 0
-208 -232 -237 0
-125 148 -127 0
-178 -169 -183 0
-381 -373 -390 0
-448 215 -43 0
320 445 50 0
-107 355 -221 0
-451 -486 -492 0
224 241 236 0
-460 480 479 0
186 -183 154 0
-198 177 156 0
200 -189 -188 0
299 -272 -293 0
-481 424 -244 0
276 290 261 0
245 -203 202 0
79 -53 -82 0
73 52 -74 0
