p cnf 500 1175
305 440 339 0
139 -244 127 0
473 157 -215 0
90 384 58 0
-478 -155 204 0
-208 99 -118 0
133 435 -236 0
494 114 -170 0
326 279 -267 0
-162 213 22 0
115 -196 -464 0
376 -280 -173 0
153 -117 -267 0
77 244 -356 0
327 -251 211 0
-492 -252 403 0
183 -105 -310 0
13 -365 -89 0
-424 44 -13 0
-329 -74 205 0
258 -371 441 0
-293 -204 -128 0
416 -407 -392 0
462 128 12 0
-291 -456 373 0
391 206 -62 0
125 202 -316 0
153 384 32 0
326 -98 320 0
372 -475 -489 0
169 -207 214 0
-183 -32 -347 0
-406 495 139 0
-475 323 -37 0
323 -333 -305 0
-213 -201 -490 0
-22 163 277 0
33 -43 -63 0
-407 292 253 0
129 10 -402 0
-472 144 -407 0
417 163 -133 0
61 36 -167 0
-300 214 343 0
-224 36 -490 0
320 -67 393 0
-203 -469 -449 0
299 -477 202 0
245 400 67 0
-219 -358 -222 0
20 197 -175 0
-80 -277 -158 0
-251 113 -313 0
122 -147 222 0
481 463 -329 0
216 -342 485 0
256 -500 -104 0
340 -5 -301 0
16 403 377 0
-7 96 347 0
180 -373 405 0
-328 431 318 0
328 226 -356 0
94 -457 374 0
175 274 -487 0
-49 -500 -10 0
457 -451 185 0
189 431 200 0
381 459 -128 0
-142 -117 -331 0
60 -187 -257 0
-67 -470 265 0
155 304 454 0
329 -35 303 0
-2 -143 204 0
-79 15 -154 0
155 168 -289 0
80 -166 472 0
485 -87 -484 0
259 -119 -191 0
-169 229 -200 0
-58 -468 -207 0
296 -240 -332 0
-317 -304 -453 0
-313 305 -206 0
297 -488 -405 0
459 300 366 0
-197 82 -196 0
-221 228 345 0
438 -255 -279 0
-108 265 452 0
-100 -35 340 0
-478 -133 299 0
-147 -448 -97 0
375 -443 351 0
-306 -373 295 0
290 375 -300 0
437 474 481 0
-442 433 476 0
-274 233 172 0
76 -159 241 0
-204 52 285 0
295 -36 499 0
177 -407 -64 0
63 -479 -358 0
450 -227 398 0
242 -128 240 0
-278 -208 495 0
-142 -286 -284 0
-109 366 -439 0
92 -233 427 0
225 -316 344 0
413 -362 383 0
-453 -456 397 0
-425 -54 244 0
463 -85 468 0
180 129 188 0
384 468 189 0
378 -384 381 0
325 152 -149 0
-465 78 315 0
194 334 498 0
-83 -429 242 0
-454 -435 413 0
169 -44 -371 0
198 418 157 0
256 39 -137 0
3 337 52 0
261 -262 -215 0
479 -239 11 0
201 112 -5 0
277 182 -252 0
-438 -189 397 0
139 229 197 0
259 -169 -180 0
221 37 -391 0
96 -122 -208 0
-200 279 -298 0
-147 -39 -306 0
82 -237 416 0
224 286 94 0
-72 46 30 0
46 -273 33 0
-67 -161 -431 0
-6 -188 -229 0
-167 -170 181 0
-252 -353 248 0
384 -39 258 0
307 -83 -31 0
165 -3 8 0
-89 126 -167 0
103 301 266 0
-24 436 99 0
-329 160 253 0
323 311 145 0
-224 117 -78 0
-408 -300 -448 0
499 -105 266 0
-1 376 185 0
59 -209 379 0
137 134 425 0
-128 -149 -482 0
47 -50 -190 0
491 297 -282 0
88 290 145 0
59 184 -380 0
49 -462 181 0
-372 403 -83 0
226 467 408 0
-412 210 243 0
-333 -6 -276 0
-138 202 -296 0
-499 -224 -81 0
250 496 11 0
-264 -307 281 0
453 476 414 0
214 353 114 0
232 -123 -8 0
152 273 -68 0
-288 368 47 0
-204 -335 434 0
-87 -154 -201 0
57 289 268 0
-273 227 -327 0
339 -173 122 0
338 -182 110 0
-46 -179 133 0
202 254 103 0
-231 -21 -38 0
91 -394 36 0
-124 -437 81 0
-190 -344 -14 0
-283 214 -68 0
-392 -463 -96 0
440 -267 -59 0
133 402 -3 0
299 -12 -199 0
-179 14 499 0
-132 112 -42 0
-408 -166 196 0
423 399 -330 0
494 -300 279 0
427 -60 -380 0
-20 387 418 0
60 -44 83 0
-376 -163 -230 0
-339 -112 -354 0
-490 162 433 0
-26 -178 -460 0
-111 -60 445 0
51 169 228 0
499 99 -288 0
122 185 59 0
239 -382 427 0
-406 142 349 0
422 -234 -22 0
-406 397 318 0
-20 -108 -358 0
-393 183 15 0
-39 57 157 0
422 -159 338 0
110 82 452 0
36 24 398 0
317 -387 -383 0
6 162 97 0
347 -32 482 0
-27 88 -412 0
-447 235 119 0
161 -82 377 0
278 404 267 0
-65 25 80 0
-497 -423 37 0
470 352 -130 0
-453 -95 185 0
23 -111 -41 0
299 -395 467 0
377 493 -346 0
-458 398 111 0
55 -372 40 0
477 152 216 0
462 -334 436 0
-312 461 419 0
-90 484 289 0
266 153 4 0
-175 -173 -52 0
195 -446 442 0
180 -411 355 0
414 147 -146 0
28 378 467 0
194 158 370 0
295 138 -36 0
-215 474 -130 0
337 59 -394 0
163 351 113 0
-452 408 -350 0
-49 16 -230 0
-42 182 -70 0
122 -198 195 0
-340 465 420 0
239 444 -370 0
-373 42 -2 0
-297 -207 -414 0
-331 357 281 0
-292 -213 72 0
107 64 465 0
2 168 94 0
-331 252 480 0
322 253 210 0
453 54 426 0
387 -259 335 0
-174 -321 -35 0
468 -368 196 0
-418 -143 400 0
347 -75 -101 0
473 290 -8 0
-351 195 116 0
-220 -300 96 0
428 -169 7 0
160 282 -63 0
-125 -297 -316 0
-101 -241 500 0
65 177 384 0
-378 264 -265 0
281 -113 -193 0
-103 -349 -23 0
-116 -88 198 0
227 146 -270 0
290 374 370 0
-11 183 42 0
-203 81 -51 0
460 358 340 0
-260 -263 208 0
-28 -222 -474 0
-191 -362 -385 0
1 124 202 0
113 491 -453 0
52 226 -262 0
-400 72 33 0
433 -439 468 0
146 -242 377 0
-385 286 -410 0
-28 163 426 0
-8 226 283 0
159 210 -127 0
109 -485 -295 0
164 -227 -374 0
-146 -108 228 0
-354 -291 346 0
151 27 -278 0
-256 -159 -399 0
-497 203 -322 0
117 109 -240 0
-199 -277 -153 0
-79 122 -350 0
212 302 409 0
53 -211 188 0
215 -116 -49 0
-444 350 -299 0
-269 397 -23 0
492 311 -344 0
390 260 4 0
429 -238 163 0
-14 -241 -40 0
398 92 304 0
-376 -343 -375 0
194 54 493 0
-61 -387 272 0
187 467 284 0
406 207 345 0
499 402 -133 0
-148 64 140 0
320 259 268 0
318 500 -312 0
60 -181 -164 0
-110 -124 181 0
184 -334 237 0
-167 69 -287 0
-59 98 36 0
-93 -31 428 0
388 73 -335 0
201 490 425 0
-325 -214 4 0
228 236 113 0
246 -372 -463 0
-80 75 177 0
-270 -207 -218 0
5 91 371 0
446 179 -390 0
-471 22 -259 0
-28 -166 -47 0
293 117 -153 0
245 280 -134 0
-108 -369 348 0
28 394 285 0
-417 86 -228 0
-123 -144 76 0
-170 -271 295 0
-201 312 254 0
-200 370 -455 0
-257 -45 425 0
109 -230 198 0
489 -284 -216 0
-495 374 341 0
454 388 239 0
393 479 419 0
374 437 -114 0
-449 -388 -432 0
471 -210 45 0
-292 193 -32 0
-176 42 254 0
207 149 32 0
5 364 417 0
167 -348 175 0
-369 -294 -95 0
-29 391 68 0
-457 234 -155 0
288 336 -491 0
-71 163 172 0
341 16 96 0
65 211 258 0
-386 -354 -300 0
312 307 -382 0
437 -429 -467 0
51 -288 -210 0
-379 -347 105 0
321 202 139 0
464 -392 306 0
195 -342 -35 0
332 -251 384 0
306 428 24 0
-498 -495 -406 0
-240 -113 -91 0
-483 -454 382 0
139 258 -225 0
247 -362 47 0
-233 -319 249 0
-435 144 -116 0
-350 -463 464 0
-110 300 438 0
247 -113 1 0
110 -178 207 0
451 -415 401 0
-234 227 -165 0
-66 -481 -93 0
-173 280 -165 0
363 -15 204 0
50 -205 -473 0
447 124 101 0
68 -474 101 0
-364 -40 -217 0
78 -60 480 0
489 424 -332 0
-484 -358 163 0
-50 -172 -45 0
317 334 -496 0
-377 360 -490 0
-438 -477 33 0
-31 34 400 0
-451 -326 -68 0
-333 189 -68 0
-321 -92 -341 0
-451 -473 -229 0
-478 236 -101 0
83 4 476 0
-423 -434 -43 0
162 -452 -461 0
-303 96 286 0
163 -336 -87 0
444 -49 267 0
-7 -371 385 0
-395 347 93 0
150 -422 425 0
-452 -16 -151 0
-259 -28 17 0
396 -316 -337 0
146 -212 -457 0
-47 -65 -481 0
-36 337 -128 0
-444 287 -207 0
-214 208 -187 0
393 -487 230 0
289 -46 -387 0
169 241 494 0
240 -222 -146 0
455 63 189 0
-265 414 113 0
-158 -249 -13 0
-236 287 -63 0
-452 -290 254 0
-460 93 -87 0
-279 247 10 0
480 320 -114 0
418 -71 335 0
327 -494 -266 0
-54 108 245 0
-140 292 178 0
50 341 34 0
-204 -445 84 0
327 236 -485 0
-298 475 -190 0
-135 70 -468 0
74 -314 342 0
-436 116 -290 0
474 193 -253 0
-277 359 -12 0
-438 69 263 0
-52 471 413 0
-403 177 13 0
-479 307 4 0
-374 464 436 0
-42 -349 362 0
-178 -264 -321 0
-392 411 -214 0
267 -260 -336 0
432 331 204 0
-174 -460 358 0
-217 -266 -489 0
47 476 -270 0
-381 7 27 0
126 431 -265 0
333 -348 -184 0
-13 -374 -253 0
233 170 253 0
-70 114 38 0
243 -280 326 0
339 -132 361 0
472 -112 -85 0
195 381 -474 0
150 216 381 0
-362 92 -13 0
-386 -148 -310 0
13 59 129 0
212 381 291 0
98 -21 -349 0
474 292 -59 0
255 -361 246 0
339 478 -132 0
70 -275 -452 0
450 242 13 0
-445 68 -217 0
71 482 -3 0
89 -366 -90 0
-275 -342 -428 0
-323 -426 -394 0
-247 12 307 0
201 -243 155 0
-404 39 198 0
93 463 246 0
-134 346 -103 0
-432 207 -418 0
400 167 205 0
-346 302 32 0
400 -413 -459 0
-282 320 -231 0
67 -495 -439 0
215 -484 154 0
-101 -93 -388 0
362 -98 176 0
-223 322 411 0
-401 391 340 0
-59 -462 428 0
-364 -258 -461 0
350 134 -235 0
-209 -268 -93 0
-209 437 -19 0
444 -477 45 0
-178 145 491 0
-194 -263 486 0
-326 -125 -379 0
307 70 281 0
-78 -421 -485 0
304 -183 -454 0
471 -264 -163 0
-205 407 318 0
-87 -95 -435 0
50 -430 415 0
-430 -298 353 0
-159 434 -429 0
468 -315 335 0
-473 376 391 0
307 305 -60 0
-162 25 152 0
-17 41 -467 0
-425 -406 488 0
-58 -440 475 0
144 243 -352 0
16 -484 110 0
-351 -232 -223 0
210 407 445 0
385 416 205 0
140 268 -92 0
60 296 420 0
-24 -94 -160 0
125 -421 -226 0
-49 139 180 0
-31 426 -498 0
317 256 220 0
-499 438 319 0
-406 -299 -105 0
-366 -62 -334 0
-151 497 -458 0
-239 -313 352 0
-298 203 378 0
107 207 141 0
443 -363 -174 0
72 39 102 0
28 -277 -490 0
490 -97 493 0
-318 201 356 0
-51 429 183 0
-446 459 -334 0
-323 342 226 0
378 204 -183 0
81 -189 440 0
362 -169 -452 0
26 53 -353 0
360 454 43 0
-365 -28 -105 0
-448 334 33 0
-178 -432 323 0
-470 73 487 0
109 320 -116 0
99 55 33 0
200 -432 -308 0
-323 -116 -441 0
-367 -14 415 0
60 171 490 0
183 288 -282 0
404 4 -138 0
-377 -476 256 0
215 247 408 0
234 -280 -407 0
-77 -406 -441 0
-337 107 -252 0
-90 194 -221 0
148 -280 457 0
-242 41 -473 0
288 -470 -39 0
158 211 -422 0
-422 482 -371 0
107 -136 293 0
-144 -275 -159 0
415 -213 444 0
-439 -253 52 0
161 365 245 0
-417 30 -290 0
236 180 -254 0
-362 373 -59 0
-271 -27 -377 0
485 257 -399 0
-394 -66 -269 0
-336 398 168 0
-390 429 424 0
382 44 279 0
208 404 -411 0
381 156 -89 0
-420 371 -484 0
-2 -63 -332 0
346 45 385 0
15 7 364 0
-1 -382 217 0
-463 -208 -32 0
-499 353 229 0
-139 87 183 0
329 -324 -464 0
-356 -394 399 0
374 337 -359 0
-385 180 -231 0
-266 138 -100 0
-362 313 -233 0
-196 169 326 0
-259 -479 -155 0
205 49 -411 0
403 -488 470 0
336 496 113 0
-153 -152 172 0
78 322 362 0
126 -271 -69 0
-137 176 67 0
187 -145 -202 0
374 69 331 0
-421 485 -344 0
-239 -499 -247 0
-17 160 -5 0
57 39 -101 0
132 443 320 0
484 204 -240 0
167 -72 -150 0
335 -238 118 0
-26 90 -304 0
30 -57 -65 0
71 -15 387 0
-119 -313 108 0
-176 -96 -426 0
388 140 386 0
43 118 -131 0
491 461 18 0
-386 497 169 0
-211 -283 -307 0
-3 -413 -75 0
234 216 -221 0
302 294 110 0
495 -235 -3 0
230 -187 226 0
-490 -452 -403 0
352 -226 -40 0
-133 -237 370 0
-59 198 88 0
23 445 -254 0
-427 -368 -15 0
-358 94 312 0
81 146 174 0
281 -481 -262 0
80 -185 -385 0
475 218 -317 0
-18 72 28 0
-457 455 462 0
-268 -218 -489 0
-41 -411 -435 0
-146 -291 -431 0
-67 12 -166 0
217 -265 -456 0
-252 -192 429 0
-113 -279 -246 0
-108 -280 160 0
277 -500 83 0
374 355 -230 0
101 -10 -148 0
350 230 301 0
-307 431 -471 0
-65 -472 59 0
-177 46 255 0
223 29 -141 0
485 -370 -224 0
-214 291 124 0
-224 485 -97 0
345 -186 -273 0
464 -88 -233 0
-287 343 -413 0
449 238 -58 0
283 -405 66 0
-229 -67 -402 0
-453 -108 37 0
305 161 158 0
-73 -2 -99 0
-373 -494 113 0
-20 -404 -29 0
-401 -343 -199 0
-107 75 -498 0
389 -333 -252 0
-356 -53 271 0
471 -266 282 0
449 -64 -92 0
256 -489 364 0
438 474 -65 0
349 -374 -298 0
-156 -457 191 0
-81 247 424 0
298 -328 -68 0
13 369 -77 0
-453 -101 245 0
-404 -73 471 0
-252 -256 -406 0
-89 356 231 0
-3 -103 -132 0
-192 -383 -357 0
486 -226 -387 0
186 349 -141 0
255 429 -323 0
-2 -77 -74 0
-229 -385 415 0
306 -423 -2 0
127 -110 -369 0
-337 323 60 0
49 -330 -234 0
-12 -49 -308 0
130 232 456 0
-273 -138 -488 0
330 -486 242 0
160 253 178 0
476 -408 418 0
413 -280 -450 0
-231 -364 -88 0
-235 458 72 0
-315 246 317 0
-369 243 -136 0
-313 -288 -459 0
-483 -279 -345 0
-22 -403 138 0
329 4 -58 0
-288 43 -448 0
-55 246 10 0
118 298 -470 0
95 50 470 0
-198 -229 42 0
-379 245 361 0
355 356 -350 0
72 156 -310 0
-434 230 -413 0
-86 -128 359 0
191 84 497 0
190 -296 -454 0
-386 -267 -117 0
-12 490 285 0
-329 356 270 0
-52 464 276 0
-258 -19 -269 0
233 -180 -53 0
123 -455 -182 0
-395 -448 -247 0
61 69 133 0
414 361 -410 0
-487 17 -457 0
-83 63 -382 0
212 422 -245 0
116 215 -498 0
5 -72 -245 0
-101 -7 -277 0
-446 -486 -472 0
476 164 -180 0
348 78 487 0
-243 -205 280 0
-368 68 -131 0
-447 -252 -233 0
97 388 -264 0
120 -325 -118 0
-237 -483 -403 0
-333 -78 494 0
-476 -56 350 0
-343 -92 -413 0
-400 -413 -147 0
-474 270 365 0
-290 281 154 0
275 -297 -244 0
275 296 -309 0
-86 242 302 0
375 -475 262 0
109 -424 343 0
-385 -124 153 0
276 59 130 0
-438 127 -353 0
134 347 -398 0
-200 -465 -334 0
211 243 5 0
384 378 -229 0
-85 227 428 0
172 421 -219 0
339 -363 -440 0
-240 -384 -367 0
291 140 2 0
7 -259 -197 0
469 -206 53 0
-127 286 -100 0
-425 -441 211 0
-323 157 -154 0
86 -55 -206 0
-270 -350 -285 0
-357 -106 494 0
63 407 42 0
437 -64 -7 0
-308 -114 -307 0
-8 403 69 0
-473 -112 51 0
415 -79 -339 0
-272 84 -275 0
392 273 161 0
-23 146 228 0
-382 -217 348 0
-188 -75 136 0
-158 26 103 0
-107 -360 362 0
-259 -365 164 0
-380 -182 31 0
239 -62 -32 0
128 -118 -445 0
-479 27 -359 0
-418 68 -117 0
-480 434 76 0
264 -198 -291 0
451 -38 -184 0
-415 -435 312 0
-159 464 128 0
150 166 289 0
-61 86 -239 0
485 -489 247 0
-410 -360 42 0
-135 479 481 0
128 130 -63 0
373 -377 -168 0
-484 242 114 0
43 249 478 0
425 -494 336 0
331 48 465 0
-139 237 226 0
-136 -452 44 0
123 -13 92 0
493 409 -352 0
-14 -370 154 0
480 71 -415 0
68 -389 -134 0
-197 144 85 0
-280 -220 7 0
338 -292 -162 0
-222 -418 37 0
163 79 -260 0
246 -75 72 0
461 21 271 0
353 169 218 0
243 301 499 0
-211 22 93 0
-243 -240 171 0
118 -151 -233 0
231 -31 38 0
46 352 478 0
-180 -14 -279 0
-390 -283 50 0
-89 -120 129 0
-280 -136 408 0
-411 -79 -341 0
471 -261 276 0
-463 235 420 0
-219 471 -280 0
-163 176 -493 0
142 -320 204 0
-332 -347 421 0
-125 -76 340 0
80 74 -169 0
256 -28 -269 0
111 -336 -401 0
-263 421 -180 0
392 -277 -15 0
105 372 -249 0
-291 -96 350 0
-484 -278 168 0
-107 -371 -366 0
249 -239 41 0
177 -259 184 0
-489 -255 353 0
228 -379 216 0
-94 -145 -22 0
254 -471 145 0
-194 -430 -218 0
489 267 485 0
90 32 -402 0
374 -196 131 0
-430 496 196 0
305 -144 -344 0
311 -360 -386 0
-223 -41 -7 0
444 -188 401 0
-149 -300 215 0
-432 -273 -499 0
-324 318 420 0
-493 -186 -250 0
-390 -281 152 0
92 -342 -400 0
-489 -434 -243 0
-265 365 -125 0
-421 -482 -469 0
40 334 -373 0
-351 -40 63 0
-283 227 144 0
183 337 34 0
412 378 -347 0
361 163 -268 0
342 372 28 0
-6 275 -481 0
-209 340 -428 0
199 -406 -193 0
76 -206 241 0
-335 -356 328 0
373 307 36 0
-378 -215 81 0
-335 384 -167 0
88 412 438 0
-408 -298 436 0
-73 192 380 0
500 145 -311 0
-344 250 -468 0
437 219 -101 0
346 483 279 0
-274 466 137 0
123 228 491 0
223 -356 252 0
-351 -388 419 0
90 498 33 0
465 340 302 0
341 126 -488 0
-408 -346 398 0
265 39 -272 0
317 18 -143 0
-204 129 222 0
-490 -427 341 0
-69 497 255 0
72 -35 -361 0
-83 -328 -161 0
-256 208 493 0
-168 -158 421 0
-241 330 380 0
-291 -28 445 0
435 61 152 0
161 262 -153 0
-431 -126 -123 0
303 447 316 0
160 456 464 0
87 144 297 0
-327 196 -499 0
-496 495 -126 0
-430 433 277 0
107 -307 -416 0
210 22 -64 0
-46 492 359 0
-18 -419 482 0
86 406 -286 0
277 -223 497 0
387 -326 -97 0
392 473 238 0
-203 -393 -81 0
488 -251 135 0
15 -436 -36 0
187 366 367 0
-26 -357 359 0
-299 -314 -297 0
92 118 -94 0
65 -280 284 0
184 177 -185 0
83 -403 286 0
371 -158 184 0
-242 53 9 0
111 -23 -233 0
-251 -360 -351 0
-386 -417 -246 0
7 -276 -444 0
257 -125 397 0
-14 411 -4 0
-33 253 -151 0
369 137 214 0
432 348 82 0
42 -460 70 0
100 -56 89 0
161 -426 -340 0
-245 -241 173 0
487 105 -302 0
14 408 -266 0
-42 -403 -291 0
297 421 220 0
234 275 258 0
201 -396 -49 0
-427 -348 302 0
8 -369 -230 0
-375 51 230 0
67 -263 -472 0
-384 72 287 0
-167 -493 364 0
184 248 43 0
230 455 318 0
-91 -69 109 0
44 -206 10 0
431 -233 -463 0
286 -476 402 0
139 -179 422 0
-197 432 -264 0
141 -268 467 0
61 389 205 0
138 74 -211 0
-264 -28 -271 0
141 -404 -147 0
-471 -367 225 0
171 -271 -21 0
33 183 -333 0
312 -127 -420 0
171 326 -262 0
-74 41 -216 0
96 282 -77 0
-301 -72 381 0
-483 91 -467 0
-490 -71 -402 0
-485 -391 249 0
-61 -262 -169 0
-358 333 213 0
-129 488 -195 0
-76 -201 -499 0
-268 175 -478 0
-355 -187 169 0
276 189 -54 0
364 488 -50 0
67 -216 363 0
-137 357 467 0
162 -142 -429 0
374 -100 -367 0
-314 235 -435 0
-170 -57 252 0
-325 -173 -442 0
89 -246 470 0
-12 -186 419 0
-3 236 65 0
87 195 -56 0
-442 488 -198 0
390 9 -348 0
20 -104 -482 0
334 408 223 0
-487 -149 -129 0
393 358 18 0
-153 -327 179 0
-253 -351 288 0
204 -175 -192 0
26 422 -319 0
-277 -139 381 0
87 -164 294 0
-492 -462 433 0
-257 -373 -267 0
-91 -167 58 0
219 -322 26 0
-156 -201 478 0
-347 -55 64 0
106 339 -389 0
-191 395 46 0
-315 469 -213 0
427 81 154 0
-164 138 -400 0
496 146 188 0
-272 -377 262 0
-294 -63 111 0
44 -140 -452 0
-268 425 -190 0
-465 -458 71 0
-147 402 76 0
346 289 -383 0
-376 80 -224 0
-376 100 -392 0
-220 172 -363 0
66 -134 -491 0
78 -431 114 0
256 457 365 0
348 -360 -97 0
339 -20 -9 0
112 446 -148 0
482 485 -145 0
-240 71 -99 0
-54 -162 29 0
-496 -103 -447 0
127 -285 83 0
-184 198 -72 0
73 32 62 0
-408 131 -377 0
-352 292 203 0
-290 305 355 0
-256 299 -355 0
106 -241 -491 0
-396 -296 348 0
-179 41 230 0
73 259 367 0
-494 269 18 0
-402 -235 -354 0
500 308 -466 0
120 -477 232 0
484 -417 16 0
226 -88 -463 0
414 -34 -119 0
-490 -431 211 0
-424 -146 -5 0
-99 261 -469 0
-149 -256 290 0
-239 406 -369 0
-302 -482 113 0
-198 226 -188 0
61 24 -115 0
460 191 442 0
442 -288 -335 0
105 414 -211 0
-100 485 -312 0
-365 -207 471 0
178 68 100 0
-42 309 -126 0
-128 12 214 0
242 139 426 0
-20 473 196 0
48 -371 432 0
-96 -433 -11 0
487 -352 -310 0
66 -261 329 0
381 -127 -345 0
-29 411 384 0
-138 460 428 0
252 -64 314 0
168 -426 -380 0
-270 -222 -87 0
451 419 -286 0
-483 -44 -128 0
206 -361 -237 0
-177 304 256 0
153 128 -132 0
101 -424 -383 0
-65 -254 407 0
228 467 38 0
-325 256 -337 0
-400 -303 442 0
-351 -151 -223 0
285 -244 -454 0
238 437 216 0
450 -95 274 0
201 -324 144 0
-92 304 -5 0
41 -78 -476 0
-334 340 -485 0
157 -123 342 0
-430 311 371 0
337 -284 -286 0
-4 28 177 0
-488 372 210 0
418 -433 50 0
257 -489 363 0
-454 449 406 0
-9 -374 -311 0
475 468 -317 0
