p cnf 500 1350
283 259 -332 0
163 -58 -44 0
204 68 -182 0
-285 441 -485 0
-136 -312 -272 0
413 -390 -382 0
235 -31 -21 0
-440 -491 413 0
-349 191 -13 0
232 437 -98 0
440 261 278 0
-277 -372 493 0
327 112 -78 0
-116 297 79 0
-405 -237 60 0
-451 6 -83 0
356 445 -496 0
-225 14 -197 0
-494 300 89 0
342 480 292 0
-396 -42 -437 0
-261 -255 -264 0
-280 106 -354 0
-146 -491 -119 0
95 472 -146 0
51 -144 -377 0
110 -451 360 0
433 463 147 0
316 -146 -489 0
-268 163 434 0
318 334 -205 0
-140 132 346 0
-65 206 -143 0
81 -159 -368 0
54 348 -429 0
2 269 -362 0
-222 -320 445 0
-376 464 244 0
228 -483 305 0
-95 -84 -256 0
-490 175 -345 0
430 -493 -79 0
358 189 -105 0
102 -216 301 0
-29 220 -293 0
496 -226 326 0
255 107 -343 0
-258 338 -138 0
-269 -479 300 0
315 245 -212 0
364 104 360 0
222 443 181 0
-227 -432 -339 0
-271 382 -104 0
180 -162 -275 0
-430 353 60 0
-151 432 -67 0
63 -365 110 0
-316 -248 -342 0
-81 -275 -297 0
-214 -359 244 0
-36 148 -71 0
-318 129 332 0
126 136 -396 0
321 113 -370 0
-94 -267 -352 0
406 231 -432 0
-104 -470 314 0
62 405 -264 0
-186 -467 -108 0
-387 -188 480 0
200 463 23 0
147 -364 214 0
130 -483 340 0
152 216 -345 0
-406 145 -2 0
-387 63 -347 0
-399 -164 -253 0
-452 -102 461 0
9 498 288 0
-366 134 299 0
-172 1 472 0
430 441 472 0
-264 -125 -104 0
-286 140 -327 0
-350 -123 476 0
365 471 153 0
443 337 -400 0
30 -165 -128 0
246 500 335 0
-382 235 -210 0
-335 405 402 0
41 404 75 0
-237 -55 -152 0
-492 11 356 0
-5 -67 490 0
-337 -421 413 0
-207 408 300 0
-446 -289 -452 0
-182 -280 -232 0
-474 429 143 0
-169 -79 74 0
485 161 293 0
-201 -37 90 0
-194 -492 -196 0
-333 -416 -180 0
-443 322 -49 0
-151 54 160 0
124 279 -195 0
-137 -248 252 0
-128 290 -259 0
-239 -178 -440 0
494 295 354 0
92 380 400 0
468 237 476 0
389 208 -164 0
145 277 56 0
242 276 -337 0
-287 -262 -24 0
322 -448 -272 0
-22 414 287 0
-217 415 -328 0
441 334 93 0
-225 261 -464 0
-426 325 -8 0
-102 -279 176 0
447 -21 -201 0
228 -89 -69 0
470 -173 -313 0
388 -145 -273 0
-364 276 -73 0
-128 -244 -55 0
-232 272 330 0
-74 275 14 0
-209 184 -252 0
59 457 98 0
-20 -457 335 0
-274 78 -404 0
297 -171 281 0
-425 -220 163 0
320 142 -408 0
471 -69 142 0
-213 277 218 0
-303 -147 -343 0
23 -37 -350 0
301 -362 -134 0
268 108 -135 0
-338 -298 -472 0
266 42 253 0
-70 -173 -113 0
-169 400 -459 0
298 436 339 0
-347 30 -152 0
381 169 -396 0
307 -146 -224 0
-283 -383 -365 0
-484 52 -343 0
488 450 -233 0
4 -384 116 0
76 197 391 0
-409 129 142 0
347 -452 311 0
-354 172 -336 0
133 455 63 0
95 -112 -374 0
402 -253 141 0
423 50 -470 0
-451 -41 112 0
-430 -482 268 0
498 -29 265 0
-311 340 -380 0
429 -250 -454 0
355 -306 195 0
362 173 234 0
46 308 325 0
423 -483 428 0
-198 -335 239 0
271 -25 -83 0
26 351 -394 0
-199 -206 186 0
-455 -227 -123 0
280 -143 -284 0
311 -487 -158 0
-8 -316 -492 0
217 -169 -318 0
-341 -171 137 0
113 371 -306 0
19 44 394 0
458 20 -287 0
291 207 166 0
202 -241 -465 0
431 274 198 0
344 -45 -40 0
344 8 389 0
422 438 343 0
319 440 -381 0
463 -375 -357 0
-432 -125 375 0
283 -15 -333 0
384 464 307 0
112 70 -31 0
-394 94 82 0
-373 388 -190 0
-303 -188 305 0
-470 -199 -382 0
-26 288 107 0
153 -456 -246 0
-409 297 167 0
-10 100 455 0
384 209 -133 0
-410 -174 124 0
500 83 356 0
184 421 353 0
145 -125 -316 0
-495 129 361 0
-414 229 123 0
-213 221 37 0
-234 106 237 0
-472 -69 316 0
-150 82 251 0
22 -254 -127 0
185 -341 487 0
70 -434 -277 0
381 -358 -398 0
-486 -428 348 0
-60 100 -3 0
331 -313 146 0
216 86 248 0
411 375 -205 0
22 380 470 0
113 167 301 0
-192 -341 -386 0
338 -160 444 0
-4 126 425 0
81 -407 58 0
32 326 175 0
-196 150 -82 0
33 201 72 0
-441 211 18 0
-129 -476 407 0
-50 2 370 0
293 -188 -473 0
-280 477 208 0
-398 -237 -73 0
-330 426 -328 0
113 239 -238 0
-241 446 159 0
-275 -185 -138 0
-79 -103 144 0
240 35 376 0
-143 249 -399 0
383 299 -297 0
-470 -266 -482 0
491 313 -104 0
295 -25 -371 0
363 30 -132 0
345 -452 180 0
-14 -367 -238 0
-42 213 -378 0
-442 23 52 0
369 -481 178 0
403 284 -368 0
-22 -218 183 0
254 -283 -379 0
176 380 -287 0
-417 49 447 0
148 57 382 0
-260 344 128 0
365 -120 -144 0
23 -243 456 0
300 -178 268 0
-156 -22 -95 0
-100 352 79 0
77 123 475 0
-238 -63 152 0
-270 -488 -404 0
456 159 -25 0
189 143 484 0
142 -33 284 0
451 190 -245 0
66 -460 -392 0
-192 -360 5 0
-156 290 -287 0
-339 207 -244 0
-440 319 -380 0
-472 413 -218 0
243 -175 421 0
-104 -278 475 0
-296 5 -123 0
-242 -347 146 0
-259 34 282 0
468 282 314 0
-329 -215 496 0
-173 199 -207 0
133 127 494 0
57 -474 -105 0
340 390 156 0
200 -352 -212 0
106 187 -482 0
359 -169 -284 0
-55 428 500 0
309 475 404 0
359 426 399 0
-239 -155 113 0
-472 494 -39 0
-266 -317 -137 0
74 -68 -377 0
230 346 60 0
-386 -108 372 0
73 297 -118 0
-468 -165 62 0
-151 59 -386 0
320 132 238 0
461 -60 -157 0
182 305 122 0
-474 -216 299 0
137 -411 -287 0
293 308 -344 0
368 -45 -470 0
-256 -81 89 0
98 -431 -127 0
452 -426 -184 0
299 1 -72 0
-80 -469 388 0
134 385 -417 0
-336 -241 122 0
-45 119 -285 0
-162 75 220 0
-394 112 125 0
66 -276 380 0
-234 464 88 0
393 124 58 0
379 37 193 0
-192 -283 245 0
2 -335 -39 0
279 -417 431 0
454 -245 -341 0
-33 -390 294 0
133 -271 375 0
-109 -63 -484 0
307 495 -388 0
75 375 191 0
-276 448 141 0
439 -479 88 0
-286 -36 -466 0
-101 -429 411 0
-297 -52 256 0
415 -176 -432 0
118 405 99 0
159 94 310 0
437 -228 96 0
213 -328 -264 0
130 374 -160 0
411 68 -365 0
-427 342 -418 0
311 -31 -257 0
213 -274 -363 0
-286 407 163 0
254 -441 -385 0
-295 -427 -57 0
373 133 -88 0
244 -77 190 0
-418 -297 -123 0
-467 -444 398 0
-315 -95 162 0
191 -335 -32 0
376 -465 16 0
-364 -361 -386 0
-415 -405 254 0
175 324 442 0
228 380 -408 0
-479 -61 398 0
67 249 -424 0
-367 -48 -430 0
-43 -134 -46 0
484 128 355 0
285 -32 -210 0
-143 -287 -151 0
-292 -413 355 0
487 481 230 0
289 330 -223 0
-500 77 131 0
499 -33 -93 0
-448 -139 -500 0
80 -306 85 0
69 79 -164 0
-228 -494 -341 0
92 -372 -397 0
430 -360 151 0
-382 -476 -446 0
-323 -439 -433 0
-412 173 406 0
-418 189 -160 0
-392 -289 -40 0
-41 -316 402 0
7 -310 173 0
406 -430 -307 0
-437 -263 -490 0
182 330 -13 0
126 265 -458 0
-115 97 -273 0
30 -225 -314 0
-272 338 98 0
31 234 -317 0
-168 125 345 0
-71 -253 -20 0
-78 -255 -475 0
-477 -211 392 0
331 -364 -347 0
484 444 -431 0
-335 460 381 0
-340 -131 313 0
138 -398 -34 0
300 -435 288 0
-288 283 136 0
-385 249 -285 0
-449 340 -180 0
-461 495 44 0
-432 56 -351 0
-393 -233 -118 0
-283 -481 -161 0
134 333 398 0
139 273 300 0
237 -420 -2 0
196 -122 333 0
193 163 -181 0
283 266 -80 0
-423 -243 230 0
183 -209 -297 0
-322 -209 249 0
-409 -485 -108 0
-13 221 -39 0
-430 -361 -304 0
-22 430 34 0
199 385 -186 0
26 471 -45 0
-21 -473 -110 0
-158 295 -302 0
-188 -107 125 0
-23 235 356 0
407 97 -25 0
80 -317 28 0
-84 264 -121 0
-147 424 -96 0
441 161 296 0
-42 421 -449 0
376 -251 32 0
69 -433 178 0
98 -487 -347 0
-105 130 271 0
-218 -325 471 0
300 -223 -138 0
295 383 -104 0
9 -151 -236 0
393 -477 104 0
245 -139 -242 0
-331 -443 -33 0
448 50 402 0
112 345 -249 0
429 -407 54 0
465 429 447 0
450 -49 -236 0
-176 477 288 0
-264 -418 285 0
-52 -443 173 0
16 -37 162 0
-378 -213 137 0
378 -236 90 0
-423 254 172 0
366 58 475 0
-127 374 212 0
426 -200 -98 0
-210 -220 58 0
-367 340 -348 0
-267 291 -181 0
2 448 458 0
256 -181 -244 0
-306 167 -29 0
-99 -31 26 0
146 -425 -213 0
305 494 -362 0
-147 374 225 0
-3 327 -311 0
43 -328 -177 0
69 461 301 0
-475 462 -111 0
-350 -413 -369 0
168 -166 -116 0
292 -282 40 0
-75 -164 -339 0
143 -487 -22 0
383 364 403 0
385 -248 -86 0
-345 -425 158 0
-38 -497 -149 0
122 -457 -302 0
-361 -396 -321 0
405 -304 307 0
-68 -86 -53 0
-392 -347 -4 0
-152 -46 -401 0
-7 -192 -163 0
83 -349 -258 0
-150 -397 -362 0
187 146 -414 0
-492 186 302 0
-375 213 -67 0
127 -82 91 0
489 101 -247 0
-436 -450 -404 0
-147 -374 391 0
-119 87 473 0
-405 229 10 0
-133 41 -215 0
16 124 33 0
-9 -296 253 0
240 -16 111 0
353 3 440 0
-70 -46 -414 0
438 -196 208 0
-262 -460 -443 0
-304 491 -367 0
-236 206 -122 0
441 -307 386 0
400 -342 -254 0
-169 355 416 0
242 -244 245 0
-96 191 -243 0
94 -54 475 0
-78 197 92 0
459 -377 386 0
-159 -273 -67 0
440 -316 361 0
-455 -493 30 0
-271 18 435 0
-30 494 -429 0
-126 -15 -292 0
-5 -189 125 0
273 -433 156 0
88 -12 262 0
-211 356 66 0
435 -236 383 0
442 286 170 0
-10 347 290 0
148 467 -267 0
230 77 -185 0
-59 17 197 0
-91 234 333 0
-217 -152 462 0
-33 -214 -194 0
44 -157 443 0
-191 19 287 0
138 498 -209 0
-431 49 408 0
374 -349 -411 0
165 373 445 0
-42 206 194 0
326 -482 190 0
206 413 -357 0
-256 349 66 0
72 -92 462 0
165 455 334 0
460 112 -331 0
-87 -323 -33 0
-54 -302 432 0
14 214 492 0
-441 126 107 0
-231 66 -128 0
-247 -106 -132 0
358 100 213 0
491 -48 57 0
37 -244 471 0
-52 -368 -430 0
314 100 -116 0
478 -289 453 0
-73 454 48 0
443 -200 397 0
-218 499 -334 0
-78 207 -277 0
-348 78 161 0
-97 259 -445 0
-183 -73 434 0
14 -401 -216 0
-196 -272 -428 0
125 -184 426 0
-341 435 -295 0
-270 -384 -500 0
-313 261 198 0
-139 -325 108 0
-113 253 149 0
-126 -422 -363 0
57 238 -29 0
383 -71 255 0
82 58 187 0
168 360 -74 0
7 -28 -275 0
-89 -307 97 0
-241 -309 36 0
176 83 -383 0
100 404 167 0
-196 -257 201 0
47 -357 -51 0
-479 -100 -312 0
107 409 -396 0
-381 217 -144 0
341 242 427 0
-338 -297 -185 0
54 -400 -372 0
286 15 17 0
-60 493 -265 0
-202 -105 354 0
-19 -93 391 0
-430 -184 -299 0
-219 8 -431 0
253 474 489 0
-454 -421 -56 0
319 -81 -267 0
-386 -282 119 0
140 143 -162 0
-469 -76 390 0
-144 227 242 0
-390 2 -428 0
175 68 -289 0
-332 87 192 0
-187 77 -281 0
-64 -129 349 0
414 -103 -294 0
343 446 -280 0
438 -197 -426 0
121 156 -74 0
-331 -495 -361 0
-252 -413 -36 0
-178 396 294 0
-445 -269 499 0
-99 -235 -327 0
-195 -202 -234 0
-53 412 -437 0
-222 306 -344 0
-177 -463 66 0
200 67 -45 0
224 494 -130 0
119 -370 -274 0
202 137 246 0
226 90 251 0
-386 242 -479 0
-389 -358 -149 0
344 99 182 0
-190 -315 -147 0
-398 -378 82 0
491 -411 -249 0
483 -154 172 0
-220 373 336 0
-217 302 -354 0
-235 295 -159 0
273 415 366 0
491 200 265 0
213 114 -268 0
336 332 403 0
-263 403 -77 0
96 457 156 0
-92 -115 412 0
-185 404 -172 0
2 -179 -313 0
150 -118 -97 0
217 383 260 0
-162 339 -403 0
-56 -254 -47 0
464 -89 -405 0
431 228 -497 0
300 -262 496 0
-190 122 -267 0
327 34 -32 0
450 257 -443 0
-130 -186 418 0
-414 -368 -338 0
195 416 -44 0
-396 225 -286 0
-235 -357 -337 0
-320 263 -331 0
74 -46 -283 0
351 -492 258 0
-342 235 -255 0
193 453 399 0
459 36 -479 0
389 47 413 0
444 -285 -279 0
188 -256 251 0
470 -453 -136 0
253 68 -381 0
279 -448 324 0
-228 346 -499 0
-185 -62 258 0
415 31 422 0
94 -107 -476 0
468 -166 -422 0
11 -401 6 0
115 419 -110 0
226 326 425 0
423 343 42 0
262 -164 -456 0
-196 -63 -302 0
-1 193 311 0
-343 44 14 0
-76 -460 -484 0
60 286 -364 0
151 463 -487 0
-360 -101 -312 0
482 384 399 0
-221 -210 303 0
-230 -14 -488 0
107 -1 -52 0
358 -102 -20 0
-1 472 -92 0
-180 -64 212 0
162 -439 177 0
345 42 425 0
218 -307 -398 0
-187 229 371 0
257 -211 -369 0
266 455 -237 0
-120 -369 -158 0
-142 199 315 0
142 -289 -250 0
-281 68 -412 0
-392 109 323 0
-306 17 219 0
-189 473 -172 0
353 -3 -43 0
-41 181 57 0
54 -435 273 0
320 -171 261 0
27 64 194 0
54 -34 -282 0
79 166 228 0
126 438 -497 0
-8 231 379 0
-293 299 -156 0
-7 389 -465 0
-298 233 -274 0
344 -448 468 0
386 -336 255 0
10 229 -310 0
84 88 -115 0
178 -438 -313 0
-113 268 161 0
131 473 -111 0
86 336 371 0
-314 363 459 0
396 248 277 0
-383 340 -175 0
-456 -123 -475 0
-484 70 410 0
-492 -371 92 0
-160 146 -229 0
359 -227 89 0
101 -172 -415 0
-358 412 -153 0
210 276 -89 0
-63 207 2 0
125 302 459 0
72 -259 -125 0
-425 346 -182 0
-33 -170 434 0
-89 469 481 0
-314 -474 -85 0
472 -499 470 0
-177 -240 -357 0
194 499 -17 0
316 242 -461 0
242 -61 168 0
3 168 -151 0
1 -352 364 0
-498 481 33 0
-413 103 -148 0
-63 -406 -232 0
-17 491 -212 0
-218 296 -495 0
-269 -259 338 0
292 10 -420 0
-484 425 -99 0
-303 83 346 0
56 66 365 0
-313 220 497 0
-4 -104 135 0
99 -493 255 0
-481 436 -376 0
270 428 283 0
354 491 11 0
426 -459 -359 0
286 -208 144 0
20 358 427 0
-292 492 -360 0
455 -290 -328 0
-24 65 -113 0
-241 -432 295 0
176 476 23 0
303 -277 -116 0
269 95 -146 0
356 -139 10 0
-336 -269 -189 0
-354 310 480 0
-370 178 149 0
-97 278 -281 0
-169 468 196 0
-205 -423 -277 0
-245 -494 -437 0
345 418 456 0
211 -301 70 0
235 244 -110 0
-148 47 164 0
-380 435 -439 0
451 -120 141 0
-265 109 -180 0
-377 115 -481 0
-240 -329 -484 0
-425 -169 -174 0
457 -425 286 0
-100 260 318 0
35 74 -288 0
-366 447 -125 0
-179 -52 -121 0
-82 -333 325 0
-120 194 161 0
-116 -384 -491 0
-224 -218 119 0
-120 -176 435 0
310 191 246 0
266 67 134 0
-11 301 482 0
-246 209 182 0
339 204 421 0
156 302 389 0
-218 -272 224 0
429 14 411 0
386 316 404 0
271 -22 -479 0
-268 232 494 0
-461 -274 -294 0
-70 -363 -58 0
-475 430 -1 0
82 419 399 0
-11 410 -500 0
310 -260 460 0
-119 392 183 0
-340 -169 -369 0
227 293 54 0
67 214 355 0
-364 404 -457 0
159 -397 117 0
-404 -10 189 0
-254 157 -475 0
478 114 -136 0
-178 -230 -258 0
413 -34 385 0
194 -119 -66 0
48 435 296 0
-230 178 -228 0
444 -4 -52 0
17 5 -299 0
371 -141 461 0
435 39 234 0
-52 128 -238 0
183 -376 -488 0
81 -405 -416 0
444 464 24 0
458 345 -270 0
249 -304 -190 0
28 -45 9 0
322 -76 492 0
-267 262 113 0
29 189 -142 0
216 -137 389 0
-83 -160 151 0
29 -67 -219 0
54 -204 -12 0
259 -143 -140 0
-308 -49 -31 0
430 47 433 0
317 377 151 0
463 -128 3 0
-64 81 -477 0
-439 207 354 0
-97 -325 -132 0
-202 91 378 0
217 237 -66 0
286 156 483 0
20 309 406 0
-158 -455 -486 0
-133 210 -212 0
175 -354 -292 0
395 122 263 0
107 309 19 0
233 35 -86 0
417 426 382 0
110 -170 -441 0
257 -186 -497 0
465 129 -494 0
292 -478 43 0
-142 -497 -429 0
380 250 284 0
367 -23 -233 0
349 -432 -145 0
243 63 282 0
-167 -130 145 0
-454 -159 251 0
-414 -151 257 0
291 -183 482 0
94 234 190 0
105 -426 -63 0
182 -433 37 0
-141 125 -432 0
-447 292 7 0
-98 -144 407 0
-1 267 313 0
-365 -85 398 0
-410 -112 80 0
-165 139 402 0
-14 3 358 0
-360 385 158 0
-392 -228 -311 0
88 86 164 0
-43 -300 455 0
425 241 -393 0
409 207 249 0
445 90 -459 0
165 215 -357 0
-65 375 -108 0
327 -105 -23 0
133 391 176 0
70 299 332 0
-104 -495 472 0
336 439 -75 0
-381 -497 279 0
473 -194 188 0
-271 449 331 0
127 162 -108 0
484 -405 451 0
-246 -129 135 0
-346 -461 -350 0
463 254 99 0
-22 -416 333 0
323 470 -359 0
-222 -200 375 0
-209 -21 205 0
275 253 498 0
-228 -338 407 0
28 245 -283 0
74 -461 -153 0
130 -434 65 0
124 282 -366 0
-52 -389 -334 0
231 -133 130 0
103 -185 69 0
129 410 -11 0
333 252 390 0
312 250 -223 0
-432 414 377 0
446 -65 -470 0
-214 -117 -307 0
-436 -34 59 0
-281 155 -108 0
-287 192 -469 0
119 -133 97 0
135 64 73 0
-188 -297 -3 0
484 -271 -207 0
-187 125 117 0
319 -217 -243 0
259 -395 -399 0
-201 139 -397 0
-92 -278 275 0
290 274 88 0
-240 84 -404 0
-371 61 137 0
-447 -300 177 0
-275 -210 -389 0
34 -490 -95 0
-25 86 -244 0
429 424 -91 0
-98 411 -35 0
363 103 -117 0
-359 -309 94 0
18 -84 -23 0
96 -427 -269 0
478 -317 -177 0
-367 -355 -497 0
56 221 293 0
362 73 455 0
-425 -169 297 0
-267 -22 -190 0
-39 -423 162 0
-250 168 401 0
115 -253 -198 0
-130 -412 -257 0
204 -195 -129 0
-398 -377 330 0
222 -114 396 0
136 99 -215 0
94 472 -69 0
-52 324 -22 0
69 -184 -6 0
-257 -207 -181 0
-327 -116 -154 0
-30 -377 270 0
-372 -45 141 0
-35 -268 59 0
-298 -261 479 0
212 -473 150 0
-336 -112 354 0
41 490 -76 0
-3 -117 -375 0
138 -428 209 0
254 282 283 0
-303 -139 274 0
386 164 203 0
255 313 435 0
326 323 -306 0
226 -432 359 0
-205 194 424 0
-52 342 202 0
49 474 -317 0
388 104 170 0
52 -290 143 0
166 216 41 0
-440 476 -50 0
42 -219 -415 0
410 -479 130 0
12 225 320 0
227 -65 -157 0
-124 83 -151 0
306 205 -236 0
-361 218 247 0
-216 484 -348 0
242 -401 479 0
102 -214 207 0
436 154 430 0
-222 157 110 0
60 -461 -198 0
29 378 -177 0
-341 58 -75 0
-207 -363 -71 0
-3 33 247 0
-295 -333 -444 0
-298 126 121 0
271 -200 -289 0
-5 392 -287 0
-84 71 -274 0
120 212 393 0
-226 56 -3 0
-216 88 150 0
-225 -417 444 0
176 -316 -107 0
-471 23 -96 0
-213 -373 -108 0
-106 56 -409 0
89 189 -79 0
21 172 -383 0
139 296 468 0
314 -304 -230 0
-322 -243 -172 0
87 -321 -266 0
-280 383 -278 0
188 67 -124 0
-26 163 436 0
-51 458 -309 0
-390 -393 -139 0
369 356 182 0
-326 360 -129 0
-251 -193 -495 0
-112 354 -111 0
358 -5 261 0
204 -268 234 0
65 355 -26 0
-464 -263 429 0
-186 355 -415 0
-488 -484 400 0
440 492 -411 0
381 -265 -213 0
403 40 -356 0
183 -290 402 0
154 -430 14 0
335 31 -217 0
-373 284 127 0
101 -46 454 0
-351 -304 80 0
-361 393 256 0
-385 213 -400 0
-17 44 -131 0
170 -131 155 0
433 132 176 0
202 -146 385 0
337 -103 -406 0
203 455 18 0
473 472 3 0
-395 155 -499 0
239 434 -195 0
-183 412 -101 0
-282 -366 180 0
184 308 -246 0
409 337 -483 0
-64 353 -144 0
275 500 -252 0
301 306 -56 0
-404 442 458 0
127 -442 -321 0
63 -430 -354 0
194 -486 -268 0
138 156 -268 0
424 -294 -126 0
-261 -430 464 0
233 196 464 0
215 402 80 0
-198 70 -169 0
35 -268 95 0
90 -344 -123 0
-284 -241 355 0
33 370 -280 0
355 406 -487 0
364 -247 496 0
-151 -496 -272 0
-499 -25 333 0
-16 -454 -54 0
-253 -323 -457 0
-219 -342 52 0
337 -264 -274 0
-295 65 -433 0
451 -199 498 0
-162 -16 152 0
-230 345 -329 0
-17 302 -350 0
-165 -282 -269 0
-381 105 -93 0
65 271 -417 0
-155 -148 87 0
235 418 -98 0
-140 266 442 0
387 -136 9 0
-20 164 -465 0
121 460 58 0
-281 348 275 0
225 -498 444 0
-392 352 40 0
-348 -474 188 0
412 -204 137 0
388 103 -325 0
182 -214 -498 0
334 -170 -19 0
194 -21 469 0
47 -410 306 0
-456 201 160 0
304 -174 -200 0
-279 369 -411 0
155 -436 367 0
246 -82 -10 0
-249 -294 -65 0
58 -184 449 0
-9 -25 -434 0
-230 -172 482 0
45 134 72 0
-196 262 -193 0
175 45 182 0
364 181 -453 0
-26 304 346 0
-229 -251 474 0
-438 -52 -356 0
500 441 -372 0
112 244 -350 0
341 -59 306 0
-239 -33 259 0
-103 -114 -321 0
-144 240 62 0
-412 -384 -459 0
-174 -456 -385 0
-473 304 75 0
-294 -430 -302 0
-206 -434 240 0
-6 419 444 0
227 166 -37 0
-129 176 173 0
-466 451 -201 0
-9 -188 396 0
-207 -172 -120 0
-294 -292 -253 0
424 187 209 0
-103 -3 -406 0
-497 -225 24 0
14 353 -302 0
-63 -243 -336 0
78 -437 -145 0
57 293 -424 0
296 252 194 0
-358 -433 36 0
-36 -231 396 0
-264 -26 -470 0
479 163 131 0
-428 -248 81 0
-448 266 -353 0
158 189 186 0
343 -352 443 0
-297 357 -50 0
180 219 -498 0
-367 180 -187 0
-399 448 -327 0
281 72 114 0
222 -33 -107 0
-115 467 -302 0
-451 266 434 0
-400 44 27 0
-242 227 -123 0
123 330 262 0
-265 -308 424 0
-11 346 76 0
-104 76 -123 0
364 -247 384 0
100 -399 358 0
-7 -267 248 0
-53 -481 -149 0
488 181 254 0
150 361 -252 0
294 -195 180 0
-283 396 -484 0
-213 -363 -387 0
403 154 50 0
383 352 428 0
-222 -108 -369 0
254 -52 -103 0
-416 342 214 0
-102 89 445 0
157 427 -12 0
-218 367 -143 0
489 67 -44 0
217 -164 249 0
-308 234 -415 0
109 275 -412 0
-425 -103 473 0
409 17 -246 0
430 319 366 0
45 250 86 0
-438 -394 -416 0
-481 -181 412 0
254 270 -397 0
108 166 -86 0
-239 -310 476 0
72 111 -498 0
-241 35 298 0
405 -459 -471 0
411 -106 -93 0
180 -215 444 0
-261 93 271 0
69 56 -179 0
-256 409 411 0
-299 -104 260 0
105 -479 -324 0
-332 -63 -146 0
-238 390 163 0
477 48 321 0
-169 444 291 0
213 481 27 0
187 -284 287 0
-495 344 -217 0
-226 -353 410 0
-424 269 404 0
382 16 -166 0
-385 -192 -51 0
-270 -205 -191 0
420 -178 -435 0
-130 -124 -233 0
128 385 320 0
-443 100 -474 0
477 -450 301 0
-68 -16 306 0
231 -389 -226 0
133 115 110 0
-108 -163 -466 0
-148 489 -202 0
-200 178 -203 0
421 -353 -230 0
-95 233 -358 0
328 488 335 0
-363 31 -5 0
-71 256 144 0
-332 -498 244 0
159 44 -389 0
458 48 295 0
259 -270 283 0
423 -216 341 0
-28 450 -480 0
115 450 -267 0
131 -443 -343 0
-215 499 222 0
384 -111 -164 0
-200 -400 -373 0
-373 -136 -374 0
385 217 267 0
-428 -385 482 0
336 383 485 0
-17 371 179 0
205 -229 -167 0
-39 274 291 0
178 -156 237 0
306 -379 -375 0
-175 -439 170 0
-414 -455 164 0
-80 224 -426 0
323 -35 440 0
432 -278 470 0
-322 -398 489 0
-317 -275 -185 0
-115 104 -12 0
445 475 -337 0
-499 -84 -67 0
-192 -300 267 0
251 334 -140 0
478 -364 106 0
-389 -411 -364 0
260 79 -196 0
448 86 79 0
269 239 -406 0
-39 288 -491 0
255 135 -383 0
266 -97 283 0
-323 311 368 0
-125 303 324 0
229 -112 470 0
-412 -33 -441 0
-473 -358 303 0
69 7 234 0
-320 399 -264 0
-455 -359 -274 0
-399 370 -401 0
-182 199 -197 0
-252 140 -55 0
133 270 -470 0
33 -66 -440 0
464 352 164 0
228 109 56 0
-370 499 -451 0
-314 67 204 0
279 76 191 0
453 468 111 0
-479 -448 -108 0
348 -382 184 0
411 -379 -93 0
226 263 -380 0
-364 234 120 0
160 -221 490 0
-357 431 -229 0
309 18 274 0
-222 -287 245 0
211 207 -118 0
