p cnf 500 1350
87 -83 -25 0
236 197 -190 0
-283 459 -370 0
-383 133 89 0
-428 -177 127 0
146 -480 -270 0
-442 458 -381 0
70 -414 -500 0
-141 81 -287 0
261 459 150 0
-477 212 -225 0
387 154 247 0
-302 327 -500 0
-273 390 406 0
-41 35 -293 0
20 210 319 0
-104 -488 258 0
-197 427 -131 0
-233 124 -331 0
49 498 -98 0
119 256 197 0
-2 136 287 0
254 391 94 0
-320 -277 164 0
-106 -11 101 0
195 213 -333 0
68 -317 143 0
-175 392 -180 0
-313 78 -34 0
-310 -265 240 0
-415 425 225 0
50 384 326 0
-367 -268 -11 0
496 -421 403 0
320 196 211 0
-269 488 -255 0
-293 141 -225 0
-337 414 39 0
-38 -317 19 0
389 -164 465 0
475 -80 -90 0
180 369 -30 0
-451 -392 143 0
-354 -420 438 0
441 130 310 0
341 -339 -239 0
-410 -382 -156 0
-360 -106 250 0
-466 -139 89 0
403 23 -148 0
-267 -241 355 0
345 -96 -335 0
146 255 96 0
-12 124 -45 0
167 114 -491 0
-321 -313 -85 0
-218 299 -491 0
-160 -80 24 0
-88 -490 -222 0
-336 -413 -53 0
142 33 -224 0
-317 -146 307 0
-320 24 -486 0
-157 -369 154 0
33 -369 210 0
-187 -160 98 0
58 -176 -391 0
-266 -103 236 0
233 -99 290 0
433 -246 -141 0
461 -256 363 0
-98 461 139 0
166 -135 36 0
-165 -124 -222 0
-424 343 95 0
-302 41 320 0
236 -349 -245 0
380 -465 367 0
268 -411 370 0
157 207 -52 0
137 -173 441 0
313 358 -172 0
32 -285 -330 0
66 -387 100 0
139 98 -260 0
291 345 324 0
-162 -338 198 0
-127 366 183 0
115 447 -459 0
-20 52 483 0
350 354 -335 0
202 -322 251 0
-109 76 -289 0
375 -230 266 0
-500 40 405 0
62 161 -49 0
345 -344 41 0
-378 -379 402 0
-399 193 -112 0
391 -88 486 0
480 -282 104 0
-26 -16 492 0
-358 407 224 0
-289 391 314 0
243 -41 -57 0
380 33 -51 0
480 -23 -410 0
126 40 -308 0
-307 -436 223 0
415 -261 -151 0
-253 -334 -211 0
215 -112 -193 0
-158 -389 402 0
-38 440 -97 0
152 -429 34 0
1 369 205 0
313 88 416 0
280 106 370 0
146 129 -6 0
-405 -150 481 0
11 -36 -348 0
-182 436 -221 0
344 -371 161 0
-134 -271 -259 0
167 197 -183 0
-265 -403 49 0
-494 209 -274 0
361 453 408 0
270 268 -328 0
-184 -331 212 0
170 -338 -79 0
186 332 -125 0
-185 -451 73 0
115 293 311 0
14 234 290 0
-332 177 342 0
491 -133 406 0
-321 -202 -225 0
-125 -21 61 0
298 -43 378 0
-291 486 -481 0
-140 -317 442 0
-250 447 210 0
-1 -264 -175 0
116 15 312 0
-398 -373 -404 0
179 -265 -124 0
-446 -484 319 0
277 -213 97 0
-35 -429 -406 0
-354 237 288 0
57 488 -283 0
-377 348 427 0
24 76 496 0
-10 460 273 0
152 -66 433 0
212 -97 369 0
-105 431 -476 0
-308 -85 91 0
-421 268 -129 0
123 -192 -82 0
56 -468 -129 0
368 -80 -162 0
-137 -55 -37 0
-485 177 -421 0
97 -274 -392 0
-472 -223 112 0
-128 266 -82 0
-141 -401 -27 0
78 280 -177 0
-371 197 -266 0
372 -453 -94 0
-254 23 10 0
124 -178 -264 0
-301 -48 358 0
218 457 -34 0
398 -58 -418 0
-241 -127 30 0
71 38 -139 0
446 7 281 0
-455 -147 45 0
338 -20 -410 0
377 -256 -373 0
139 122 -451 0
-247 -328 38 0
444 -455 281 0
-255 -84 229 0
-380 317 -61 0
-252 335 -248 0
495 -284 89 0
290 -347 -475 0
-438 146 48 0
-78 113 259 0
127 85 -178 0
279 -169 471 0
-219 193 -310 0
-119 174 486 0
369 -121 -56 0
18 -33 -192 0
-471 427 -360 0
-497 491 252 0
-458 -71 486 0
399 -416 173 0
414 -281 -345 0
402 -68 250 0
-429 -155 192 0
488 116 359 0
-382 -287 322 0
453 492 430 0
334 17 167 0
119 -186 340 0
211 324 -417 0
215 -478 -210 0
-66 -34 108 0
-131 179 -279 0
296 41 -207 0
-21 98 153 0
-338 -139 302 0
499 -185 -305 0
-442 -232 307 0
440 9 -195 0
-58 372 168 0
143 273 323 0
337 -230 -350 0
179 25 246 0
116 334 -337 0
462 310 105 0
179 -72 304 0
-137 216 317 0
172 258 -44 0
354 477 67 0
-193 472 -183 0
-9 -499 220 0
-332 -253 -420 0
-247 47 -206 0
-110 302 -331 0
34 -74 150 0
-207 204 199 0
-87 457 -245 0
368 13 330 0
37 -146 -326 0
467 301 16 0
377 217 -69 0
-273 -380 -452 0
-99 491 46 0
-274 264 45 0
-375 -186 245 0
1 109 -93 0
414 451 287 0
192 62 -490 0
197 -451 206 0
-329 -335 325 0
-23 -379 186 0
75 -272 108 0
420 -16 -243 0
-282 109 -341 0
20 6 53 0
352 423 -396 0
179 476 434 0
-245 -148 -51 0
-313 -11 -471 0
-341 282 303 0
-463 -451 474 0
85 287 -198 0
130 -264 31 0
318 -439 102 0
39 -130 -434 0
272 447 -5 0
-469 -387 -32 0
136 -176 -199 0
-55 -54 360 0
363 133 438 0
-339 -350 -496 0
65 492 167 0
-488 87 260 0
25 297 -94 0
-409 222 -454 0
-215 -281 207 0
-56 95 292 0
-272 -233 -104 0
-19 144 -444 0
-471 465 -463 0
-198 -88 -144 0
294 233 147 0
130 424 262 0
423 -355 -234 0
344 434 -186 0
-244 -395 -285 0
59 -305 187 0
-307 -275 29 0
488 493 -260 0
187 -249 440 0
-304 -301 -451 0
-74 -63 -292 0
-82 123 35 0
314 -387 -105 0
465 5 275 0
-63 347 410 0
437 328 32 0
-424 -233 433 0
256 440 428 0
-390 -344 -122 0
142 -108 308 0
472 258 16 0
-201 -331 -288 0
184 69 -390 0
-334 -342 65 0
70 228 188 0
-174 -462 -454 0
-414 462 42 0
-391 -407 39 0
-144 212 -351 0
396 190 392 0
-40 421 -135 0
-307 -282 72 0
-168 304 -431 0
-243 277 -314 0
-430 -12 -9 0
384 -389 -93 0
-354 136 268 0
-128 350 430 0
-104 -313 357 0
58 223 33 0
296 -276 -110 0
283 -346 433 0
-72 23 349 0
-352 -222 -170 0
-430 289 62 0
84 -401 -123 0
-223 191 303 0
228 57 226 0
200 322 -413 0
-387 -252 50 0
264 -458 297 0
-228 345 -324 0
29 -401 498 0
183 294 -35 0
-330 332 -467 0
81 189 481 0
-74 -210 101 0
453 -67 -11 0
207 -101 472 0
-28 142 138 0
345 -145 5 0
227 437 -111 0
350 81 -148 0
321 -333 -439 0
190 -319 -376 0
29 285 -261 0
-342 14 -293 0
466 104 426 0
-352 229 -291 0
-404 -498 -447 0
302 -63 -414 0
418 99 -33 0
-355 289 29 0
-229 420 73 0
38 132 -342 0
365 232 65 0
-450 -96 161 0
382 -276 -369 0
267 -99 167 0
-84 215 187 0
-338 184 -5 0
298 71 -322 0
498 41 -390 0
216 -211 160 0
-266 -407 268 0
34 -409 -316 0
-226 -383 49 0
98 351 -332 0
194 90 -452 0
383 -255 313 0
-180 225 212 0
370 -318 437 0
157 -163 -486 0
-489 -327 226 0
186 210 372 0
-120 -67 277 0
-282 -102 392 0
259 481 210 0
193 467 -386 0
-245 -463 -360 0
-254 19 -92 0
-14 -159 241 0
-163 427 -345 0
-259 -123 391 0
202 -297 -490 0
-111 363 -269 0
-239 13 73 0
-442 450 -87 0
379 209 351 0
173 -84 -398 0
281 9 -38 0
-307 -58 -186 0
-458 -276 -23 0
-412 -231 -382 0
479 -248 -101 0
341 198 -51 0
-56 134 351 0
490 482 -304 0
403 441 -232 0
96 500 -435 0
-492 496 140 0
-425 381 -274 0
-486 -80 118 0
136 -132 298 0
-74 -58 -450 0
-353 348 -401 0
-219 444 -221 0
42 195 343 0
-121 -150 -367 0
179 -333 -343 0
177 -458 34 0
217 420 -240 0
-240 -272 338 0
444 -163 -134 0
-277 439 249 0
-241 -357 -169 0
-327 -177 -364 0
218 404 410 0
481 -410 -276 0
-191 -443 226 0
146 -77 -65 0
386 -319 -120 0
464 64 287 0
-317 -194 -319 0
403 -178 381 0
64 328 -74 0
236 -337 -465 0
-315 146 -496 0
-405 227 -415 0
-250 462 -150 0
-182 331 -215 0
-18 227 385 0
-11 -488 411 0
-416 496 -275 0
-430 198 179 0
137 87 218 0
9 287 -438 0
44 50 -465 0
-293 123 -299 0
-228 -207 85 0
191 390 -345 0
494 344 193 0
-425 -319 -293 0
-422 59 445 0
311 -171 -66 0
-477 -4 87 0
-2 -191 -112 0
-476 -93 -472 0
-184 47 157 0
-15 -411 36 0
-267 7 499 0
-245 151 -188 0
177 -155 297 0
259 399 144 0
212 296 204 0
-424 -105 283 0
-119 363 288 0
-461 238 82 0
27 -196 219 0
-441 96 285 0
373 -427 -182 0
-500 -430 136 0
-366 423 -416 0
-416 52 380 0
384 343 -131 0
-194 250 25 0
359 409 -239 0
372 433 187 0
111 270 -246 0
338 -337 187 0
-174 472 -240 0
-7 262 -453 0
-76 235 -289 0
154 233 -306 0
196 -289 111 0
-226 -168 -328 0
392 -444 238 0
-382 -289 -252 0
-264 240 -303 0
434 36 -306 0
411 -297 -255 0
7 -19 300 0
-53 19 122 0
-323 257 -31 0
-30 423 341 0
-56 177 259 0
303 341 364 0
85 239 218 0
-266 205 252 0
374 295 -305 0
-428 -79 323 0
-486 -228 289 0
-105 439 17 0
114 -237 -179 0
-70 -180 401 0
381 103 -278 0
267 -439 -251 0
-80 -148 274 0
419 -289 436 0
99 464 -471 0
440 248 -96 0
-251 108 -196 0
122 -434 302 0
-333 119 -324 0
-15 118 69 0
-64 -412 -187 0
-395 -88 -431 0
-252 -20 188 0
-397 360 -452 0
-459 202 97 0
40 -85 -398 0
-478 158 -381 0
-170 -79 -73 0
-330 381 -188 0
-267 -8 187 0
-496 472 220 0
189 213 335 0
-474 -64 -276 0
-108 -335 -345 0
-460 -425 -46 0
32 -138 379 0
272 -298 -99 0
-232 34 84 0
438 -231 -383 0
-449 2 49 0
471 -18 8 0
97 -150 -226 0
363 -217 246 0
-342 -20 -422 0
229 -174 -292 0
-359 44 495 0
405 136 396 0
-144 -450 -195 0
190 262 -223 0
-175 440 307 0
291 366 -9 0
61 247 211 0
456 -424 292 0
158 454 26 0
-447 500 -39 0
182 367 274 0
-398 23 163 0
-361 -42 171 0
214 411 479 0
-28 -32 384 0
-314 -402 441 0
62 222 -185 0
131 -415 -285 0
25 -57 275 0
399 -42 147 0
150 283 -161 0
57 -322 274 0
344 -49 166 0
-189 -259 188 0
405 148 -445 0
-133 118 -272 0
56 -224 471 0
-373 401 -269 0
460 192 -197 0
126 194 200 0
28 -78 -292 0
453 -138 -262 0
-178 -476 -235 0
-296 -148 198 0
81 484 187 0
-342 49 457 0
-413 403 397 0
482 -449 420 0
-116 67 -16 0
-355 277 -50 0
-166 -155 -440 0
18 236 394 0
319 -306 -447 0
30 -253 189 0
-134 -404 -378 0
-116 377 -238 0
194 197 462 0
54 -42 -182 0
-343 235 -454 0
313 -7 -303 0
418 -230 108 0
83 158 -458 0
250 -212 -111 0
73 317 -18 0
240 -318 -89 0
7 191 196 0
333 -183 -278 0
402 99 263 0
-214 -454 -109 0
-494 459 -94 0
273 -265 216 0
-327 -118 -26 0
-378 120 -68 0
480 322 170 0
-147 -18 426 0
459 -447 481 0
-293 -397 441 0
-191 64 473 0
-56 -428 -317 0
385 189 -314 0
-403 123 311 0
-134 -275 -220 0
-273 -145 -497 0
124 350 -166 0
294 89 -125 0
-293 126 86 0
-159 -331 -197 0
-263 221 374 0
273 250 -265 0
374 -259 -124 0
358 177 123 0
-78 377 277 0
-426 330 200 0
390 -398 368 0
257 297 -3 0
103 -195 -478 0
219 -371 273 0
-257 360 -42 0
429 203 70 0
382 293 -203 0
-227 310 241 0
23 258 -430 0
-312 94 166 0
-195 175 -399 0
29 487 -12 0
57 337 135 0
52 288 -476 0
64 393 -272 0
303 -352 115 0
-407 428 54 0
-455 -305 -396 0
-180 177 -258 0
-246 203 165 0
-350 -134 119 0
-146 34 -456 0
48 -182 -149 0
-224 -14 420 0
-9 459 -440 0
-353 -40 -30 0
282 -384 171 0
236 35 -318 0
114 -254 -24 0
-381 416 33 0
-494 -110 175 0
-141 -464 -153 0
-220 -387 36 0
-465 -436 401 0
-430 366 210 0
387 495 411 0
-474 -267 -171 0
117 112 -370 0
-483 179 204 0
496 197 -375 0
72 277 -24 0
19 341 -472 0
-279 -454 258 0
157 7 -161 0
-295 232 -441 0
107 -301 -121 0
-75 328 346 0
-23 381 -132 0
28 -347 -329 0
-496 -498 171 0
-142 99 206 0
-435 -274 -172 0
99 40 -303 0
-211 155 -300 0
-437 -208 273 0
96 -391 -362 0
36 -92 -69 0
36 -328 478 0
24 356 304 0
-195 33 -376 0
144 -245 274 0
-470 100 -489 0
-190 -248 -407 0
-318 101 298 0
386 -20 169 0
425 315 26 0
186 481 32 0
452 70 -279 0
30 -491 -407 0
272 83 199 0
288 -193 372 0
82 -454 297 0
-152 481 7 0
-427 -164 388 0
-411 317 -182 0
465 -117 -72 0
-280 344 -154 0
91 -319 457 0
-472 56 410 0
-417 -463 -167 0
466 -259 -251 0
-36 -253 56 0
245 -295 -151 0
245 -173 268 0
-242 -289 463 0
43 -399 339 0
111 -152 -352 0
226 157 65 0
22 -290 -269 0
-274 418 -82 0
76 177 -497 0
-464 170 -81 0
123 -393 -5 0
92 -288 102 0
89 -87 -285 0
403 -227 -246 0
-31 -289 -141 0
374 -101 -95 0
-3 386 -95 0
165 -180 -314 0
-405 -159 322 0
215 433 -439 0
-90 277 254 0
-106 233 301 0
-420 -289 -366 0
-188 85 -299 0
79 471 -395 0
497 38 338 0
71 -406 -313 0
219 256 -336 0
23 320 334 0
-345 233 -275 0
144 -219 -165 0
-117 357 -19 0
140 -460 -308 0
324 460 443 0
411 -143 204 0
-390 326 236 0
-115 264 318 0
107 470 -264 0
178 -416 110 0
-471 -325 -257 0
428 431 -207 0
-271 -390 -477 0
-369 -454 188 0
-368 151 211 0
-160 -336 495 0
253 -240 396 0
-229 467 316 0
-336 99 -476 0
315 131 343 0
213 -391 -129 0
356 -67 263 0
-434 -440 59 0
181 130 323 0
218 452 -151 0
-217 232 -175 0
-426 -228 443 0
-431 313 -87 0
-174 -284 36 0
-204 310 -54 0
239 -53 236 0
-142 -402 -325 0
376 457 409 0
485 -263 39 0
-28 -97 346 0
15 472 282 0
447 -104 -124 0
-116 168 -319 0
-265 224 -498 0
12 -305 -358 0
367 41 -246 0
408 438 330 0
-418 -29 109 0
-14 168 394 0
-352 -192 249 0
393 239 280 0
-106 -353 431 0
8 -37 -308 0
-251 302 248 0
486 158 -390 0
392 414 -310 0
424 268 -495 0
27 310 210 0
-289 -470 26 0
292 117 -416 0
240 276 224 0
-42 147 464 0
25 -435 19 0
176 377 403 0
-113 -41 -197 0
-145 -99 -301 0
467 -158 170 0
-20 -424 35 0
-390 480 -238 0
-250 153 -166 0
398 -82 452 0
-355 -242 422 0
288 -227 457 0
-131 234 -287 0
332 -471 -225 0
-389 -25 283 0
-191 -255 -449 0
-237 -410 -246 0
119 -48 -424 0
-201 494 -57 0
-76 -295 -262 0
-359 -360 122 0
39 87 463 0
-124 -37 318 0
110 222 289 0
-199 126 -363 0
-420 235 432 0
-80 24 -77 0
193 -38 -374 0
194 286 243 0
-385 -215 54 0
-45 445 -229 0
-183 145 125 0
203 14 -58 0
224 -350 225 0
64 392 286 0
15 480 -86 0
311 463 324 0
289 -86 483 0
55 342 -131 0
90 123 -150 0
-136 -215 285 0
93 -286 223 0
331 -439 88 0
-14 -198 -418 0
304 -382 -221 0
468 -374 442 0
-22 445 68 0
-44 -342 -376 0
485 83 -309 0
-26 -129 96 0
-320 475 -236 0
-481 -321 319 0
-392 -61 -374 0
322 13 -392 0
-24 222 311 0
47 228 300 0
-360 459 -98 0
427 -141 -30 0
-410 183 473 0
240 -175 -257 0
20 -163 -31 0
218 337 156 0
-330 473 5 0
109 -137 462 0
488 26 -339 0
434 73 -254 0
-53 176 -272 0
410 460 326 0
-46 327 18 0
-98 356 262 0
-203 -41 -34 0
-433 377 143 0
-20 373 -297 0
-39 391 -23 0
-146 -299 -27 0
-286 -451 359 0
-174 -124 -206 0
-56 -108 -397 0
309 -217 154 0
-209 -311 78 0
-6 -57 379 0
-485 -83 391 0
-69 131 294 0
-260 397 -497 0
-61 452 -205 0
27 313 -335 0
-192 -323 -462 0
-395 483 -448 0
-319 -402 181 0
-230 127 -422 0
43 -368 -399 0
307 -30 151 0
401 387 -421 0
-94 -451 210 0
-250 127 459 0
-225 -187 -206 0
-63 74 -441 0
124 155 -316 0
129 291 -194 0
459 -352 497 0
128 54 -264 0
251 483 -369 0
269 -263 376 0
463 -2 489 0
310 -248 -167 0
49 -177 -105 0
385 -316 -417 0
-192 -9 -319 0
197 64 -193 0
-409 278 -228 0
-136 -44 33 0
237 248 -26 0
494 -270 -99 0
-196 -237 -38 0
-10 -355 -251 0
-323 312 225 0
420 -178 30 0
376 148 -50 0
13 59 296 0
213 40 356 0
193 174 499 0
-159 477 -118 0
114 417 177 0
275 -174 -291 0
-356 -212 442 0
-30 287 372 0
298 443 -187 0
-451 -358 25 0
387 -364 405 0
-194 -245 -306 0
-295 207 427 0
478 423 -242 0
-100 406 255 0
285 116 103 0
-233 -225 429 0
-425 399 -137 0
-299 -331 -333 0
336 466 40 0
-202 416 -171 0
99 -341 224 0
-291 469 268 0
-337 210 75 0
405 -32 339 0
-51 -240 35 0
499 100 -122 0
-163 458 -24 0
-358 -112 -382 0
107 430 -196 0
-397 365 -179 0
485 -230 163 0
-387 265 -304 0
484 -443 92 0
141 -108 -351 0
330 -159 -242 0
391 -85 471 0
258 181 475 0
-302 -424 377 0
-459 -301 418 0
-63 499 32 0
416 433 -46 0
471 355 -67 0
223 180 78 0
8 372 -118 0
-362 -118 289 0
480 191 471 0
-387 -463 184 0
-52 -128 -43 0
-331 139 157 0
448 296 -304 0
-199 -329 107 0
145 -369 98 0
297 72 403 0
299 -372 365 0
348 233 -393 0
237 -298 264 0
-16 -280 -10 0
-316 -275 -15 0
81 423 -19 0
369 209 -285 0
219 -340 -441 0
418 447 155 0
131 457 -48 0
-193 255 204 0
-457 26 -20 0
220 -207 8 0
-453 -286 -470 0
337 450 159 0
442 -328 149 0
120 51 412 0
24 18 414 0
-192 -498 280 0
-313 304 -145 0
152 120 332 0
220 -205 -398 0
46 58 120 0
416 -54 406 0
-235 338 -21 0
-449 -370 481 0
-29 -409 -181 0
218 365 -349 0
194 265 -289 0
320 -174 -117 0
197 -145 -455 0
14 2 62 0
183 -306 -498 0
90 286 -99 0
-218 299 -9 0
-436 -34 90 0
360 365 4 0
-454 -285 -275 0
324 -388 342 0
362 347 -357 0
84 -490 449 0
-394 -401 -429 0
313 -40 163 0
-462 84 -431 0
86 71 306 0
-212 337 -251 0
72 -320 -442 0
-330 -136 154 0
471 33 -195 0
326 225 -196 0
404 -85 362 0
-15 -220 176 0
319 166 -279 0
302 123 -241 0
-310 469 488 0
-37 -106 15 0
-248 -82 -136 0
39 86 381 0
-301 -35 184 0
-474 -315 496 0
-237 -387 8 0
-343 289 -428 0
-54 -394 -291 0
395 378 -236 0
-253 2 -64 0
302 361 438 0
-155 -345 -407 0
118 27 402 0
-340 -204 127 0
31 44 -242 0
-464 402 -155 0
-385 -453 -10 0
301 -216 205 0
-3 -495 -252 0
69 168 -422 0
73 -389 -283 0
-158 -22 500 0
-119 268 -38 0
-126 208 475 0
-2 123 -10 0
-379 -296 -305 0
59 225 70 0
157 -146 -455 0
-492 366 -160 0
5 -185 -121 0
376 231 197 0
237 -234 -305 0
310 246 184 0
138 -40 -300 0
226 494 -477 0
128 60 -254 0
317 260 313 0
90 235 451 0
-353 -371 323 0
-390 375 -423 0
447 -212 451 0
-310 -217 -196 0
339 287 -475 0
-417 -227 -114 0
451 -94 -389 0
186 -445 335 0
68 349 -42 0
-201 171 471 0
-299 90 -404 0
491 316 9 0
253 -211 -345 0
-140 84 -498 0
26 42 -81 0
223 -140 146 0
-410 343 -445 0
45 110 307 0
3 223 439 0
150 4 -409 0
-28 -39 -161 0
-409 -471 -66 0
-175 86 372 0
454 -500 399 0
171 440 154 0
86 113 16 0
465 -129 475 0
240 -206 356 0
138 -148 -108 0
-129 -383 -338 0
-10 266 -315 0
-104 -78 -213 0
-478 20 -414 0
-448 -162 -126 0
359 -363 447 0
-51 -340 40 0
247 -447 375 0
70 444 405 0
-488 194 -178 0
-206 124 -257 0
-320 -478 -184 0
-500 418 228 0
235 3 442 0
294 282 305 0
-367 263 251 0
397 -487 407 0
220 240 -141 0
258 -298 107 0
318 198 -193 0
-385 202 -351 0
-109 145 202 0
3 37 471 0
83 -25 -241 0
440 189 486 0
222 -345 85 0
230 297 -491 0
342 50 -47 0
410 485 327 0
-439 -171 104 0
-376 -498 -239 0
387 19 155 0
-395 -474 -210 0
-4 370 318 0
172 281 269 0
-146 477 194 0
82 427 -241 0
-171 -143 -10 0
302 -9 -151 0
-400 177 -289 0
-257 -127 -112 0
-145 17 -52 0
160 -355 -11 0
495 234 337 0
-470 -99 -41 0
358 185 -217 0
-91 -20 -147 0
-472 -7 175 0
204 -138 23 0
-152 -139 -371 0
-163 32 310 0
432 265 -397 0
457 -215 75 0
455 493 150 0
-371 109 374 0
231 297 225 0
244 350 -264 0
394 -70 247 0
-29 -2 282 0
-431 -96 -357 0
199 438 -114 0
-68 335 446 0
-193 -250 -407 0
67 285 -18 0
-357 -386 262 0
-315 -263 246 0
-161 196 18 0
143 438 204 0
-448 -263 -29 0
-91 384 470 0
-54 202 -427 0
446 -155 -399 0
-278 181 -416 0
91 -292 -141 0
-62 128 -371 0
-485 -314 -218 0
-259 -24 30 0
223 395 -133 0
321 -480 -343 0
-34 -122 268 0
-150 -477 465 0
-383 227 64 0
417 384 -183 0
114 374 -289 0
-10 -237 330 0
-81 -219 342 0
-419 -377 -388 0
24 -485 328 0
-12 359 372 0
334 -79 366 0
377 -89 440 0
478 477 48 0
-378 -165 -202 0
388 224 10 0
50 418 -65 0
462 -95 57 0
-102 -155 -472 0
-280 395 -471 0
321 -488 -307 0
-296 -215 -420 0
76 -181 38 0
65 -155 -172 0
39 235 -498 0
-30 -396 19 0
138 423 -7 0
-239 133 123 0
103 -466 -500 0
184 -248 485 0
-10 309 72 0
380 46 428 0
-105 -348 288 0
-192 -240 -99 0
-282 -255 -480 0
-130 -239 43 0
-418 101 44 0
69 409 -125 0
-127 -421 489 0
306 320 375 0
-115 344 -109 0
-188 -469 288 0
194 435 -344 0
-86 -252 32 0
257 -461 -277 0
-167 118 -430 0
479 13 -17 0
423 -67 -121 0
246 197 72 0
-45 215 316 0
-151 392 -457 0
-270 -37 -172 0
160 -145 -220 0
-103 284 -34 0
208 -146 104 0
-473 169 258 0
-1 366 200 0
290 -123 85 0
222 -480 461 0
390 350 94 0
-176 -474 -444 0
236 92 -110 0
-265 -21 227 0
406 296 430 0
365 -165 -371 0
-440 142 -69 0
-215 -123 -389 0
-490 -25 122 0
195 133 335 0
-406 -144 269 0
-14 -210 434 0
-18 360 484 0
395 160 -255 0
355 -45 -207 0
-127 285 -69 0
-327 354 -367 0
-403 -94 253 0
238 -1 448 0
-364 414 134 0
385 288 -120 0
307 -38 119 0
-94 -86 -106 0
-423 -393 -379 0
265 55 321 0
-275 -154 463 0
280 316 193 0
69 -480 211 0
-337 -76 -412 0
-472 -270 -9 0
276 -52 325 0
-38 -371 16 0
-264 478 -84 0
405 233 -299 0
-418 -81 -200 0
468 -124 -137 0
173 395 -148 0
-444 233 -113 0
203 443 -11 0
-148 40 298 0
-286 58 483 0
-412 176 -363 0
209 411 -105 0
349 -298 147 0
488 -110 324 0
278 150 -117 0
-165 -190 -239 0
-117 -119 310 0
82 70 -398 0
112 -376 -394 0
295 3 -496 0
-107 -8 32 0
248 -22 37 0
216 -96 -372 0
237 -392 -215 0
250 480 -387 0
-216 209 18 0
264 -244 -309 0
237 -247 322 0
41 161 427 0
-27 232 -107 0
-254 -18 246 0
-122 -62 -115 0
28 -137 313 0
-496 -373 -187 0
412 -464 417 0
-484 270 -28 0
247 409 -144 0
-88 247 152 0
-465 -424 -42 0
-61 26 488 0
178 -498 45 0
227 333 -246 0
-457 16 -427 0
293 432 -153 0
-232 357 -228 0
277 183 210 0
399 101 -102 0
-190 -298 36 0
-307 -350 -22 0
141 -139 76 0
135 -127 -453 0
119 250 -158 0
241 376 45 0
-62 -84 -391 0
-462 -133 307 0
263 -183 -419 0
491 -485 -454 0
-5 213 446 0
97 -369 -122 0
-171 -148 -397 0
-22 477 93 0
-147 -55 361 0
164 -172 242 0
-197 -94 -388 0
304 334 73 0
-385 214 -248 0
177 215 -63 0
325 -415 -25 0
-127 240 -55 0
382 462 -299 0
377 289 462 0
202 -396 190 0
40 82 -272 0
-2 180 98 0
487 59 -374 0
88 -355 204 0
449 -379 21 0
-422 297 428 0
-185 306 -286 0
227 162 65 0
155 315 319 0
-308 -481 -94 0
121 -308 239 0
-182 26 167 0
-48 -42 -92 0
98 156 129 0
335 25 115 0
406 225 -491 0
73 -170 -148 0
306 -253 -229 0
242 -493 486 0
234 -313 -345 0
125 381 181 0
393 -118 233 0
314 -4 -446 0
422 208 233 0
-303 288 21 0
291 436 294 0
212 75 129 0
217 467 -347 0
33 -289 -282 0
-445 120 -378 0
-407 81 -372 0
209 -460 -197 0
286 69 -315 0
