c Modularity-based k-CNF Generator (V2.0). J. Giraldez-Cru and J. Levy
c   value n = 500
c   value m = 1700
c   value k = 3
c   value Q = 0.7
c   value c = 10
c   value seed = 28
p cnf 500 1700
483 479 495 0
-36 48 29 0
-262 279 -268 0
-12 -58 408 0
-112 -442 349 0
299 300 -254 0
346 330 325 0
-80 88 99 0
490 34 -276 0
100 88 68 0
-57 -315 -428 0
-405 -408 438 0
-140 112 120 0
464 473 -480 0
-59 267 -306 0
-168 -178 152 0
268 278 299 0
158 164 191 0
210 225 -234 0
-315 305 -309 0
-18 -415 -382 0
185 -181 153 0
-478 -495 489 0
379 397 384 0
69 -62 -68 0
378 -365 397 0
-333 109 232 0
-434 -430 -420 0
-259 256 -283 0
68 77 -73 0
493 -469 457 0
236 -216 -248 0
-45 17 39 0
217 401 23 0
-28 27 49 0
-176 154 -180 0
-300 -274 -266 0
-433 -443 -413 0
403 406 445 0
-261 284 291 0
-192 -399 24 0
105 136 150 0
417 -439 -419 0
-160 -118 -450 0
-483 -467 484 0
314 -319 337 0
-475 -41 98 0
338 305 -308 0
392 192 328 0
-104 141 127 0
154 161 190 0
329 313 340 0
323 488 407 0
269 297 271 0
-362 -399 -354 0
32 42 -14 0
55 58 100 0
-39 5 -9 0
-132 -108 -129 0
250 -207 -225 0
293 367 186 0
-400 -358 361 0
339 451 443 0
465 481 -477 0
33 45 -49 0
496 479 492 0
227 -213 -202 0
-62 84 91 0
79 -74 64 0
-128 108 -122 0
-498 165 -449 0
-477 487 -500 0
-114 127 -141 0
-24 28 -14 0
284 -431 -487 0
-162 191 -160 0
-474 -480 485 0
421 436 434 0
89 500 251 0
147 123 -101 0
-284 -294 297 0
-337 -348 -339 0
130 -483 395 0
396 -373 395 0
-95 51 87 0
189 -198 179 0
-175 -161 -200 0
-490 491 485 0
-142 -141 137 0
-278 -249 167 0
268 -287 -288 0
-288 -269 299 0
-258 23 74 0
-335 302 -348 0
-435 432 -443 0
412 -140 -304 0
496 475 -467 0
-199 161 -184 0
-406 407 -418 0
-20 13 -18 0
-399 -352 -367 0
255 -271 288 0
467 455 -495 0
20 35 -31 0
-271 -24 115 0
334 301 -336 0
-154 -194 -199 0
288 -268 -285 0
231 -238 -245 0
-177 155 -190 0
-314 -350 342 0
-143 -365 198 0
8 286 448 0
-422 -425 -429 0
-252 -295 280 0
-296 258 277 0
-369 -367 351 0
198 160 154 0
-332 347 342 0
-481 -453 466 0
92 64 68 0
-343 319 -314 0
-374 -1 403 0
462 -460 489 0
135 112 -124 0
-178 192 -154 0
-118 119 106 0
-24 41 -32 0
-194 -75 265 0
-369 170 444 0
123 -136 119 0
-36 -41 -26 0
151 -153 187 0
360 -388 394 0
172 431 -498 0
-491 486 -463 0
-81 87 94 0
-369 382 383 0
-269 253 284 0
96 315 -187 0
-267 -272 -276 0
-161 -181 -178 0
-130 295 449 0
319 -346 347 0
427 -413 -405 0
-469 480 484 0
257 -282 266 0
-196 -199 -180 0
261 459 401 0
349 336 -348 0
-71 -154 -132 0
479 462 -493 0
-139 142 133 0
-98 -79 -90 0
341 -132 -263 0
147 -298 -58 0
116 414 354 0
196 182 -173 0
403 438 -439 0
487 457 470 0
-46 442 60 0
439 -447 420 0
183 -200 -161 0
244 210 243 0
62 -498 -109 0
-329 321 330 0
139 -120 113 0
382 375 -381 0
-193 151 -170 0
464 460 -472 0
-21 -285 -187 0
-207 219 -241 0
-312 334 -336 0
-210 -212 -229 0
331 306 344 0
-403 414 -411 0
-417 448 -425 0
292 263 256 0
165 -195 167 0
-381 361 392 0
-248 -242 -250 0
170 -196 -197 0
137 -148 -120 0
-167 -313 -238 0
334 -318 328 0
488 -453 -461 0
54 85 94 0
191 185 -163 0
-234 -238 243 0
-255 277 -257 0
26 10 24 0
-326 -336 -330 0
-14 -22 29 0
213 203 -227 0
-313 319 -325 0
282 261 -283 0
-145 -114 -102 0
-426 481 225 0
298 296 264 0
366 391 393 0
111 129 109 0
496 -414 116 0
-165 161 -182 0
233 447 -55 0
-170 -184 -196 0
-356 354 -396 0
-166 -175 -163 0
37 -384 109 0
305 -332 317 0
263 -300 -260 0
-97 -233 -172 0
497 466 498 0
460 -220 132 0
479 461 -485 0
332 328 -340 0
-308 307 333 0
-115 146 -105 0
-70 -94 65 0
459 -461 -491 0
-221 -218 217 0
-493 -488 459 0
147 143 129 0
284 296 263 0
55 -60 87 0
8 -27 -23 0
429 -421 -436 0
-417 -437 418 0
-119 2 -232 0
340 201 53 0
49 -237 133 0
205 -209 233 0
321 -41 -370 0
23 21 15 0
-306 310 -317 0
-220 -336 -160 0
176 159 158 0
-29 34 -41 0
-233 -249 -242 0
-62 60 92 0
-302 -347 326 0
299 259 273 0
126 135 123 0
-463 464 -453 0
109 140 -141 0
214 -244 -206 0
459 -492 -485 0
401 -142 -319 0
293 -260 297 0
202 212 217 0
-57 -62 -86 0
-332 330 -322 0
365 380 385 0
191 -194 -156 0
83 53 -81 0
471 323 -142 0
-55 62 54 0
133 -104 137 0
430 297 159 0
331 -319 312 0
471 470 -482 0
-73 282 -226 0
-220 -210 -206 0
-372 387 353 0
112 139 -141 0
-302 -304 309 0
142 117 -131 0
-8 19 15 0
384 361 374 0
331 -287 -49 0
486 -366 250 0
416 426 448 0
-255 -285 292 0
-175 171 -174 0
340 52 -264 0
246 247 201 0
200 190 173 0
300 -263 284 0
470 -468 -454 0
-174 159 194 0
-469 -492 482 0
-6 29 -28 0
-449 115 -322 0
187 151 -190 0
459 461 -452 0
-210 -246 239 0
282 273 -299 0
-385 -488 -34 0
355 466 -201 0
308 -324 316 0
370 354 -387 0
-78 82 -73 0
-487 -479 461 0
-249 -214 208 0
-272 295 281 0
437 -431 425 0
352 -371 390 0
-218 -220 219 0
-360 -452 -171 0
-444 449 419 0
239 -449 269 0
59 -98 -76 0
346 -318 326 0
464 -459 491 0
40 35 -27 0
-145 -127 119 0
-157 196 -163 0
-348 135 -263 0
240 234 -203 0
-169 182 166 0
-398 -387 355 0
-300 -270 -264 0
183 -193 -156 0
-455 -486 -452 0
-496 -189 -248 0
-13 -21 30 0
-484 490 467 0
-30 -31 -44 0
-201 215 207 0
358 -391 -361 0
209 238 -215 0
389 443 -306 0
124 109 143 0
89 -70 -66 0
288 52 355 0
-172 -38 211 0
-339 -345 -336 0
60 66 78 0
-383 -359 -396 0
-337 339 -310 0
263 -288 -256 0
452 -498 -478 0
376 -400 -392 0
148 -222 -90 0
-259 -478 141 0
476 -475 452 0
83 378 234 0
-209 246 218 0
-362 -393 378 0
185 193 -186 0
65 -80 53 0
-220 311 -385 0
114 -107 139 0
-334 -305 340 0
-433 442 406 0
298 255 -265 0
496 453 -475 0
-82 -71 92 0
-284 -282 254 0
-76 -10 322 0
163 151 164 0
401 389 202 0
153 -185 197 0
367 -371 -361 0
-235 -220 -247 0
-308 -314 -343 0
445 -417 -443 0
-124 -299 -238 0
236 203 214 0
-174 -151 -200 0
-98 55 70 0
-362 -360 -396 0
-364 -351 -388 0
-363 398 377 0
197 64 220 0
289 -18 -86 0
-306 322 338 0
483 -279 408 0
373 -378 394 0
-8 -219 429 0
-299 263 275 0
33 -45 8 0
162 -184 -199 0
397 -446 -462 0
26 -37 -46 0
-266 264 277 0
-139 -125 133 0
412 360 -148 0
-15 -41 -30 0
443 439 -429 0
-322 -291 -167 0
181 188 170 0
-429 -441 -426 0
-235 242 -217 0
259 270 -297 0
-353 26 157 0
-104 141 125 0
-488 472 490 0
-332 336 -334 0
63 80 -61 0
-459 474 -457 0
-343 322 -349 0
-255 280 -291 0
430 -419 431 0
-312 347 302 0
-364 366 -360 0
221 -210 -224 0
268 300 280 0
-445 -422 418 0
9 -16 41 0
-308 -350 325 0
-272 -275 254 0
20 -4 22 0
130 -112 -113 0
-451 -453 471 0
179 -157 -164 0
-223 218 -209 0
259 118 472 0
-43 -23 35 0
-297 282 -265 0
320 -328 345 0
260 268 273 0
-231 -218 240 0
-448 -432 -450 0
194 152 -189 0
337 301 304 0
-323 309 316 0
-375 -74 -260 0
273 407 1 0
-278 -260 252 0
-469 467 -486 0
-492 -182 -373 0
-66 251 399 0
-431 -384 480 0
59 97 -93 0
-263 -253 284 0
218 -340 -65 0
101 -93 -315 0
-133 180 387 0
45 -17 -15 0
-179 -186 197 0
55 79 97 0
279 264 274 0
291 258 -284 0
65 -52 64 0
281 -95 -31 0
196 179 198 0
315 -173 -85 0
-43 30 -8 0
-173 196 180 0
-415 423 -440 0
136 150 -120 0
250 227 246 0
-467 -471 494 0
497 490 456 0
234 355 254 0
395 369 382 0
354 359 -362 0
-207 209 -206 0
41 98 -426 0
-119 -287 26 0
270 289 -298 0
-251 -257 269 0
127 -114 101 0
152 -181 -184 0
-365 353 385 0
-205 -221 224 0
39 -49 31 0
-486 490 458 0
-201 232 -208 0
189 -102 274 0
-258 257 -291 0
-314 -344 -319 0
201 242 246 0
-3 124 234 0
337 -308 -322 0
47 -29 19 0
-209 -219 -213 0
-183 177 -160 0
351 210 -462 0
-69 243 -47 0
323 341 313 0
-417 -337 352 0
137 -118 -112 0
-388 -428 4 0
41 -24 11 0
-89 -99 94 0
97 89 -80 0
321 423 367 0
-154 -184 193 0
-307 324 -327 0
162 -154 174 0
-445 -192 105 0
473 467 -497 0
416 -426 -432 0
467 464 -462 0
-453 -321 95 0
-155 -157 200 0
-141 133 143 0
-39 49 -4 0
-139 238 -269 0
-406 428 413 0
-71 73 78 0
-57 -81 65 0
207 -246 -215 0
256 -251 272 0
348 364 174 0
14 -256 54 0
-276 -300 -267 0
483 -498 -487 0
-196 -104 234 0
103 139 132 0
86 58 -98 0
-55 -70 65 0
316 -309 340 0
-37 -44 -40 0
396 380 -383 0
-167 -182 -192 0
407 -153 101 0
423 -444 -449 0
-409 411 -415 0
-410 443 -431 0
413 424 419 0
-490 51 414 0
318 -325 338 0
-431 427 -419 0
-279 -255 289 0
-331 -310 -305 0
-178 -190 -189 0
150 111 -143 0
188 9 -458 0
229 210 222 0
210 238 233 0
-487 463 473 0
164 -186 197 0
-289 -277 -281 0
443 -429 -417 0
-408 -73 -489 0
-226 -206 227 0
-239 250 213 0
150 141 127 0
-3 -27 -22 0
403 -430 -421 0
102 112 -108 0
394 -368 -393 0
-189 160 195 0
-157 -200 -194 0
277 -288 -275 0
134 -215 -54 0
-316 328 -308 0
23 338 451 0
-455 476 -490 0
-487 -476 499 0
251 258 -277 0
183 -153 192 0
-500 454 452 0
-491 500 489 0
320 -447 -51 0
-199 52 -28 0
-351 -360 -390 0
-421 446 -412 0
-107 191 82 0
151 -184 158 0
228 -225 239 0
-76 -58 -63 0
73 90 99 0
-171 -199 -177 0
85 -83 90 0
142 68 -190 0
130 126 -146 0
-111 125 -136 0
-157 -419 -306 0
92 -88 -54 0
-338 -323 -312 0
86 183 476 0
-458 -494 464 0
-378 -381 398 0
-416 413 442 0
231 -242 237 0
3 -404 -61 0
-386 371 378 0
-191 193 194 0
-141 128 114 0
455 -497 496 0
-33 23 43 0
195 178 197 0
-282 -253 295 0
-435 423 -412 0
354 -384 361 0
215 211 223 0
-5 -21 -23 0
259 -294 -273 0
390 388 -380 0
350 321 -339 0
-336 -315 312 0
388 260 -60 0
-183 163 -178 0
-352 -375 385 0
-64 -77 -80 0
321 -326 325 0
-86 56 70 0
-347 149 -411 0
120 -493 7 0
-268 269 265 0
163 -170 162 0
303 -325 -332 0
479 29 -233 0
-445 432 419 0
162 -244 -437 0
-214 134 -477 0
-253 -176 -490 0
270 273 -296 0
-327 -326 -332 0
52 -64 -95 0
-30 -455 146 0
-431 414 427 0
354 383 -357 0
59 448 336 0
33 353 -332 0
-223 235 -224 0
-484 -480 462 0
354 367 361 0
122 -138 -103 0
-400 -364 -382 0
-118 -115 -105 0
301 -325 323 0
-252 -260 -285 0
354 -54 300 0
-103 -106 -140 0
-23 -36 25 0
-79 95 90 0
462 456 477 0
213 -228 -225 0
-350 -309 302 0
-294 -254 -291 0
413 410 447 0
-98 67 -97 0
-303 -394 16 0
295 263 -291 0
-43 48 -7 0
-111 414 -235 0
469 386 346 0
-146 119 -148 0
-382 -217 -348 0
-492 477 498 0
448 -406 442 0
100 63 81 0
17 -1 -45 0
-414 421 411 0
-218 236 -244 0
285 260 -292 0
473 -479 497 0
-488 463 -452 0
434 437 -421 0
321 -343 -327 0
233 199 19 0
128 -139 -114 0
144 -114 -126 0
141 138 -123 0
11 -31 1 0
-193 -196 187 0
-37 22 49 0
-409 46 100 0
465 -499 -474 0
414 442 -449 0
-132 -134 122 0
-417 423 418 0
17 -409 -399 0
446 449 -442 0
193 163 183 0
274 -282 -259 0
223 -416 25 0
-201 -490 -52 0
500 -498 -452 0
146 148 145 0
-119 -109 -132 0
228 -245 227 0
-51 91 -98 0
-61 5 338 0
-186 -173 189 0
387 395 -396 0
-206 242 212 0
408 -409 420 0
98 483 -369 0
217 -126 -59 0
255 406 -61 0
104 -130 -145 0
-358 269 156 0
288 -296 -252 0
-476 499 -497 0
-412 446 -447 0
-470 167 -279 0
-103 -141 -118 0
477 -354 91 0
323 -343 334 0
-20 -10 5 0
370 369 362 0
-390 -230 33 0
383 -397 -381 0
-61 -44 229 0
-275 -474 -232 0
-250 246 -239 0
246 -64 -175 0
-357 -177 228 0
-421 -433 438 0
-449 -209 83 0
424 420 -416 0
-211 220 -210 0
385 392 376 0
441 -388 -484 0
484 -493 496 0
107 -148 138 0
7 -22 27 0
-247 202 222 0
263 -291 299 0
500 472 -497 0
-474 -383 -186 0
125 138 -103 0
482 474 496 0
217 245 -211 0
211 -210 -244 0
-192 194 185 0
-29 -45 46 0
278 -291 265 0
-124 113 146 0
-71 87 -86 0
-372 -393 379 0
62 61 97 0
-57 -75 -76 0
-53 -79 -82 0
25 -302 -113 0
169 78 300 0
153 -159 156 0
337 308 -331 0
424 418 -440 0
-302 -314 -329 0
-343 346 -341 0
-79 -398 161 0
471 -480 451 0
-258 259 -280 0
99 59 -89 0
54 -63 90 0
-385 363 353 0
467 466 459 0
471 -11 325 0
483 469 -487 0
359 210 67 0
-474 485 494 0
-62 172 379 0
499 -484 494 0
-126 -105 -142 0
-89 98 75 0
-314 33 -432 0
187 -185 191 0
-419 -424 428 0
-462 99 211 0
-482 495 489 0
-196 199 -190 0
-72 -67 -55 0
292 268 -256 0
381 -377 -355 0
361 354 399 0
-388 -354 -353 0
-46 24 -9 0
-423 410 427 0
-282 -270 -253 0
-41 20 -48 0
-445 -329 -72 0
176 -161 196 0
257 -259 -294 0
455 -54 -429 0
-99 52 63 0
-372 -395 358 0
38 8 25 0
-105 -322 374 0
304 334 -339 0
444 -441 -448 0
1 -50 -39 0
109 225 344 0
466 451 488 0
262 -257 272 0
456 468 -472 0
14 45 50 0
-249 245 244 0
450 -431 -403 0
-404 -408 450 0
-55 100 78 0
-483 -452 -478 0
-322 -313 -303 0
-147 111 -135 0
-468 481 454 0
313 -315 -330 0
36 -4 -49 0
233 -220 250 0
-296 286 -298 0
163 -198 -164 0
176 -166 156 0
192 194 200 0
373 358 -353 0
348 469 -217 0
-253 283 -265 0
214 223 -243 0
361 394 379 0
-258 71 217 0
139 144 141 0
74 -77 66 0
-123 -150 -106 0
196 195 -154 0
-149 -127 -144 0
-253 -189 51 0
157 -412 274 0
419 447 420 0
-63 72 89 0
-111 119 -139 0
176 172 -179 0
-276 296 -271 0
-127 116 101 0
-160 391 -279 0
449 -443 442 0
148 133 -108 0
-388 -381 -385 0
-357 -381 370 0
-485 -486 456 0
-222 -230 227 0
-56 100 -97 0
396 400 -397 0
-443 304 -273 0
194 188 195 0
-201 -249 -209 0
-485 475 -491 0
198 190 -191 0
201 -119 -46 0
-71 -96 -58 0
-102 144 109 0
-167 -177 -173 0
-115 -145 128 0
221 -248 213 0
-13 3 19 0
-239 208 -234 0
87 -98 51 0
-17 21 16 0
-180 -167 -151 0
-121 143 -123 0
246 250 -228 0
-404 416 439 0
358 -217 299 0
-364 398 363 0
165 190 168 0
-137 71 -436 0
491 -455 -495 0
154 156 171 0
69 -87 -61 0
175 -179 -199 0
368 377 352 0
361 398 369 0
-448 -439 406 0
-419 -448 424 0
-458 393 -281 0
131 124 -141 0
494 -457 -497 0
-165 -152 154 0
59 60 79 0
170 -166 -181 0
-190 173 -196 0
288 -324 -448 0
97 87 63 0
-27 -31 -49 0
-75 499 -161 0
426 449 401 0
-173 283 -475 0
159 170 -200 0
141 -135 111 0
298 -262 -265 0
415 403 447 0
445 443 -402 0
403 -443 423 0
282 -218 -327 0
499 -453 477 0
-417 -401 -433 0
327 -349 344 0
-62 60 -54 0
-83 -71 70 0
-356 -400 -375 0
-354 385 -372 0
343 -348 -347 0
-46 4 21 0
-223 -202 234 0
-415 412 -429 0
-32 -313 -78 0
-412 425 -450 0
-320 454 148 0
-155 -92 -203 0
-234 207 -235 0
469 486 -477 0
-191 -193 156 0
-5 9 -4 0
-101 117 -106 0
-3 -29 -24 0
480 -492 459 0
237 -353 6 0
-361 379 -358 0
-313 344 301 0
9 -40 -43 0
468 -469 472 0
130 113 -127 0
302 -435 -201 0
-329 310 316 0
109 -118 -140 0
381 -363 390 0
-459 -471 479 0
-91 -99 -88 0
241 -214 -216 0
-96 -100 -77 0
188 185 165 0
95 -71 52 0
-69 -323 184 0
-52 128 242 0
-488 -493 468 0
405 438 433 0
-478 -483 -451 0
-262 292 -268 0
492 -480 -470 0
147 -106 -120 0
411 -425 -443 0
-11 33 18 0
219 -223 -229 0
389 -334 80 0
-310 322 -329 0
-386 375 356 0
282 -278 -264 0
48 -30 -36 0
360 -373 -369 0
402 -445 -424 0
-250 243 219 0
291 -302 -57 0
-72 -84 74 0
-209 216 215 0
385 -376 -379 0
-54 69 56 0
337 308 -322 0
488 -137 340 0
63 -83 89 0
-353 -392 -387 0
-417 424 -441 0
111 -128 -103 0
263 -268 -269 0
78 81 -70 0
94 82 76 0
175 -184 198 0
-66 -80 -95 0
89 -68 -81 0
-297 256 286 0
319 -344 -327 0
121 -132 -144 0
249 -221 250 0
-171 164 -165 0
-19 -6 -41 0
-406 -447 -404 0
-252 262 261 0
-473 452 -483 0
-397 -367 -370 0
-155 -168 177 0
300 291 293 0
90 148 -340 0
-431 -2 -390 0
284 -476 2 0
408 450 418 0
217 -219 230 0
72 56 -52 0
-208 220 -247 0
-100 -67 -84 0
-266 -270 253 0
-91 77 51 0
338 326 317 0
438 -439 442 0
234 -76 430 0
165 -170 171 0
43 116 -78 0
-212 98 35 0
-273 294 260 0
93 72 54 0
-268 -296 -286 0
411 -401 -431 0
-25 -50 -15 0
-78 -54 89 0
13 -22 37 0
360 -364 -390 0
-107 133 140 0
78 -54 85 0
-15 -35 33 0
136 110 148 0
-389 387 -362 0
381 386 -374 0
-431 -255 374 0
-227 -248 244 0
-178 -192 -194 0
-403 420 443 0
448 286 171 0
-285 -401 395 0
-229 -237 -214 0
-378 -352 -389 0
119 128 -142 0
-451 -459 -475 0
419 -77 -19 0
465 463 496 0
-409 416 -446 0
-436 413 -442 0
461 238 338 0
246 248 233 0
312 -344 -320 0
484 488 -452 0
-268 -498 381 0
-416 402 449 0
-435 429 434 0
55 471 -215 0
-202 218 239 0
-325 489 -283 0
73 72 -64 0
-252 257 -255 0
-18 47 -40 0
17 -361 -233 0
21 -24 -47 0
126 -4 75 0
-251 295 -283 0
-73 76 78 0
430 -424 -426 0
-488 -479 496 0
-420 -446 434 0
-409 434 423 0
425 446 443 0
317 -306 -304 0
-283 256 -251 0
390 359 393 0
464 487 -455 0
205 208 250 0
411 -402 -404 0
-180 -170 192 0
467 -469 457 0
454 -459 458 0
467 -460 487 0
403 427 -416 0
-279 -217 342 0
383 396 389 0
296 -269 265 0
-423 -445 429 0
-315 314 317 0
-482 -471 -495 0
-303 -337 -304 0
395 132 -428 0
348 325 327 0
324 -305 -337 0
-39 94 -379 0
-487 -498 -493 0
-146 419 -168 0
-427 407 446 0
106 -178 -438 0
491 484 464 0
152 -151 168 0
258 -251 253 0
481 -474 -497 0
-99 -69 95 0
-323 339 -313 0
449 414 413 0
-336 316 -318 0
-123 112 146 0
313 245 -134 0
-128 113 141 0
6 -26 -29 0
43 17 8 0
-75 -249 -195 0
-234 233 248 0
-331 -310 341 0
82 -62 74 0
-402 442 -429 0
-362 -158 466 0
-185 188 189 0
486 -468 -496 0
402 320 391 0
-379 399 -359 0
-297 300 -260 0
74 -63 98 0
-18 33 -37 0
-454 468 -466 0
437 423 446 0
-124 -142 -112 0
460 499 496 0
-358 394 372 0
-322 -324 -339 0
-118 -116 -130 0
-400 -372 373 0
-359 -236 -469 0
320 -304 318 0
-111 -148 119 0
33 107 -325 0
-362 397 -387 0
-434 -402 444 0
131 126 -120 0
-225 -245 223 0
-320 308 -326 0
-82 74 -58 0
-33 -206 488 0
-431 -423 421 0
493 -491 -494 0
318 308 -345 0
222 -230 -216 0
-176 -221 136 0
201 17 147 0
-496 -464 472 0
160 -158 191 0
257 -276 -277 0
-46 60 370 0
-290 -247 125 0
-246 -238 -240 0
82 -95 71 0
327 338 344 0
198 -315 232 0
164 160 -186 0
252 -108 -151 0
17 -83 164 0
-401 -446 -413 0
150 -114 -129 0
64 -95 -85 0
90 81 -94 0
-104 106 125 0
349 342 -301 0
192 76 -231 0
-246 -234 208 0
404 -403 422 0
-247 -135 36 0
411 421 409 0
123 147 -134 0
-360 -369 -393 0
-278 -293 284 0
288 -298 -283 0
65 -79 88 0
-97 -60 -52 0
-109 210 -415 0
35 43 -7 0
1 35 49 0
-104 -400 -45 0
346 -316 -335 0
-442 -419 -445 0
407 437 429 0
22 -33 23 0
157 -192 -182 0
414 435 -440 0
379 355 385 0
6 31 -50 0
-438 385 -184 0
-406 -404 415 0
-243 -235 -248 0
-331 219 23 0
203 240 -202 0
-315 -301 -331 0
-150 -106 -116 0
-98 489 -193 0
391 -380 -358 0
-31 11 -25 0
478 498 -496 0
462 430 150 0
171 -190 -173 0
-465 161 -419 0
-491 -497 452 0
137 102 -150 0
-493 484 -478 0
209 237 -224 0
315 317 343 0
-471 492 -491 0
34 17 13 0
-449 -438 -440 0
-434 -415 -416 0
-74 -56 -85 0
201 233 207 0
80 79 55 0
316 305 -313 0
30 -142 361 0
328 -333 348 0
356 375 -374 0
209 226 233 0
211 227 -207 0
21 23 -48 0
260 -267 294 0
42 -25 -10 0
-36 16 28 0
48 471 -343 0
436 404 450 0
-222 -205 -226 0
245 233 203 0
180 -157 -170 0
187 -157 189 0
439 250 350 0
-203 -216 243 0
-497 457 -479 0
-11 18 -47 0
-305 308 -326 0
-203 -393 -200 0
151 -159 178 0
-316 469 -190 0
42 -8 -48 0
296 -295 -254 0
184 -473 -360 0
-152 171 174 0
378 -388 -368 0
-202 370 95 0
385 357 365 0
88 76 61 0
-433 406 436 0
406 -431 -421 0
-410 423 -421 0
475 -468 -479 0
-48 5 -38 0
-249 -250 211 0
302 -405 154 0
-484 483 -465 0
89 67 60 0
30 29 11 0
-266 299 290 0
392 362 -359 0
-4 -39 37 0
48 -43 -33 0
377 -351 -354 0
-46 -15 -29 0
-306 -324 325 0
237 -182 426 0
396 267 202 0
-14 -26 27 0
29 231 449 0
-304 312 -332 0
-255 -289 274 0
292 -276 282 0
-148 -111 113 0
331 320 341 0
371 -397 -384 0
147 -111 105 0
-344 -306 307 0
384 392 -393 0
442 -417 439 0
265 285 275 0
-173 177 -182 0
-184 155 166 0
-433 436 -444 0
288 138 231 0
-447 416 -433 0
-468 478 486 0
463 486 460 0
-64 -84 62 0
397 358 392 0
57 -410 -322 0
143 191 413 0
-148 103 -121 0
356 -380 -369 0
270 359 -64 0
-327 306 -343 0
-484 453 -483 0
-223 208 -239 0
293 300 276 0
-206 231 229 0
358 -475 -152 0
188 -424 96 0
-491 497 477 0
-182 -173 160 0
417 -416 409 0
-218 205 -223 0
-368 -398 366 0
-4 34 -36 0
110 -396 -413 0
-472 -469 500 0
278 394 -25 0
2 163 322 0
398 -387 378 0
-337 318 -331 0
389 193 -77 0
126 405 299 0
-419 445 -450 0
286 -280 -263 0
435 442 -446 0
-118 142 -126 0
471 490 -478 0
355 -378 375 0
273 -300 274 0
-309 337 332 0
242 -268 -147 0
25 22 43 0
-20 49 31 0
-255 -279 -284 0
85 52 58 0
-493 -189 -250 0
-70 66 93 0
465 474 486 0
-284 257 272 0
-50 46 -39 0
34 53 -106 0
-346 319 -314 0
381 -370 386 0
-340 -119 461 0
63 98 -72 0
-364 379 363 0
330 315 -332 0
461 488 460 0
-429 -418 -401 0
93 -76 -51 0
-434 -415 -426 0
155 172 162 0
-498 -454 482 0
-142 -133 -124 0
-58 -175 -135 0
340 -313 312 0
19 39 -45 0
14 31 50 0
181 158 -168 0
461 500 -482 0
127 -141 120 0
-346 -302 342 0
-378 69 -298 0
-498 -454 485 0
5 4 -3 0
186 -199 198 0
17 -25 -18 0
361 374 387 0
34 -214 420 0
431 209 -116 0
121 -119 123 0
-64 -85 -58 0
38 -43 24 0
-274 -258 -295 0
20 188 422 0
-154 153 176 0
244 208 -240 0
224 231 -202 0
230 387 -111 0
-354 124 -459 0
-237 -246 -248 0
74 67 -81 0
347 -330 -328 0
384 -378 352 0
-194 97 430 0
-488 491 464 0
310 -136 385 0
-391 -373 -365 0
67 -71 87 0
101 109 -136 0
-152 -51 460 0
-279 305 42 0
-417 -434 -431 0
454 494 -466 0
481 21 -436 0
220 -241 228 0
-70 -88 -52 0
-93 -83 -82 0
364 -352 -369 0
386 394 -377 0
180 443 50 0
-472 473 492 0
495 480 454 0
-82 201 4 0
-351 -388 363 0
206 238 -203 0
-345 -336 -338 0
-410 -408 421 0
100 -75 -91 0
43 46 -11 0
380 399 -385 0
371 -397 366 0
-232 -220 -222 0
-483 497 452 0
-441 15 493 0
8 235 -80 0
-258 -264 275 0
409 408 -411 0
-448 411 414 0
69 97 -62 0
-322 388 -147 0
233 -235 -238 0
154 185 -168 0
-122 206 -154 0
-450 445 -437 0
-387 384 385 0
-373 -378 362 0
-496 -457 470 0
-54 60 55 0
-309 -319 342 0
162 165 198 0
495 242 -317 0
196 164 184 0
-2 53 -331 0
-378 399 368 0
-451 -45 52 0
258 289 -300 0
-202 -214 -201 0
-358 -377 -389 0
494 468 495 0
293 270 -296 0
-96 402 237 0
475 454 460 0
-324 -332 -323 0
-2 13 -26 0
-294 -277 -256 0
-475 488 -454 0
390 477 -127 0
33 -8 32 0
-113 114 107 0
320 -331 -349 0
278 283 -266 0
405 -402 437 0
111 131 -119 0
22 -20 41 0
-473 468 -480 0
401 404 440 0
-415 318 300 0
-192 -160 -164 0
-3 5 2 0
-204 234 219 0
300 -293 297 0
386 377 -352 0
68 -52 74 0
-315 346 -323 0
277 294 251 0
-134 -107 -103 0
-297 -287 258 0
-168 -144 -344 0
-426 454 123 0
16 -30 31 0
-65 295 -426 0
361 -383 -395 0
390 354 399 0
-131 147 -137 0
-417 -421 430 0
293 264 289 0
415 335 237 0
221 229 -225 0
-378 398 389 0
-435 401 -434 0
-213 -215 232 0
492 265 413 0
-307 -348 327 0
346 313 -345 0
-225 -219 -209 0
-116 -119 109 0
293 -388 447 0
-59 -61 -100 0
478 -500 458 0
204 207 239 0
-364 391 -381 0
251 -267 -254 0
-293 70 -453 0
-365 397 376 0
-384 397 362 0
-130 -16 409 0
-114 -113 141 0
47 43 -10 0
65 -87 92 0
-107 385 -240 0
328 -307 349 0
-414 -404 -401 0
-415 -429 440 0
332 319 317 0
123 269 -396 0
388 458 -254 0
-269 289 298 0
-413 438 448 0
183 -424 321 0
434 -424 402 0
-110 -120 -148 0
375 123 -19 0
480 -485 -468 0
233 208 244 0
-14 2 -41 0
248 268 12 0
219 -490 -271 0
45 -21 -40 0
-472 275 -228 0
344 -338 350 0
175 -192 -161 0
-130 109 -112 0
354 399 370 0
142 105 123 0
-58 55 -97 0
-3 -30 -2 0
-227 -215 208 0
-487 479 483 0
286 -264 278 0
-269 -255 281 0
-338 306 325 0
379 358 383 0
-109 147 -130 0
-299 385 417 0
-394 387 -355 0
-35 15 -19 0
495 -500 -467 0
-345 306 339 0
285 251 296 0
-4 1 5 0
-272 -58 229 0
215 -130 -469 0
-227 230 -210 0
-425 -450 401 0
71 -75 54 0
-339 328 313 0
-391 -379 -382 0
-201 -250 246 0
-100 63 61 0
37 -16 14 0
434 435 -422 0
45 -74 -375 0
158 -171 -169 0
-64 -82 55 0
18 -26 -47 0
-114 -143 122 0
306 307 -337 0
426 433 444 0
-398 -358 -390 0
363 -383 -351 0
-484 -476 -482 0
498 -458 -461 0
269 290 -274 0
-400 -388 353 0
302 311 -348 0
-10 4 -31 0
116 114 130 0
-419 447 -439 0
-426 -450 -418 0
327 -301 347 0
155 -181 164 0
94 -64 -55 0
-158 -439 -89 0
-435 428 -440 0
-191 -183 -155 0
-91 -310 300 0
119 -168 282 0
-41 36 20 0
-308 341 313 0
-23 363 496 0
-152 -167 166 0
340 338 -320 0
-289 299 -300 0
-35 -21 13 0
76 -67 -94 0
368 365 -354 0
-370 -326 245 0
-360 -364 388 0
-212 -421 -14 0
-189 161 -177 0
-422 -336 -395 0
202 201 223 0
420 407 424 0
-288 298 266 0
-437 -404 403 0
164 199 186 0
-243 205 232 0
-176 -191 -185 0
294 119 -426 0
275 298 285 0
137 132 -146 0
484 -481 476 0
-307 -317 -321 0
407 434 446 0
139 119 -130 0
-304 -322 -324 0
-177 176 -165 0
-297 -257 -258 0
217 17 114 0
-459 -473 454 0
85 -97 70 0
-493 479 -453 0
219 247 232 0
-239 241 -235 0
153 -187 -157 0
367 400 394 0
28 14 -10 0
-104 -146 137 0
-56 73 83 0
324 -312 318 0
-161 163 172 0
312 337 -336 0
-128 132 -116 0
401 445 -447 0
-48 44 43 0
-369 -356 -379 0
215 248 -227 0
355 253 -301 0
21 235 -174 0
-13 -35 -31 0
-448 -120 -204 0
270 -283 -263 0
480 456 -454 0
-362 364 392 0
-227 213 -249 0
236 241 -233 0
-207 213 -224 0
382 -474 140 0
245 -237 -236 0
-500 -494 -487 0
52 -84 82 0
23 12 -35 0
-47 3 -32 0
167 177 189 0
-393 -400 -396 0
147 131 -146 0
252 -401 314 0
-126 108 -101 0
305 -329 302 0
229 -206 202 0
-451 -483 -480 0
-410 -401 -414 0
-100 -79 -72 0
-96 -91 60 0
366 353 367 0
-114 -232 379 0
-258 -272 297 0
-160 199 -195 0
-318 329 -328 0
439 415 408 0
325 323 338 0
317 -303 301 0
-16 -3 44 0
-164 337 -100 0
230 250 235 0
-192 174 -180 0
269 257 -262 0
414 431 -430 0
-193 -159 -192 0
57 56 84 0
-463 -489 456 0
-97 55 -83 0
-451 473 464 0
127 118 -113 0
138 103 113 0
-476 -177 379 0
-17 3 -23 0
17 329 156 0
-92 -71 -68 0
224 380 125 0
-419 442 426 0
-475 114 -357 0
462 494 470 0
-61 -60 -55 0
41 8 -33 0
-308 319 337 0
-479 137 267 0
130 126 139 0
-332 341 305 0
-65 72 84 0
-91 71 78 0
-496 465 459 0
-435 437 415 0
177 183 179 0
-165 199 -194 0
-197 -186 187 0
-199 174 194 0
74 -67 82 0
218 -219 212 0
88 -53 55 0
404 403 440 0
83 -350 -154 0
-181 -158 169 0
-300 -288 273 0
384 390 381 0
-183 -176 151 0
-404 -120 -302 0
16 340 -202 0
230 236 234 0
-241 -235 -244 0
-337 -306 334 0
414 -441 -402 0
-323 314 335 0
29 -9 -10 0
-179 292 412 0
-55 -253 -366 0
-354 373 352 0
-262 -293 -298 0
443 -447 407 0
388 396 366 0
-209 340 -456 0
-310 306 -309 0
-81 -98 -58 0
-38 -80 -298 0
352 396 375 0
23 24 19 0
158 -188 -172 0
-428 414 447 0
-345 350 305 0
-10 46 -32 0
-69 -61 79 0
391 368 383 0
467 -466 489 0
89 -67 85 0
331 -306 335 0
-395 -383 -391 0
-261 268 296 0
286 275 260 0
-176 -160 -162 0
-50 -34 17 0
148 -117 150 0
260 -278 290 0
203 -251 120 0
444 439 432 0
-332 125 -481 0
68 -59 -89 0
-22 -39 20 0
21 36 -33 0
354 -367 -376 0
360 365 374 0
-255 -277 278 0
460 -279 -92 0
-461 -484 -500 0
-487 468 -459 0
28 -4 -18 0
134 108 116 0
94 -57 -84 0
67 74 -83 0
304 322 -340 0
