p cnf 500 1825
-473 123 402 0
11 -89 140 0
-432 468 205 0
187 -116 -240 0
361 489 265 0
413 262 12 0
-200 -246 -408 0
-179 -87 43 0
-436 -109 147 0
361 -216 134 0
47 -392 -323 0
437 357 211 0
379 287 101 0
83 68 -22 0
-105 372 200 0
-238 -3 -415 0
-316 -126 216 0
-114 -46 -39 0
274 -371 -301 0
-489 -196 -258 0
-359 -122 91 0
-48 328 494 0
-342 -14 -108 0
-29 297 223 0
383 -21 -144 0
93 -335 -490 0
488 -15 -157 0
144 281 496 0
-414 -164 -21 0
-272 304 -182 0
54 116 -75 0
-491 -300 452 0
307 -306 -124 0
-449 -165 12 0
157 116 -37 0
399 -33 -215 0
-48 446 -471 0
-306 -52 -255 0
272 -259 164 0
-224 168 352 0
30 22 -287 0
-391 -312 -314 0
-320 -169 -103 0
314 -51 145 0
-282 -110 293 0
-416 190 -365 0
145 227 -193 0
265 73 258 0
335 -119 -456 0
94 269 -350 0
-492 -373 494 0
78 267 110 0
189 -254 -326 0
-120 -159 430 0
162 -260 -425 0
-356 225 -425 0
77 401 -221 0
48 -372 429 0
-272 -444 -12 0
-155 -324 143 0
495 -292 151 0
109 111 -299 0
78 -257 82 0
-456 -65 -378 0
-239 -111 -309 0
325 -378 284 0
224 467 93 0
157 344 123 0
128 -369 -271 0
75 417 403 0
-196 -345 184 0
162 201 -78 0
-115 400 281 0
-175 327 117 0
-314 208 406 0
-488 -310 -64 0
292 -230 -163 0
83 64 -252 0
-328 -488 185 0
-57 450 -108 0
-139 464 -500 0
-448 391 147 0
-58 -326 -406 0
282 471 313 0
57 38 -84 0
-481 68 -161 0
-450 -94 -257 0
319 142 215 0
349 386 62 0
199 -330 -178 0
-398 67 66 0
-431 414 332 0
313 236 263 0
36 138 128 0
-275 424 -259 0
-6 218 257 0
422 454 408 0
114 -158 -427 0
-148 -227 82 0
451 -313 -70 0
-461 71 -159 0
251 -229 -454 0
230 433 122 0
-18 420 442 0
46 -354 8 0
186 4 124 0
262 21 207 0
153 -23 20 0
252 438 -64 0
-319 309 385 0
-322 -448 -51 0
2 -265 96 0
-343 -366 54 0
-334 15 301 0
380 -415 -30 0
-172 365 471 0
-332 -294 -334 0
-42 -310 -70 0
-152 -105 167 0
348 341 -383 0
-100 -408 156 0
-343 -155 -69 0
-9 -263 147 0
148 294 -356 0
-29 -74 -125 0
256 457 400 0
-53 402 120 0
-411 -84 7 0
292 -227 218 0
-335 -216 -48 0
-25 -31 328 0
-371 435 -191 0
-21 -97 -205 0
-223 432 -455 0
-213 -152 -217 0
493 130 377 0
-68 231 -462 0
253 -396 -191 0
279 454 -281 0
-468 19 113 0
416 477 30 0
-60 -303 -137 0
-343 326 357 0
-14 352 -356 0
336 -127 147 0
-402 226 -378 0
-426 -147 405 0
-355 257 -254 0
439 -167 -116 0
113 -369 332 0
-369 265 -55 0
252 181 -418 0
-94 -412 -78 0
-31 30 -252 0
65 -2 298 0
-97 415 -243 0
-131 -108 410 0
422 369 -148 0
-377 -358 -324 0
-417 -193 397 0
210 -63 -77 0
341 196 245 0
390 -95 326 0
-496 476 -214 0
180 34 -135 0
197 -213 -212 0
-181 -37 -12 0
210 -285 253 0
303 313 -65 0
444 -435 315 0
-141 -427 -103 0
268 358 -500 0
220 75 -359 0
-93 120 -35 0
84 -168 209 0
349 -248 -292 0
-205 -98 34 0
-136 287 -301 0
-461 212 148 0
-327 48 -457 0
-413 287 -234 0
-12 -488 141 0
437 -352 291 0
317 246 -265 0
271 -474 -394 0
-220 335 203 0
-218 189 449 0
60 -317 -45 0
-363 154 102 0
172 77 -183 0
425 -497 -128 0
397 -398 370 0
-167 -141 -500 0
49 -143 -263 0
1 -100 -70 0
-460 -102 -73 0
-50 37 -480 0
359 -114 -11 0
84 137 386 0
-159 -184 115 0
14 477 264 0
259 -384 -27 0
166 -84 183 0
102 -284 -362 0
-493 92 400 0
144 80 293 0
-109 355 302 0
-172 -256 -428 0
-106 -443 -477 0
30 207 -250 0
-162 -182 -274 0
370 -36 468 0
157 -13 -112 0
161 140 -154 0
-246 271 -115 0
120 235 -145 0
-232 -251 -496 0
-100 -123 -316 0
482 -487 -281 0
-276 24 -202 0
-152 203 349 0
81 54 -188 0
-344 91 277 0
53 -393 -152 0
-134 -416 63 0
6 -125 -127 0
-434 124 -64 0
-417 286 230 0
364 208 38 0
475 284 -27 0
494 334 -329 0
-86 -337 -63 0
212 489 149 0
-429 -370 -292 0
399 246 303 0
-313 11 36 0
432 -277 -339 0
237 -446 147 0
-73 114 -198 0
305 -464 -421 0
380 361 -383 0
383 59 196 0
151 198 -114 0
274 354 -120 0
375 186 458 0
52 108 -336 0
497 431 -480 0
188 482 -115 0
-154 394 -406 0
483 -441 111 0
53 -241 -113 0
-95 -286 184 0
-487 296 -21 0
-451 469 401 0
84 -217 -322 0
-45 202 86 0
323 49 30 0
-338 339 -17 0
60 -297 458 0
44 493 -168 0
-499 -132 -223 0
-273 152 267 0
-361 302 328 0
384 224 74 0
-447 -440 6 0
59 107 368 0
-45 -71 -459 0
-405 -421 146 0
-303 -198 -361 0
-430 -356 -402 0
-349 -170 -24 0
-364 443 -41 0
-6 -328 -279 0
298 243 357 0
489 265 -473 0
392 483 -57 0
-210 -254 -335 0
-225 210 -331 0
493 265 -226 0
468 -419 191 0
-465 -246 263 0
-329 -472 236 0
-135 -157 389 0
-245 281 392 0
-168 468 -484 0
405 53 -459 0
-107 -481 -94 0
146 -480 -281 0
172 -3 282 0
323 311 495 0
-153 -67 195 0
336 -115 -299 0
206 -295 360 0
38 -340 82 0
-389 -10 -297 0
396 -208 494 0
-369 -36 -166 0
-462 145 270 0
332 -305 217 0
-238 -193 -69 0
-262 466 -410 0
363 150 -444 0
381 -55 -492 0
-258 237 274 0
-234 -482 -35 0
42 -177 -497 0
132 -434 97 0
-24 -215 28 0
462 -321 238 0
490 -361 -291 0
330 186 268 0
312 -188 237 0
-154 109 33 0
150 9 -82 0
-300 385 -376 0
484 222 -123 0
-295 494 198 0
-305 431 466 0
167 323 148 0
-230 172 -136 0
-69 -341 -284 0
-443 160 462 0
-138 -112 -323 0
-39 16 -302 0
70 -211 439 0
234 -108 48 0
-156 -474 360 0
291 -404 -368 0
-174 173 -396 0
-168 39 -422 0
470 89 311 0
-258 -115 -484 0
-293 -94 -37 0
-53 410 -220 0
76 -91 -179 0
-480 -461 211 0
-112 -152 -329 0
297 -425 -463 0
228 468 -73 0
-227 264 -127 0
450 -304 -109 0
469 -488 -449 0
156 -339 -463 0
365 -355 207 0
-392 -120 249 0
-2 179 -78 0
-283 -27 125 0
499 202 27 0
-43 -22 3 0
-208 -351 -165 0
-249 294 -365 0
-131 478 -459 0
146 -399 453 0
-373 157 -478 0
-175 -204 -67 0
-155 50 52 0
-72 -104 139 0
-160 -47 -2 0
413 -346 -255 0
95 166 -247 0
-469 -327 288 0
28 435 191 0
-252 -266 436 0
414 -306 -483 0
453 -391 -180 0
102 74 11 0
84 458 359 0
-15 -63 -29 0
-481 306 16 0
-120 258 -46 0
-20 441 229 0
114 -199 -370 0
-493 145 -265 0
281 -64 -443 0
362 341 -456 0
-146 57 -270 0
-159 -491 -200 0
158 -152 36 0
-411 479 -282 0
304 -125 -151 0
119 -386 404 0
418 -474 218 0
-217 298 488 0
-173 252 -290 0
-476 188 417 0
435 172 -310 0
-291 -163 137 0
4 285 39 0
-246 -23 243 0
-228 107 77 0
327 149 -130 0
-445 -84 123 0
-499 -158 282 0
-10 436 -340 0
-363 -460 344 0
119 -315 467 0
-217 3 -386 0
188 -130 342 0
-101 370 264 0
179 -445 279 0
-184 361 -329 0
-441 496 309 0
285 289 79 0
-340 -214 -116 0
-265 217 476 0
9 -469 -263 0
375 -268 -425 0
146 -475 -449 0
463 104 156 0
-390 26 367 0
-155 -304 410 0
-193 -461 -159 0
401 46 -257 0
-391 299 402 0
-6 67 435 0
165 -362 96 0
-64 -40 232 0
-311 -464 342 0
-347 71 370 0
-347 453 227 0
-148 95 38 0
-464 -266 337 0
-263 391 342 0
263 -485 -82 0
-252 13 -64 0
116 33 111 0
184 -317 29 0
336 412 -123 0
387 413 385 0
-114 -42 -20 0
4 -170 162 0
237 103 -347 0
-283 185 199 0
-309 -135 -466 0
110 422 94 0
-173 462 364 0
-438 240 444 0
212 -131 151 0
354 334 -146 0
194 -430 433 0
-68 490 24 0
-425 -476 346 0
-47 15 -255 0
-114 418 -138 0
-68 12 -284 0
450 -231 220 0
-405 -164 -432 0
348 -234 -205 0
-178 -182 -482 0
128 -350 -199 0
480 466 402 0
-485 -449 -423 0
377 -370 -406 0
281 -158 226 0
282 -145 162 0
-303 -42 422 0
182 -15 311 0
-212 467 292 0
476 265 208 0
129 58 -473 0
-470 -207 36 0
-382 -392 -193 0
-248 450 -227 0
-162 24 -356 0
21 -487 236 0
-106 138 -20 0
-33 -364 212 0
-109 -438 360 0
-128 152 -107 0
-388 -116 -322 0
169 274 182 0
110 -457 -268 0
-372 -316 -353 0
54 -42 -321 0
-137 490 -419 0
429 -187 -399 0
481 171 -106 0
377 62 -215 0
-301 -366 -419 0
94 86 294 0
-229 475 313 0
489 -190 -89 0
-49 364 285 0
-287 -442 -246 0
-490 -425 93 0
-141 252 -269 0
-351 -493 141 0
238 -245 117 0
31 106 -179 0
282 215 478 0
-359 370 204 0
208 -269 369 0
415 260 230 0
206 463 447 0
-402 95 -161 0
369 116 -449 0
-215 43 -413 0
-4 248 -391 0
45 370 165 0
52 -326 109 0
416 -364 209 0
-212 248 424 0
-51 256 -327 0
-331 -460 469 0
362 -10 382 0
94 -410 -498 0
2 113 -475 0
412 443 187 0
413 -99 289 0
191 316 -61 0
-328 269 211 0
73 247 -139 0
16 -113 -482 0
190 -13 -36 0
432 223 234 0
124 -331 269 0
133 -262 447 0
-254 -189 -16 0
70 -152 176 0
232 -92 -105 0
-142 -139 469 0
349 293 35 0
63 -337 495 0
127 28 9 0
483 194 -218 0
342 139 -433 0
-30 245 -51 0
332 -22 -336 0
-92 426 -300 0
251 188 286 0
407 476 -420 0
-135 70 -450 0
91 197 416 0
-186 -123 -296 0
-100 -499 425 0
-483 -62 -213 0
-38 -67 -399 0
423 -300 -224 0
-358 -484 134 0
78 54 -281 0
338 -397 192 0
-84 -413 -47 0
374 -349 63 0
-96 -464 -373 0
85 241 -417 0
-392 321 109 0
384 -492 -316 0
-116 -137 -110 0
129 -167 -99 0
234 -114 373 0
375 -98 -479 0
73 -465 -190 0
-363 215 -453 0
-340 207 334 0
41 -250 98 0
359 352 98 0
431 -444 284 0
-413 446 398 0
-155 -106 450 0
282 -165 -396 0
-458 -35 78 0
16 70 342 0
-198 261 -434 0
-410 28 103 0
-184 481 -369 0
403 373 51 0
-267 10 385 0
-169 6 -255 0
425 458 77 0
433 394 244 0
235 -408 207 0
450 -155 -97 0
-363 414 -326 0
-369 348 -377 0
141 250 -383 0
42 -380 180 0
-293 51 440 0
-89 355 -374 0
-383 -85 217 0
453 -486 -395 0
-364 155 170 0
71 59 101 0
-271 432 211 0
189 247 -112 0
-286 60 400 0
-335 123 119 0
84 -157 471 0
-176 397 77 0
187 417 122 0
-189 99 416 0
499 333 220 0
-153 442 -80 0
47 65 135 0
463 341 -228 0
77 -159 -350 0
-185 86 -273 0
15 373 25 0
498 376 -344 0
52 -282 -148 0
-283 -26 425 0
444 203 -222 0
-232 -324 449 0
-387 -470 -450 0
474 -58 347 0
-96 -86 245 0
454 -442 491 0
-5 224 -144 0
-452 161 10 0
339 114 -403 0
129 82 -52 0
113 92 -41 0
-262 237 -384 0
281 64 -469 0
-58 -444 245 0
-238 428 124 0
95 -340 443 0
-449 -427 -353 0
-343 76 490 0
406 -216 329 0
-432 -496 -280 0
408 484 63 0
-390 115 457 0
364 -167 -413 0
240 -23 -28 0
183 235 -78 0
365 8 -71 0
28 -481 191 0
103 -10 -63 0
-282 -434 -261 0
-10 -203 -279 0
-144 254 449 0
-451 -229 -92 0
337 314 363 0
-457 -421 365 0
383 -72 264 0
-412 115 343 0
2 187 309 0
198 -203 356 0
70 -154 140 0
172 -175 159 0
95 166 295 0
251 53 -409 0
-352 -87 488 0
-276 -177 -279 0
-42 -199 -166 0
22 -83 -97 0
-218 -162 -268 0
-406 -6 -279 0
-71 206 382 0
-241 406 121 0
231 -95 -388 0
-287 293 149 0
489 -157 495 0
-137 77 -181 0
227 424 77 0
-2 316 -429 0
-160 -406 79 0
398 -488 131 0
-311 -24 37 0
-226 -102 9 0
402 175 363 0
-261 198 -273 0
155 387 -215 0
39 454 151 0
499 -95 -106 0
-17 125 -383 0
-60 -12 251 0
-480 -116 452 0
-493 -490 413 0
203 373 487 0
-266 436 280 0
422 -48 -175 0
-251 -227 443 0
-277 -73 179 0
116 72 107 0
371 -219 468 0
268 206 -167 0
-81 341 -362 0
-29 -145 -346 0
-218 -211 -6 0
-201 262 166 0
10 -191 -305 0
-473 468 240 0
192 113 -202 0
60 82 -141 0
183 160 282 0
-183 -256 -236 0
423 240 -174 0
51 384 490 0
283 -425 -210 0
-319 280 213 0
500 192 -219 0
469 -394 -33 0
-164 405 206 0
-64 -370 -293 0
-103 -470 -436 0
408 -201 -9 0
-280 -474 247 0
363 -202 -1 0
-161 -107 -487 0
-229 -373 -493 0
-277 -155 417 0
-418 391 -451 0
151 198 270 0
-150 153 270 0
-28 361 -466 0
190 162 166 0
-175 -319 -90 0
74 428 473 0
-86 184 -382 0
-194 -395 313 0
-444 -399 -319 0
318 257 -302 0
206 -93 270 0
177 -362 -210 0
111 -130 -35 0
25 -271 -148 0
38 442 56 0
348 -70 246 0
117 29 -477 0
-9 418 -311 0
-158 -171 -117 0
219 -88 -158 0
138 -3 254 0
-134 415 12 0
-414 154 452 0
-81 -141 -2 0
-395 -415 460 0
454 -345 93 0
-484 438 -395 0
-268 -256 -299 0
234 -97 134 0
-355 -307 209 0
86 -222 -203 0
446 -499 -278 0
197 376 -213 0
-195 392 495 0
-28 68 -405 0
81 -225 -175 0
183 -31 -446 0
18 322 -178 0
375 450 425 0
-366 -77 106 0
437 405 114 0
-391 295 -162 0
410 268 -170 0
-211 73 -394 0
-231 374 -462 0
221 -64 453 0
241 371 170 0
-388 -498 225 0
-455 83 -181 0
-99 -64 401 0
-315 -394 352 0
321 -436 -497 0
-294 -322 422 0
49 -479 175 0
140 367 -380 0
-473 138 169 0
138 159 -214 0
128 253 204 0
-415 -152 453 0
360 356 325 0
-219 94 330 0
82 220 -279 0
403 -463 -95 0
377 282 -475 0
206 270 265 0
-43 139 -331 0
-263 -167 -359 0
-13 -479 -254 0
-355 104 41 0
101 -262 -188 0
-156 109 -342 0
214 164 -89 0
86 -253 63 0
-5 72 378 0
453 -76 -364 0
-406 253 -277 0
-369 -190 -486 0
-1 459 93 0
-318 -106 -243 0
-297 -277 230 0
-430 382 -403 0
-114 197 481 0
254 -253 44 0
89 151 -145 0
398 -232 104 0
-490 299 152 0
-138 -147 -241 0
-119 423 484 0
-297 287 239 0
-176 -182 -480 0
-428 24 -268 0
93 -423 42 0
-355 -371 -195 0
355 284 -62 0
-253 101 -74 0
117 -442 -364 0
-171 46 -192 0
-51 178 -237 0
-121 -490 215 0
227 111 377 0
-109 17 205 0
29 -379 -491 0
-72 -13 286 0
-357 496 37 0
-117 52 486 0
-422 -425 -392 0
-320 269 186 0
146 95 414 0
372 -163 -187 0
-59 233 235 0
-364 -36 -244 0
359 -495 478 0
-53 399 273 0
-78 404 279 0
-183 -188 -185 0
440 36 -100 0
296 -128 204 0
384 134 -96 0
-297 451 -307 0
-215 -335 -225 0
236 -211 296 0
482 -431 108 0
-115 -293 172 0
366 257 -15 0
-56 -32 -351 0
315 194 -293 0
-62 -280 -337 0
13 -392 352 0
127 351 -410 0
-323 131 -52 0
-304 -305 416 0
488 211 499 0
-303 14 83 0
-246 446 -320 0
-424 427 411 0
470 83 483 0
-138 439 81 0
81 -463 -161 0
-283 -476 -54 0
-110 482 -13 0
-121 -458 -116 0
392 -132 -388 0
-300 -418 228 0
378 -160 -211 0
-348 -136 -366 0
-61 20 -301 0
-92 132 332 0
128 384 251 0
390 189 194 0
102 -171 393 0
461 415 -343 0
24 -188 180 0
-59 348 11 0
-485 -410 27 0
369 240 -472 0
-51 -362 -486 0
-345 -30 -275 0
-155 341 404 0
-90 -76 46 0
-366 360 169 0
-81 -397 -411 0
11 -122 402 0
66 318 479 0
295 312 -438 0
-498 -54 -378 0
-27 327 156 0
-95 346 177 0
197 268 -79 0
284 394 -350 0
177 290 -25 0
436 -294 -47 0
55 -354 363 0
-174 -212 58 0
-436 12 116 0
-139 -472 -77 0
386 -139 497 0
461 -482 -341 0
-13 -268 188 0
291 -426 42 0
-222 -54 -448 0
-251 222 -147 0
210 221 276 0
-161 -164 207 0
-228 -312 -111 0
248 369 372 0
383 -89 447 0
137 -189 -310 0
453 -99 444 0
-20 -489 -3 0
-168 88 457 0
55 472 20 0
-233 -198 487 0
326 -164 225 0
-91 450 103 0
-343 225 492 0
-192 -464 -445 0
474 401 243 0
-114 -235 -199 0
-491 466 -411 0
-148 -324 -334 0
-170 215 -77 0
75 -174 239 0
-167 -75 -44 0
357 -103 -6 0
-6 301 431 0
-23 438 374 0
-70 85 320 0
-225 337 316 0
-89 -390 -5 0
-297 251 -377 0
-386 -392 287 0
39 -376 266 0
-497 -114 -51 0
356 238 124 0
336 200 -429 0
-57 -249 -394 0
-484 193 493 0
290 -86 -291 0
213 -282 177 0
78 24 429 0
-1 -421 -150 0
-32 365 -41 0
-405 -279 -129 0
-274 287 49 0
323 34 192 0
206 322 -269 0
-307 -119 51 0
39 250 -403 0
-162 -20 5 0
-101 382 -54 0
427 410 -484 0
41 75 -338 0
56 173 -355 0
452 -266 -461 0
-319 -438 -179 0
281 -72 -201 0
-190 -113 222 0
346 111 321 0
69 -413 185 0
-52 90 -29 0
266 -72 -450 0
249 -61 -458 0
208 -109 263 0
432 -221 -282 0
-375 -125 -19 0
184 -217 420 0
204 240 -379 0
289 344 -28 0
218 -40 -68 0
452 24 -334 0
-373 -499 -289 0
144 373 178 0
-434 -83 -107 0
168 444 324 0
-411 -130 305 0
90 382 294 0
-262 -362 -112 0
71 -356 339 0
181 345 146 0
-473 -17 38 0
122 253 -429 0
-473 -51 -233 0
354 -120 162 0
152 -283 82 0
-84 336 -152 0
39 374 -118 0
6 -105 13 0
366 495 -330 0
184 292 -195 0
-302 -142 186 0
95 -189 -453 0
-88 487 106 0
-26 306 -36 0
388 -348 285 0
-436 -231 313 0
333 -490 171 0
439 -104 -197 0
369 408 227 0
-15 -188 485 0
148 -53 -187 0
468 139 352 0
-160 53 -223 0
-269 -21 101 0
-204 48 -73 0
-457 134 146 0
-149 -441 496 0
-481 357 -399 0
-483 -64 -488 0
-449 -223 -247 0
374 132 163 0
-322 -291 -71 0
-169 -23 386 0
-470 -192 -261 0
19 5 197 0
-410 -73 -272 0
375 360 -327 0
466 -174 457 0
-298 -117 118 0
-478 -278 -91 0
371 405 -17 0
-500 441 184 0
149 142 -421 0
-435 353 240 0
-398 -104 -348 0
422 -399 -227 0
211 282 -176 0
-146 -198 296 0
325 -359 361 0
-387 -452 -28 0
-173 306 -272 0
381 -289 245 0
-385 159 -345 0
-260 43 267 0
289 130 -387 0
-376 -309 -163 0
-168 414 65 0
-125 313 422 0
-137 86 -3 0
-440 -38 -355 0
-11 178 -43 0
-164 14 257 0
500 -459 -113 0
245 197 428 0
216 -118 -276 0
-28 -462 -365 0
-416 439 302 0
404 -254 56 0
423 198 -211 0
7 272 -453 0
-114 387 -67 0
-132 133 462 0
102 278 238 0
-227 -255 -179 0
-398 -91 170 0
372 -254 -359 0
449 230 -172 0
311 -339 141 0
-449 439 -448 0
17 -491 -157 0
-298 3 -29 0
202 -265 -156 0
-252 276 -290 0
495 -186 184 0
-62 422 -385 0
340 -204 434 0
-259 -133 -137 0
3 411 408 0
450 434 115 0
177 -298 -240 0
-353 -70 8 0
-355 238 279 0
493 -189 -388 0
134 393 281 0
-83 194 -468 0
-382 334 -174 0
12 482 34 0
49 -481 219 0
216 195 78 0
258 322 -447 0
-438 -87 437 0
416 -475 -376 0
398 78 -143 0
259 -87 -469 0
-44 12 -493 0
357 331 -171 0
103 68 -351 0
-109 126 258 0
248 -405 19 0
268 270 382 0
-11 -104 -81 0
-425 -132 424 0
-461 -260 -452 0
264 152 398 0
249 -38 105 0
-40 238 81 0
158 131 -17 0
309 -447 154 0
221 153 104 0
-40 137 -214 0
449 233 -191 0
208 -260 131 0
359 -417 -337 0
-254 413 126 0
-119 -270 -158 0
202 8 130 0
344 -119 -422 0
450 100 432 0
-148 485 -260 0
479 188 -349 0
373 157 -174 0
-58 -367 -6 0
212 -136 -439 0
71 -38 -66 0
119 440 48 0
-247 -30 -224 0
-182 -309 113 0
263 -213 197 0
-59 362 199 0
-430 -224 -476 0
-139 95 72 0
445 -155 -285 0
-84 59 234 0
423 -361 -51 0
-284 439 -55 0
-258 458 421 0
463 164 -342 0
-134 -19 -281 0
86 -79 -203 0
-198 224 40 0
-391 -99 -363 0
351 -217 -415 0
-67 -447 115 0
344 -132 -20 0
462 131 -413 0
262 33 479 0
-39 168 -253 0
-410 40 -400 0
40 157 229 0
-494 -328 81 0
-110 -266 -490 0
461 -36 374 0
165 104 239 0
-199 1 407 0
325 492 31 0
-60 108 231 0
-484 -283 208 0
-445 -5 -296 0
-475 -302 338 0
-371 -46 391 0
-326 333 -49 0
-290 -261 -240 0
-260 500 -135 0
322 483 420 0
-149 259 40 0
-229 -447 409 0
124 73 -172 0
-154 493 221 0
494 312 203 0
324 -73 -113 0
-211 489 256 0
-117 -347 -110 0
-230 138 194 0
-168 -498 -442 0
-488 -377 -226 0
-314 -122 240 0
-380 444 191 0
289 -437 -442 0
-474 -204 -305 0
158 37 -102 0
407 -411 -338 0
224 207 167 0
-446 -356 -69 0
-102 305 -215 0
-364 -125 -9 0
-365 52 183 0
155 43 167 0
-77 139 -456 0
-199 453 -111 0
-90 358 -179 0
294 125 368 0
-245 455 176 0
-389 413 -198 0
-237 -402 -86 0
402 296 452 0
-280 353 58 0
-266 21 -48 0
-20 350 467 0
-263 -11 -479 0
431 421 112 0
-16 -296 -335 0
-472 262 -471 0
286 484 134 0
280 -358 -440 0
354 103 47 0
358 264 389 0
312 -187 208 0
-500 -313 -439 0
488 -277 -280 0
-53 -135 -379 0
489 400 -147 0
71 -18 -79 0
-461 -315 -453 0
372 -376 -417 0
-442 -407 -495 0
-85 219 446 0
433 -16 -224 0
-329 106 265 0
19 -462 -456 0
-30 18 -5 0
-114 289 -395 0
-70 -41 -141 0
240 43 -206 0
-217 240 -145 0
-59 -209 -211 0
-30 407 414 0
325 -388 -118 0
49 348 186 0
266 483 -328 0
-216 -390 319 0
63 -217 -101 0
-358 -125 -429 0
-362 268 -159 0
-262 -331 316 0
437 -182 -376 0
11 -386 423 0
-4 433 -410 0
368 -129 -273 0
-320 88 463 0
219 417 -395 0
-459 -37 -127 0
124 17 -463 0
-388 402 -177 0
-398 -283 -429 0
-161 -217 239 0
-140 214 22 0
101 39 -469 0
239 -461 240 0
-452 284 -367 0
50 -475 311 0
-284 -489 485 0
-93 205 -455 0
-326 328 -407 0
200 429 446 0
-215 124 29 0
373 435 87 0
228 243 -420 0
231 338 -493 0
-377 -197 293 0
-296 -64 116 0
129 -42 -481 0
356 -360 -267 0
-318 74 -196 0
-499 233 69 0
51 159 -40 0
-191 -309 391 0
324 -404 111 0
62 345 -294 0
-215 -179 -440 0
-442 -337 424 0
95 247 -432 0
457 -375 -4 0
224 -416 319 0
-489 116 226 0
480 372 306 0
-310 -210 8 0
-101 490 429 0
-109 235 -80 0
-382 -455 -500 0
47 454 344 0
204 439 -357 0
6 369 -239 0
142 437 396 0
274 329 452 0
488 -62 -363 0
-433 209 334 0
75 -21 316 0
107 385 82 0
47 -134 362 0
-493 14 226 0
-70 -114 -473 0
-45 350 -484 0
-255 -115 431 0
-160 166 58 0
398 468 -456 0
-125 3 -400 0
-282 -136 -318 0
467 -38 -178 0
329 181 197 0
198 496 438 0
-332 253 73 0
-160 -345 161 0
-213 -413 -210 0
386 419 275 0
-330 1 -110 0
80 -46 234 0
-190 203 -351 0
-406 330 -90 0
-154 -80 121 0
293 214 200 0
-469 227 196 0
132 23 445 0
-309 304 -310 0
189 -286 -75 0
-198 -226 244 0
-158 169 -163 0
-137 483 -302 0
11 63 -289 0
-416 301 -387 0
88 -293 208 0
-285 438 147 0
382 -73 -479 0
379 -404 110 0
173 -206 -421 0
351 185 499 0
-399 215 -126 0
-186 107 465 0
157 -345 -189 0
-246 -213 -303 0
312 -386 -185 0
-393 194 264 0
98 210 153 0
-372 -325 -112 0
358 -49 -391 0
246 -387 492 0
364 311 107 0
-145 42 -442 0
367 -369 82 0
-1 184 168 0
-169 491 -41 0
61 148 -296 0
453 -19 -15 0
-78 480 163 0
467 -440 387 0
78 36 79 0
-240 432 -478 0
-460 335 -190 0
-386 265 -68 0
-322 497 122 0
446 150 437 0
416 336 189 0
211 206 -419 0
-273 -410 194 0
93 -372 -351 0
49 -423 233 0
-223 433 16 0
405 -213 103 0
-492 461 394 0
17 -46 -25 0
-21 -365 -48 0
-466 -443 -129 0
-401 -299 492 0
-225 -118 -421 0
341 -301 -139 0
-415 -318 288 0
121 -24 -273 0
214 204 89 0
308 57 -430 0
-104 -231 317 0
483 -135 209 0
-147 -231 -211 0
8 -344 -469 0
498 242 -69 0
-243 -9 403 0
-263 327 -90 0
-218 122 -348 0
290 -375 291 0
-151 314 146 0
-11 489 236 0
404 -359 -278 0
162 432 -371 0
-33 -122 -323 0
457 267 390 0
393 36 -404 0
-67 -39 -188 0
-346 -30 450 0
254 -264 196 0
-7 -256 -110 0
257 -253 -419 0
-379 -114 55 0
-243 75 -436 0
464 302 205 0
480 -441 207 0
357 -454 122 0
-254 -407 61 0
-29 -247 498 0
220 26 -131 0
45 206 -82 0
246 -126 -112 0
42 -461 202 0
-255 -144 308 0
-123 -202 244 0
-108 236 366 0
470 -240 -271 0
-228 244 -448 0
-255 183 -486 0
-290 -384 -357 0
383 275 353 0
181 402 -238 0
-244 404 78 0
239 -356 -218 0
-309 52 170 0
-500 -93 127 0
128 -77 342 0
-194 19 146 0
-285 -35 -394 0
289 -87 -342 0
-238 434 381 0
-139 -135 -254 0
326 415 -110 0
407 382 472 0
-18 -378 -276 0
190 -174 -96 0
314 324 219 0
-423 431 -261 0
307 25 -88 0
-233 -364 470 0
-11 -408 -454 0
-373 -242 -243 0
65 305 448 0
-86 4 192 0
-446 -288 57 0
165 -144 278 0
262 139 180 0
-244 181 -248 0
-412 -12 80 0
130 334 -391 0
100 -454 45 0
453 -417 -27 0
435 236 -192 0
248 -193 -90 0
420 330 298 0
-168 -174 -145 0
-335 82 48 0
102 -243 -496 0
-289 -84 -148 0
104 -213 -281 0
5 -385 449 0
-225 -424 25 0
-474 497 -472 0
-210 -275 -6 0
-480 393 -342 0
-149 -273 22 0
-235 148 -470 0
-5 -315 -455 0
-343 -196 451 0
233 422 -304 0
-390 419 -130 0
53 -16 -438 0
-387 392 -195 0
19 212 -83 0
74 -439 429 0
322 -194 219 0
58 -93 385 0
-177 -294 -73 0
-279 259 317 0
-117 -59 -274 0
397 -473 277 0
294 447 395 0
-168 -80 111 0
-395 380 350 0
-87 271 -72 0
256 -84 173 0
234 33 467 0
56 193 -81 0
-135 -78 -252 0
-369 -75 -119 0
367 -303 92 0
-418 -267 -309 0
143 -296 309 0
-415 -25 -372 0
-161 303 -37 0
-457 326 328 0
121 -42 -244 0
-374 -137 334 0
-269 -192 211 0
-475 254 227 0
324 462 -301 0
121 -366 21 0
377 310 135 0
-187 -78 -301 0
100 272 -159 0
-289 236 -80 0
-266 300 -340 0
18 131 56 0
-439 -267 -311 0
308 -473 -417 0
292 -71 -169 0
-53 -442 -21 0
299 -378 -278 0
-307 -445 -234 0
352 -299 59 0
144 315 -487 0
189 278 -232 0
-163 157 -173 0
-196 -81 258 0
-371 217 -454 0
120 306 -218 0
153 -387 436 0
396 197 -489 0
261 -346 138 0
-173 470 263 0
365 -309 66 0
-167 83 -5 0
16 -415 -157 0
-363 458 253 0
-388 -48 297 0
-205 293 -51 0
-390 282 -315 0
108 175 -499 0
-271 -121 -449 0
457 453 159 0
496 -121 52 0
-130 301 -105 0
167 -110 101 0
106 354 410 0
-426 -191 291 0
404 -29 490 0
-50 -420 448 0
-230 363 436 0
114 -451 -304 0
-4 -57 53 0
49 81 342 0
257 72 265 0
-31 -294 458 0
462 306 -74 0
-356 24 132 0
240 283 116 0
-461 -207 -246 0
-430 -205 -151 0
-299 453 455 0
-203 -199 45 0
-465 -415 -10 0
-365 31 -111 0
-307 -448 -134 0
-445 476 -416 0
239 462 468 0
-103 497 67 0
390 288 296 0
-467 373 -286 0
-439 350 -59 0
-30 357 -74 0
-99 -40 -463 0
-458 109 357 0
271 -19 312 0
-316 119 32 0
-429 -452 -331 0
277 197 -91 0
-82 -234 -451 0
115 -344 -22 0
149 -490 472 0
292 495 449 0
12 -150 60 0
-386 -254 -378 0
314 -31 -17 0
37 276 219 0
50 181 175 0
240 478 -113 0
213 -374 -51 0
-449 -477 -468 0
470 -212 -487 0
105 99 391 0
-175 62 -470 0
333 -61 -5 0
-466 -248 252 0
480 52 -434 0
-164 -333 -128 0
-10 -27 -193 0
336 260 -196 0
-20 112 -8 0
-247 -106 -9 0
185 -69 -418 0
-333 260 4 0
451 -259 -241 0
429 -81 409 0
131 -133 418 0
193 277 -245 0
-420 -194 404 0
-351 -314 313 0
480 218 -169 0
271 -336 -57 0
183 -43 9 0
-58 110 23 0
-224 -408 -175 0
-63 -198 144 0
-326 -278 448 0
-329 208 241 0
-146 156 -412 0
197 -100 -118 0
143 235 -381 0
266 -358 -470 0
-100 -350 -326 0
-26 378 -319 0
101 298 -367 0
-78 319 -194 0
182 -180 -133 0
494 21 163 0
76 67 -10 0
-117 408 395 0
460 -478 420 0
-33 422 389 0
-405 47 414 0
459 -295 454 0
-145 469 -327 0
-218 -496 423 0
-364 -476 -494 0
27 -216 199 0
-246 273 223 0
497 -27 -295 0
-448 -441 102 0
-12 -495 -191 0
-363 387 -119 0
371 -480 -120 0
-405 -158 143 0
-371 -315 -139 0
-337 472 413 0
-105 497 167 0
-80 387 384 0
106 -291 130 0
-461 -495 400 0
-298 -68 -486 0
-160 240 273 0
-71 10 -68 0
-297 -152 -293 0
424 -123 14 0
460 377 -49 0
-75 268 411 0
-43 -147 182 0
217 33 294 0
-350 145 438 0
-286 -128 240 0
383 -26 -461 0
134 -428 488 0
373 217 189 0
-111 -401 -25 0
369 -372 -270 0
396 -83 246 0
417 -280 -437 0
-369 -247 -500 0
298 -116 130 0
81 488 458 0
248 -459 433 0
87 -258 -55 0
75 371 -365 0
-27 481 278 0
-171 -317 460 0
-19 276 -234 0
144 200 -295 0
-464 342 -231 0
-417 373 -462 0
-399 -183 -221 0
-184 159 -83 0
205 274 161 0
448 -409 32 0
-210 -38 -127 0
-294 -277 211 0
-39 -421 481 0
-482 167 -257 0
-88 -335 -400 0
425 126 80 0
-36 1 426 0
-406 -446 100 0
474 26 -89 0
148 296 214 0
-59 -228 53 0
228 -457 -208 0
-274 -492 54 0
126 204 163 0
476 -343 5 0
-481 406 -122 0
72 -262 -101 0
-204 368 392 0
-470 266 21 0
-108 -349 123 0
-440 -305 122 0
-446 -423 -147 0
-77 -403 485 0
-259 -236 -431 0
434 -474 -189 0
-272 259 136 0
230 -193 351 0
-321 -386 -459 0
-268 -485 25 0
290 459 131 0
-405 -486 -392 0
-121 307 -320 0
141 -86 -183 0
281 -62 -495 0
-98 -117 -369 0
-106 187 462 0
-249 3 491 0
165 -254 -64 0
-263 -464 446 0
-79 -485 -415 0
-296 445 -372 0
462 -279 213 0
324 -41 11 0
-179 -269 39 0
-30 -210 -154 0
-124 288 250 0
211 491 224 0
220 472 -159 0
-201 63 -258 0
283 257 16 0
-39 10 22 0
-405 170 -138 0
-165 84 369 0
-171 221 -239 0
195 -236 499 0
303 -283 -345 0
318 -126 69 0
-388 211 455 0
-465 -41 -151 0
-365 -40 -4 0
-347 289 -51 0
-25 -150 6 0
486 466 133 0
386 297 -45 0
-291 -70 -38 0
-407 55 -145 0
-72 101 -393 0
-457 -268 48 0
428 497 -329 0
38 -310 -45 0
-109 -456 -325 0
332 -130 -191 0
118 -256 248 0
254 -305 -496 0
-165 -215 -111 0
-170 -166 7 0
445 491 122 0
457 -499 -431 0
169 -367 107 0
-243 78 -435 0
-353 -383 -430 0
40 285 -139 0
-293 334 -29 0
-256 29 248 0
101 -412 305 0
115 64 334 0
289 386 18 0
-427 17 120 0
316 196 16 0
-413 282 -435 0
-447 175 -292 0
-1 470 -486 0
20 -259 110 0
472 -480 135 0
181 -199 240 0
-59 -193 308 0
90 310 300 0
-51 -121 5 0
122 10 -356 0
-276 -246 495 0
403 35 66 0
263 311 361 0
81 177 -213 0
-472 -61 460 0
-170 -384 144 0
-175 386 -15 0
75 -32 146 0
-259 -211 -189 0
195 -123 48 0
217 -30 319 0
-226 222 16 0
74 207 -378 0
234 -46 -415 0
-280 -11 260 0
289 -27 -44 0
-23 -347 430 0
-227 -259 -68 0
479 49 -265 0
344 139 368 0
-56 289 -306 0
-105 -230 -134 0
230 53 46 0
-162 430 -145 0
-289 -211 -325 0
199 -312 98 0
61 172 -383 0
-196 53 52 0
220 59 -136 0
-152 -196 -436 0
-78 -64 -67 0
91 -422 -58 0
135 125 221 0
-64 7 56 0
12 -445 288 0
7 393 275 0
241 154 -38 0
-418 53 -144 0
-74 244 466 0
-487 98 166 0
-423 418 366 0
121 -268 -474 0
-23 1 -496 0
-271 173 222 0
-76 235 231 0
-271 -94 -41 0
189 -456 -249 0
-202 -356 -309 0
464 -461 490 0
-102 -474 -151 0
-430 -285 212 0
-56 348 193 0
54 167 191 0
174 253 234 0
-359 355 -309 0
-84 -97 233 0
-380 -385 63 0
-297 74 259 0
455 -312 419 0
-358 -220 225 0
-36 -62 -459 0
-415 452 95 0
318 500 71 0
397 322 92 0
-293 -481 412 0
-346 400 -488 0
20 -286 -395 0
-290 -414 189 0
-286 119 -332 0
112 449 159 0
-377 -261 166 0
306 421 -280 0
46 -381 -451 0
-248 -395 -352 0
-282 -331 -111 0
-34 -27 17 0
-39 339 493 0
-71 -34 -417 0
392 413 -117 0
1 255 -398 0
-198 -283 -454 0
314 101 200 0
399 225 -188 0
-229 6 57 0
-266 161 174 0
373 -468 216 0
-469 353 486 0
-38 -15 364 0
-9 346 222 0
-177 301 143 0
