p cnf 100 330
-57 -76 -72 0
58 -49 -42 0
-85 -2 -25 0
-85 -22 -76 0
22 27 10 0
-53 -46 57 0
-60 -18 -10 0
96 7 11 0
-73 -24 -74 0
-13 53 12 0
-50 37 67 0
-26 -96 -9 0
16 88 20 0
52 -86 90 0
-68 -69 -17 0
73 -28 -93 0
20 100 46 0
32 -17 -13 0
-84 26 -39 0
27 29 -3 0
-25 -27 39 0
82 18 -5 0
58 26 -75 0
-6 -51 25 0
14 51 -37 0
93 95 85 0
-5 68 18 0
8 88 -37 0
-82 -42 45 0
-86 -6 95 0
-96 19 -49 0
-84 64 -68 0
-83 37 -27 0
11 -53 -87 0
-33 32 -24 0
-47 8 93 0
26 18 42 0
-43 87 -41 0
-84 66 87 0
87 -9 53 0
-47 45 63 0
-65 -56 4 0
-84 -74 45 0
68 -76 40 0
65 -29 49 0
35 -5 11 0
-54 -16 90 0
-97 58 -59 0
-57 24 61 0
-55 -29 83 0
76 -44 -70 0
-71 -94 63 0
23 60 94 0
-70 -87 -67 0
-5 14 -84 0
78 -45 32 0
100 -97 93 0
56 -78 58 0
-32 -58 7 0
-83 -12 96 0
72 -37 -93 0
-8 -54 1 0
-89 -93 27 0
-71 57 -69 0
11 38 -59 0
34 -49 -10 0
-41 -20 -100 0
38 -59 -19 0
-13 -86 83 0
52 -11 -26 0
-95 -29 31 0
-64 95 15 0
-91 21 16 0
-55 -68 -93 0
100 39 -58 0
67 11 -75 0
63 69 2 0
-17 -32 33 0
46 69 -13 0
-25 79 69 0
4 -37 41 0
-52 91 -23 0
-21 -74 -2 0
94 -14 -72 0
-84 2 -80 0
48 97 -27 0
-74 -40 -25 0
39 83 -13 0
-70 -71 -32 0
38 64 -5 0
-30 38 -62 0
24 -51 68 0
-9 64 35 0
90 76 -50 0
46 43 -90 0
52 -15 -59 0
-77 -52 -26 0
-65 38 -55 0
-64 -12 -75 0
-75 4 16 0
14 83 19 0
30 60 -79 0
-66 49 56 0
-61 57 14 0
-89 -29 66 0
-7 78 -58 0
55 -44 -20 0
39 -28 23 0
95 87 38 0
7 -87 55 0
-1 44 38 0
62 69 -7 0
-5 -45 -51 0
79 74 -50 0
-89 9 -7 0
-2 -51 29 0
-45 -35 74 0
-97 -85 34 0
30 13 -1 0
2 -60 -23 0
-37 -70 -6 0
25 -51 -81 0
-9 57 67 0
-13 46 -26 0
-65 -60 -81 0
-29 -51 -1 0
-26 -28 60 0
-40 -5 -82 0
-31 -87 72 0
44 85 -8 0
-78 3 18 0
9 24 78 0
87 -44 11 0
-2 -3 60 0
-53 -45 35 0
41 -54 5 0
-32 -71 6 0
6 -87 -71 0
-6 -38 25 0
46 -5 -50 0
20 10 -31 0
-32 -40 -58 0
-63 92 78 0
47 -66 -38 0
-38 45 -92 0
-19 -71 -81 0
59 30 -79 0
56 66 -46 0
55 -76 -100 0
37 -27 13 0
-60 -63 -46 0
10 -8 45 0
-73 -76 -23 0
-79 -13 28 0
69 41 6 0
35 -45 28 0
16 -3 -99 0
-37 -2 -57 0
-81 -38 -1 0
-10 -40 -46 0
-33 -62 -80 0
82 21 64 0
83 -79 -70 0
91 96 53 0
-41 13 94 0
29 -28 77 0
-60 -91 -54 0
8 34 -86 0
96 64 -45 0
42 -99 -15 0
64 -68 52 0
-55 44 3 0
-29 -83 -22 0
14 -74 -39 0
-78 -32 -54 0
-86 18 -50 0
84 27 34 0
97 78 30 0
71 -27 88 0
32 20 3 0
2 -90 14 0
-74 -40 -68 0
-33 57 -73 0
89 54 -75 0
-19 18 64 0
5 -8 -71 0
-70 -35 -18 0
25 65 -97 0
51 13 24 0
23 93 -95 0
95 51 -45 0
21 -15 2 0
-76 -89 65 0
95 77 -23 0
-64 91 18 0
-62 67 15 0
20 52 -31 0
85 -74 -9 0
12 -5 -56 0
-35 99 65 0
7 35 -98 0
-75 13 60 0
-84 100 -51 0
-23 30 -50 0
11 49 -9 0
27 -67 26 0
-65 3 8 0
-87 -43 -45 0
-61 85 -22 0
-15 -45 -16 0
-13 -22 -29 0
-36 2 37 0
31 -64 7 0
80 55 -22 0
14 70 35 0
-92 44 43 0
39 100 53 0
-82 15 80 0
79 64 -36 0
-41 -52 19 0
86 29 42 0
52 -9 83 0
-30 -66 -5 0
-14 -85 73 0
-8 41 70 0
-34 51 26 0
-100 12 16 0
-70 -19 -12 0
20 -15 89 0
-76 9 47 0
-31 48 -7 0
81 -87 85 0
-66 40 -47 0
59 66 9 0
-92 -78 -48 0
-98 -48 11 0
52 50 -14 0
35 30 -32 0
-31 -19 78 0
94 83 -96 0
-69 14 59 0
24 100 97 0
-24 -32 -35 0
-56 37 45 0
99 53 18 0
59 50 14 0
-50 -11 16 0
-73 52 85 0
-80 28 69 0
-47 13 -60 0
-50 34 -18 0
27 -8 -30 0
90 -71 69 0
-52 -84 -71 0
-33 91 52 0
90 -23 44 0
56 -77 55 0
29 -17 -75 0
-75 -100 -17 0
-9 29 44 0
-49 12 76 0
92 -94 83 0
61 -50 74 0
-61 -94 -79 0
-74 -78 9 0
-69 76 3 0
-39 -30 67 0
15 44 55 0
74 -86 97 0
-26 -41 48 0
34 15 46 0
23 46 -40 0
49 -48 77 0
-93 -4 -37 0
-4 -28 25 0
-63 13 92 0
60 -25 85 0
25 -30 -78 0
-95 -91 -28 0
-52 -70 -25 0
-19 47 -3 0
-39 -74 -62 0
92 -53 -13 0
8 81 -43 0
-60 80 65 0
39 -83 -30 0
-34 -55 71 0
-18 67 -39 0
-75 -12 70 0
-95 62 99 0
48 94 -22 0
31 50 84 0
-97 -7 40 0
2 12 60 0
70 7 18 0
85 -79 62 0
-85 -94 92 0
-46 75 -40 0
37 28 93 0
-77 19 72 0
82 65 -91 0
-68 100 -87 0
2 33 -15 0
58 -86 71 0
94 30 -37 0
95 24 20 0
39 -61 67 0
-43 -60 3 0
78 2 -8 0
96 21 -49 0
-53 58 -54 0
58 42 -9 0
-31 -100 -93 0
-5 -12 36 0
21 -29 -2 0
-95 -13 -51 0
10 -53 47 0
68 23 -26 0
51 -49 -41 0
59 79 -41 0
10 -93 -89 0
27 54 26 0
75 -55 -73 0
-9 -71 50 0
-29 91 2 0
39 69 99 0
24 37 -67 0
25 32 9 0
1 -30 57 0
-43 -2 -52 0
