p cnf 100 330
-46 -66 45 0
82 96 26 0
47 -35 86 0
39 42 -66 0
68 -98 100 0
62 69 18 0
39 14 47 0
-41 -11 -96 0
95 -31 -34 0
-67 18 -16 0
-62 90 63 0
42 -21 -45 0
75 14 -44 0
-69 41 83 0
95 37 69 0
30 67 -8 0
-97 27 66 0
62 -52 -89 0
77 88 -2 0
89 94 10 0
64 74 -54 0
-68 -21 -100 0
-78 -6 -50 0
-38 -89 4 0
-19 40 81 0
-3 21 62 0
97 67 -66 0
-97 -36 -25 0
-82 17 -44 0
16 -30 3 0
83 -49 71 0
38 18 1 0
-14 5 49 0
-12 -77 88 0
-42 58 -80 0
-26 -54 60 0
32 15 62 0
81 10 58 0
-70 95 -36 0
-63 24 91 0
12 -72 -26 0
84 41 18 0
-59 -19 36 0
-96 51 -37 0
16 63 -31 0
-12 38 -93 0
50 44 93 0
-53 91 44 0
-29 -96 44 0
-8 89 -6 0
-74 90 -18 0
76 -61 -15 0
-57 29 -8 0
-42 41 -49 0
-100 64 -9 0
-29 1 -15 0
-38 -18 -90 0
-75 -90 -39 0
-14 -13 78 0
13 -81 51 0
-28 -21 7 0
8 89 5 0
-52 33 -90 0
-5 92 76 0
-27 -4 -80 0
40 86 3 0
-66 81 5 0
35 -61 -84 0
74 66 13 0
59 4 95 0
-18 -10 42 0
59 -20 65 0
13 -50 80 0
-33 -70 -77 0
-31 -28 -20 0
2 89 -35 0
-11 86 47 0
-57 -31 97 0
-23 65 69 0
33 -94 -44 0
53 -93 -61 0
-5 59 -37 0
-53 31 9 0
18 -60 12 0
73 -15 17 0
-82 83 97 0
35 -42 -59 0
-97 -58 -35 0
-22 -15 -54 0
-86 15 -81 0
-97 60 90 0
-70 -6 63 0
-28 -64 -78 0
80 91 -13 0
47 4 97 0
-82 -83 33 0
-13 -18 60 0
16 -8 -28 0
-71 -4 93 0
-53 -79 -89 0
-28 35 -77 0
82 4 -31 0
50 67 -85 0
59 -18 -7 0
49 2 -65 0
31 -95 76 0
36 -21 81 0
55 -92 68 0
33 -93 35 0
13 60 70 0
-98 -22 -6 0
53 27 51 0
-56 -39 -43 0
67 16 31 0
-92 72 -93 0
-38 -55 -8 0
29 -88 9 0
-36 44 -80 0
75 29 -61 0
75 -9 -3 0
6 88 86 0
38 -23 49 0
-89 -77 86 0
82 58 80 0
41 -36 14 0
-66 48 80 0
-8 78 48 0
-42 -95 -33 0
36 -40 -97 0
-9 -24 6 0
99 22 47 0
-12 -25 48 0
64 36 14 0
-37 94 -40 0
-44 71 -59 0
-80 -41 35 0
36 52 4 0
88 -32 89 0
10 51 62 0
29 70 -19 0
-92 12 -70 0
66 67 -57 0
70 -90 66 0
98 25 -24 0
72 46 58 0
69 85 18 0
28 -61 37 0
8 -66 -11 0
-55 -32 -99 0
-12 -6 49 0
8 100 87 0
-96 43 3 0
57 20 22 0
58 -90 25 0
57 -43 71 0
-36 48 95 0
74 -34 97 0
-87 62 -82 0
-84 41 49 0
-7 66 -91 0
46 -96 -47 0
-30 -71 92 0
25 21 53 0
-91 -70 -21 0
-92 -78 94 0
-52 -40 99 0
12 9 61 0
-47 37 -3 0
49 44 -70 0
-24 5 -41 0
89 73 -84 0
-96 34 66 0
44 41 16 0
-39 -38 31 0
71 -80 -78 0
92 37 8 0
-49 51 -5 0
-58 -26 -1 0
46 -65 95 0
43 22 91 0
74 45 23 0
26 -88 -63 0
-41 63 3 0
-8 -26 -2 0
23 44 -47 0
57 86 -68 0
32 49 -52 0
-55 -57 -97 0
-19 -41 96 0
38 -32 -61 0
-14 95 47 0
52 99 -30 0
95 -55 -53 0
45 54 -90 0
-93 -20 86 0
79 -48 61 0
-55 2 69 0
-55 -80 5 0
-68 97 24 0
-31 40 -22 0
-39 -49 15 0
68 44 -7 0
69 22 -14 0
-44 11 76 0
-73 -71 -9 0
31 -46 18 0
-93 -27 -33 0
39 38 46 0
-66 13 -55 0
84 -17 70 0
-31 25 9 0
-39 40 83 0
-24 72 76 0
-31 14 -24 0
-37 13 22 0
-49 -1 -4 0
81 85 5 0
-1 20 -62 0
46 7 -4 0
-34 -64 45 0
-51 -94 -84 0
46 71 39 0
-13 -99 -100 0
-86 -3 6 0
31 4 -62 0
-24 -61 81 0
-5 99 -90 0
-35 -84 73 0
22 -51 -6 0
63 48 25 0
-100 -99 81 0
-56 40 -71 0
81 42 -18 0
-78 96 -84 0
-22 -18 -97 0
96 58 73 0
-7 -50 -5 0
18 77 10 0
-62 -15 78 0
-54 -4 32 0
95 18 82 0
-48 40 -90 0
-21 86 -97 0
19 -28 -17 0
-93 30 18 0
-91 -73 41 0
-96 -36 77 0
-48 -64 38 0
38 48 45 0
49 100 -74 0
45 32 -97 0
2 4 65 0
-49 11 -14 0
-35 76 -69 0
99 -13 -50 0
72 -70 -71 0
-75 42 46 0
-10 -51 24 0
-38 -27 22 0
-50 98 -60 0
12 56 19 0
57 -88 80 0
35 -34 26 0
-62 -5 -17 0
-64 61 -21 0
25 2 -74 0
35 -12 -7 0
95 -13 -60 0
-88 97 -16 0
-20 -26 34 0
-52 -41 -69 0
-16 4 76 0
-94 54 82 0
57 -96 -1 0
59 11 -80 0
84 18 -29 0
24 -40 82 0
71 76 93 0
-75 -98 19 0
-72 12 -61 0
-45 -86 -87 0
-68 12 -72 0
-88 -92 86 0
-71 -38 66 0
1 53 -47 0
64 52 -31 0
85 58 36 0
81 8 -76 0
-34 37 78 0
1 -20 82 0
-44 -61 -64 0
98 -33 -15 0
-16 40 49 0
-16 8 -30 0
89 35 -8 0
-69 98 19 0
74 26 76 0
-70 -32 -65 0
15 80 -47 0
-96 80 -32 0
-75 -93 -59 0
56 -46 34 0
-81 59 -36 0
1 64 -84 0
-1 62 69 0
-77 -38 55 0
-60 -52 51 0
-85 -86 -9 0
70 -54 26 0
12 24 80 0
71 91 93 0
-73 -87 42 0
4 -35 -28 0
-14 3 -61 0
-77 -44 91 0
99 -19 36 0
-47 22 -90 0
12 96 15 0
-58 70 -26 0
-29 -88 -10 0
-6 -77 -86 0
9 -98 40 0
-57 -96 -38 0
-4 -27 -90 0
-77 12 -93 0
84 -24 26 0
-92 -83 -76 0
34 38 -89 0
-94 86 29 0
-3 -97 76 0
