p cnf 200 560
-54 41 -150 0
54 -133 -155 0
28 -33 75 0
184 93 -190 0
-190 90 -155 0
109 -53 188 0
-53 -186 -61 0
-134 155 -167 0
-149 -81 -185 0
-107 -81 -150 0
9 -76 -139 0
-93 -83 33 0
-5 -30 -92 0
1 -105 -8 0
76 -7 116 0
-116 112 156 0
63 -29 172 0
123 147 -90 0
-35 69 -196 0
-26 -189 105 0
123 -179 11 0
-87 118 -66 0
-106 193 -169 0
-167 63 -139 0
-193 -61 -119 0
43 131 48 0
-182 87 134 0
119 67 137 0
-177 163 59 0
2 -18 89 0
-76 -8 -34 0
-159 -17 153 0
163 70 -55 0
107 -84 -96 0
13 186 198 0
-42 -33 -194 0
-98 77 155 0
-23 -95 -162 0
77 -132 -197 0
-178 43 -57 0
-63 166 -180 0
18 114 40 0
141 -108 57 0
-163 -184 99 0
-94 -143 -62 0
-30 -57 17 0
135 -85 24 0
139 -106 33 0
-170 119 -152 0
-27 15 -3 0
167 -26 115 0
-158 -62 67 0
47 115 59 0
-178 -78 -115 0
-189 90 123 0
193 -200 -151 0
-31 145 -168 0
42 -52 25 0
2 91 -75 0
-45 -116 -187 0
143 -20 106 0
-47 -165 34 0
142 -189 36 0
161 59 15 0
33 136 61 0
2 188 91 0
-79 -154 19 0
45 166 -147 0
-196 50 110 0
-57 110 173 0
6 -200 125 0
24 -57 -56 0
-96 -171 181 0
107 -22 -139 0
185 195 3 0
-109 124 85 0
-142 178 57 0
171 -155 97 0
98 -29 -31 0
-51 115 -89 0
-193 164 -103 0
-138 -59 51 0
-171 82 -177 0
-42 -84 166 0
98 11 165 0
-78 -176 116 0
186 -21 34 0
21 63 58 0
-170 182 1 0
-116 -69 157 0
-57 55 -156 0
-51 157 62 0
-185 187 8 0
-95 116 25 0
49 -86 -26 0
45 16 -117 0
118 -91 -76 0
-74 -20 6 0
-149 -36 -172 0
36 87 122 0
-64 37 36 0
-142 127 -40 0
-115 196 -3 0
-184 80 -47 0
-161 -85 -66 0
106 -151 -102 0
-165 18 -24 0
178 -155 62 0
-140 -89 -33 0
31 -116 -38 0
-101 42 168 0
-112 98 193 0
176 148 -79 0
49 174 156 0
-168 37 -117 0
-117 133 149 0
124 -164 109 0
14 141 85 0
-195 -167 53 0
-155 -67 -180 0
-130 -120 116 0
38 97 -160 0
-23 47 195 0
-111 49 -104 0
-30 198 42 0
114 110 120 0
-188 -115 200 0
175 108 -28 0
-104 94 197 0
-33 -147 -67 0
-54 -80 -116 0
-27 -173 25 0
-157 -190 98 0
-46 -55 142 0
52 139 -77 0
29 -51 -150 0
-164 -118 113 0
29 -99 -48 0
25 -43 151 0
-52 44 194 0
1 -32 -9 0
47 161 177 0
-116 -12 -190 0
86 169 123 0
139 -78 -142 0
-14 -13 7 0
35 131 148 0
-189 -3 177 0
94 6 147 0
168 -99 -186 0
-183 -143 147 0
-15 -63 -186 0
-55 -149 -64 0
3 137 68 0
165 84 82 0
-148 104 -37 0
27 99 51 0
-171 181 -127 0
-129 126 63 0
-12 -108 -11 0
-180 -116 -182 0
-73 -136 -154 0
10 60 -153 0
142 -157 131 0
-43 20 -56 0
196 182 -70 0
192 -117 189 0
172 51 -169 0
-91 171 10 0
-7 -144 65 0
111 185 -80 0
-194 -21 -111 0
50 -81 -29 0
-169 -148 -56 0
135 134 84 0
69 -3 118 0
63 -47 -17 0
40 171 179 0
50 -87 -200 0
-155 54 51 0
-158 159 1 0
-144 74 17 0
45 -112 44 0
-5 -16 14 0
33 4 -113 0
-173 -120 -189 0
-90 -35 103 0
87 -91 -9 0
10 108 91 0
134 -96 159 0
-120 37 44 0
37 -181 -169 0
-60 -15 -144 0
-124 117 -104 0
35 -41 123 0
-199 -49 162 0
35 -90 181 0
51 -50 129 0
-46 78 166 0
-113 103 156 0
88 126 -73 0
-17 -118 -20 0
-33 -181 28 0
-101 -77 2 0
147 5 -14 0
38 73 140 0
-29 -52 -4 0
-25 108 -82 0
-59 -51 -194 0
185 177 -188 0
181 50 153 0
-60 114 61 0
-18 -104 49 0
16 145 78 0
-75 -57 -102 0
-94 132 79 0
156 97 7 0
69 20 49 0
36 -81 144 0
39 -12 90 0
-59 178 89 0
-60 -106 157 0
-183 -45 -35 0
187 -138 -186 0
101 117 54 0
-33 -165 125 0
143 132 -26 0
63 24 140 0
-164 -74 -31 0
119 79 53 0
78 148 74 0
144 -15 -61 0
-48 -169 74 0
-16 -55 -175 0
200 111 -150 0
-109 -163 -88 0
-71 -106 152 0
134 -67 -153 0
-182 31 -197 0
180 -108 114 0
-107 97 46 0
-127 180 143 0
55 -76 29 0
1 -17 -157 0
-153 -14 -189 0
130 97 42 0
102 -141 -105 0
140 -5 81 0
-96 -85 19 0
-123 189 -93 0
-97 118 198 0
111 174 90 0
83 -45 -156 0
103 144 165 0
-185 62 -168 0
148 -17 -191 0
-80 -127 191 0
168 -52 140 0
166 183 -93 0
-149 -6 -4 0
-186 16 9 0
-99 -109 -177 0
149 103 193 0
185 -183 -191 0
-156 -136 183 0
-17 -93 -184 0
-44 -34 -141 0
151 -172 191 0
198 -64 -5 0
-162 13 1 0
-200 128 -122 0
-183 -191 -82 0
-107 -124 20 0
-38 -137 -90 0
-144 37 84 0
189 73 4 0
144 -56 -28 0
61 -169 -141 0
-104 -140 62 0
-152 80 -107 0
199 4 -23 0
-38 121 -146 0
11 -12 -92 0
158 -111 -177 0
-5 -37 108 0
56 31 156 0
-117 -29 161 0
-65 152 -27 0
-55 -129 -199 0
150 -196 125 0
-122 -100 200 0
-32 -28 -197 0
45 66 108 0
2 56 -68 0
-147 66 127 0
27 3 -58 0
-47 -21 24 0
50 140 -138 0
-152 137 -53 0
-186 -107 74 0
-196 184 79 0
190 185 159 0
62 133 37 0
-58 -168 14 0
157 -188 -12 0
-189 -197 -53 0
-63 87 45 0
-192 -103 -8 0
89 -50 -32 0
-179 -30 49 0
-176 -174 -25 0
165 110 65 0
74 127 -141 0
-41 79 -140 0
-114 -19 -195 0
-19 -99 -132 0
-16 -108 79 0
130 -158 87 0
-60 -5 -169 0
-175 192 123 0
160 -37 -122 0
47 -184 -117 0
185 -76 -108 0
62 -104 1 0
171 -160 17 0
184 170 3 0
177 12 85 0
-172 183 -114 0
182 121 123 0
45 -7 -153 0
4 25 -145 0
-187 -158 -60 0
-172 13 -60 0
159 71 78 0
-129 50 -16 0
-30 -184 57 0
-136 133 99 0
-81 117 -132 0
-115 145 -60 0
180 134 23 0
-95 84 174 0
90 -75 142 0
195 -101 -166 0
-194 108 -192 0
156 -23 -45 0
6 -138 -124 0
-92 27 180 0
-189 -15 -178 0
-69 23 -19 0
-55 -186 -147 0
-100 -65 77 0
-36 -89 -87 0
50 76 -180 0
48 153 -109 0
116 -162 -189 0
195 184 -103 0
-139 128 -37 0
-187 -147 -29 0
-75 -122 5 0
20 -40 -34 0
129 31 48 0
-149 71 2 0
-118 24 -90 0
170 148 56 0
-166 80 6 0
-150 -82 27 0
-29 8 -24 0
-21 98 193 0
16 -183 -197 0
125 -6 8 0
-159 -2 -116 0
75 -105 -142 0
-72 118 -26 0
17 -94 -111 0
86 -158 -6 0
-34 -110 200 0
30 -161 -98 0
-90 75 142 0
123 -99 188 0
33 125 85 0
178 186 -17 0
127 131 -63 0
-122 24 -132 0
78 -18 -77 0
189 -76 192 0
109 -57 192 0
-175 -159 -105 0
-77 -96 36 0
177 -165 101 0
-25 147 -164 0
-158 -166 196 0
73 112 103 0
-6 -108 126 0
2 91 174 0
-150 10 83 0
129 -138 45 0
65 18 115 0
-117 -98 -30 0
-6 -167 -44 0
33 -112 61 0
-176 -123 85 0
71 -179 89 0
-132 -27 110 0
154 177 27 0
-32 147 -117 0
-174 -132 131 0
-101 12 -123 0
107 -154 180 0
13 -93 -40 0
146 -176 -155 0
164 -62 -168 0
12 30 96 0
-61 -49 165 0
23 -34 -111 0
-10 -49 -40 0
-177 -103 -5 0
79 -183 160 0
125 -108 -97 0
61 -130 81 0
-50 154 165 0
57 12 -187 0
87 68 -2 0
-87 102 100 0
-150 128 -67 0
-18 139 171 0
172 -192 -163 0
60 -62 45 0
152 33 103 0
175 -172 -114 0
-39 -7 184 0
115 182 -4 0
-153 -125 -99 0
118 -71 150 0
176 -37 101 0
20 -35 140 0
-86 48 -36 0
-138 67 -43 0
-69 79 -133 0
89 69 164 0
190 -26 83 0
-175 153 -66 0
22 189 47 0
-2 63 191 0
21 186 142 0
-174 -199 -175 0
-124 66 -97 0
38 -128 147 0
61 -64 76 0
-86 -65 154 0
-10 14 -49 0
-53 -83 -181 0
189 99 -98 0
-64 -30 138 0
80 -152 199 0
58 193 120 0
46 -36 80 0
89 128 153 0
-17 -169 -40 0
-22 23 86 0
-160 44 -149 0
-143 23 -167 0
36 163 56 0
-54 66 -119 0
171 189 112 0
16 -132 112 0
-115 47 -70 0
-7 -99 31 0
-158 22 41 0
-32 -90 -98 0
-19 -126 145 0
-107 144 125 0
-2 178 18 0
14 29 1 0
-93 111 173 0
-188 99 7 0
188 -161 86 0
-72 -94 143 0
102 174 -176 0
-137 -101 40 0
-44 194 -142 0
1 28 198 0
69 -172 159 0
-183 -63 -73 0
-152 -96 57 0
-104 -158 -149 0
-6 -19 149 0
-125 -114 110 0
-124 -15 81 0
-172 -119 58 0
1 -119 57 0
-165 -83 175 0
-155 -165 -59 0
-198 51 119 0
37 -192 -36 0
60 -20 -18 0
-16 -78 -88 0
62 158 -45 0
-157 -17 138 0
140 59 -114 0
-179 -50 117 0
145 -2 1 0
-71 119 64 0
85 -138 -16 0
-181 -107 -61 0
137 -185 109 0
-13 -74 -143 0
90 -104 39 0
25 -136 140 0
-48 54 -104 0
-91 92 45 0
6 -16 123 0
-128 -147 -65 0
100 131 -93 0
-76 113 -195 0
-73 67 -166 0
20 -133 112 0
125 -169 -76 0
54 -165 124 0
13 -101 -121 0
-21 -118 -68 0
54 160 -4 0
84 -82 14 0
148 -144 73 0
159 196 60 0
150 -91 -45 0
85 -14 55 0
145 90 -11 0
9 145 114 0
200 -110 -16 0
-154 -34 -193 0
-66 86 -127 0
-103 96 39 0
-58 197 -83 0
-59 -16 -64 0
194 31 6 0
108 -33 -53 0
-98 -136 150 0
173 124 119 0
-196 199 -143 0
31 104 126 0
85 40 -80 0
86 42 -49 0
92 100 -48 0
175 49 -28 0
191 -41 -118 0
-103 178 106 0
198 168 -151 0
-2 61 177 0
160 -9 -92 0
-171 -33 41 0
127 102 87 0
90 32 89 0
33 -174 -172 0
20 185 87 0
-64 -72 -107 0
-102 131 -6 0
109 -113 -187 0
-149 45 147 0
-80 -85 199 0
58 -158 179 0
