p cnf 100 340
-33 37 93 0
-84 22 52 0
-25 73 81 0
72 -20 44 0
-80 -3 -79 0
27 22 59 0
-52 27 -92 0
34 -70 81 0
-71 40 -44 0
-34 38 -28 0
81 -8 86 0
31 -64 -99 0
-57 52 31 0
57 -71 41 0
66 58 -59 0
75 -86 9 0
-6 -40 -80 0
99 52 -62 0
-39 -47 13 0
-31 -40 -49 0
-22 57 90 0
46 78 10 0
46 76 22 0
74 59 33 0
8 12 2 0
-43 80 -63 0
-11 -13 19 0
27 74 45 0
-43 -80 82 0
-33 -20 90 0
-28 58 35 0
34 87 3 0
37 83 61 0
45 -55 9 0
9 -35 51 0
-38 92 -81 0
44 10 -14 0
57 -40 -54 0
-68 -16 -99 0
90 39 3 0
-28 -68 -95 0
78 -80 -25 0
17 -57 79 0
-71 8 79 0
-16 -49 -84 0
4 -16 -68 0
92 6 2 0
-55 1 41 0
17 12 65 0
-41 43 39 0
4 -44 7 0
-19 61 74 0
-98 -56 6 0
36 -1 91 0
34 72 -48 0
15 -59 -14 0
86 -16 -45 0
-47 -21 23 0
82 100 -26 0
30 73 88 0
99 71 53 0
-42 2 -98 0
-19 2 56 0
70 -93 11 0
-8 -94 -45 0
-56 -17 -23 0
-75 56 -78 0
-79 89 84 0
99 -9 -77 0
20 83 43 0
-69 66 3 0
77 -26 84 0
95 94 -4 0
-96 -75 45 0
-6 17 56 0
22 73 75 0
-51 28 72 0
-54 3 9 0
21 -50 -53 0
-36 -88 48 0
-68 -70 -13 0
-20 37 83 0
-18 -61 -8 0
61 -51 -65 0
-55 28 71 0
-97 -82 55 0
-60 -99 -67 0
-48 55 -25 0
-1 -94 20 0
15 79 -14 0
-50 34 -98 0
-64 65 -14 0
40 16 31 0
22 -45 82 0
84 -65 83 0
-95 82 23 0
-4 -34 -99 0
-77 85 -5 0
3 -23 48 0
-82 -96 58 0
32 -25 -9 0
11 14 -77 0
-79 -11 59 0
-32 84 70 0
-39 -58 -61 0
53 -66 99 0
35 71 68 0
-91 -74 13 0
2 95 17 0
-57 31 18 0
-1 16 65 0
-44 84 -51 0
25 -63 83 0
16 100 -64 0
86 4 -75 0
-34 28 56 0
-48 -23 54 0
-62 -51 -93 0
33 90 84 0
12 70 75 0
85 98 -61 0
-99 84 86 0
-81 5 -27 0
-81 -70 50 0
76 -44 -6 0
100 36 -83 0
91 42 -27 0
96 39 81 0
-10 -20 92 0
25 -81 91 0
51 -38 90 0
4 -28 72 0
-8 -7 -34 0
-77 30 -96 0
-35 9 -63 0
-31 -13 -5 0
-3 -59 -91 0
-33 6 -98 0
-61 81 44 0
98 45 60 0
-73 -88 -5 0
73 -82 -63 0
-12 80 -95 0
1 -31 -51 0
12 68 67 0
-85 -27 -44 0
-83 10 12 0
66 -39 -8 0
9 -8 63 0
-5 -35 52 0
-57 -28 -98 0
67 -66 38 0
1 72 89 0
-81 -21 -38 0
-86 -63 -67 0
11 -79 84 0
-54 62 60 0
95 -33 -19 0
-66 28 21 0
-43 62 -1 0
41 57 -42 0
9 -31 64 0
33 78 -83 0
59 -63 45 0
-67 11 -13 0
-71 28 -21 0
-55 12 34 0
-19 -69 -97 0
-44 -28 15 0
50 -91 -38 0
1 12 72 0
-22 85 -35 0
-51 -50 -88 0
-13 -42 57 0
-91 50 18 0
30 49 -89 0
-56 -100 -36 0
-6 -12 20 0
75 -17 -30 0
41 -70 -3 0
-34 11 74 0
-13 -6 -40 0
32 -56 90 0
63 -83 -85 0
-66 -56 -12 0
-91 -43 21 0
61 25 -97 0
-54 70 -93 0
99 -58 22 0
81 -72 -18 0
69 -84 -17 0
-30 79 -78 0
-21 -33 -58 0
-18 15 12 0
-55 -22 45 0
-20 -42 -4 0
-5 62 -31 0
63 -66 60 0
-41 24 56 0
-58 -98 69 0
96 -24 42 0
17 -92 -41 0
-97 91 31 0
-15 -86 -31 0
23 38 -19 0
-35 30 56 0
45 -24 72 0
72 -50 76 0
-4 -80 52 0
-22 -68 52 0
75 -93 -86 0
-58 30 92 0
-42 -91 -29 0
99 66 -90 0
-30 -9 81 0
22 97 -7 0
77 -45 24 0
-92 -77 -11 0
-81 -58 38 0
1 11 68 0
32 -71 -45 0
-55 88 43 0
96 -64 -12 0
100 68 -34 0
80 48 -13 0
-19 -72 -51 0
-33 63 -24 0
22 -90 -80 0
23 -21 -36 0
8 21 60 0
-69 11 23 0
9 42 -29 0
91 -81 -54 0
67 -62 -17 0
-55 49 -52 0
-68 79 -92 0
99 -72 -92 0
33 -52 -10 0
-28 -85 -29 0
90 -99 65 0
49 35 -5 0
46 -45 -81 0
-49 74 -22 0
49 64 -42 0
-17 -11 26 0
-60 68 98 0
-45 -84 -91 0
88 -68 -50 0
-35 68 -3 0
-73 -10 -52 0
-76 77 81 0
-7 -92 -38 0
41 -85 -12 0
-99 37 62 0
80 11 88 0
43 78 1 0
-65 50 -15 0
72 7 -19 0
-64 -32 -5 0
33 81 -83 0
-6 -78 19 0
95 22 23 0
83 -42 -7 0
-5 14 -94 0
63 97 26 0
25 -66 -43 0
18 37 -54 0
-6 -26 30 0
59 28 3 0
95 -76 63 0
-68 -91 65 0
-49 -27 -55 0
-78 11 16 0
8 -1 -46 0
-66 39 -16 0
83 -45 -39 0
-51 67 54 0
2 -44 -59 0
34 28 -12 0
-57 5 -59 0
-55 49 -90 0
-60 -34 -97 0
37 1 58 0
-35 34 -21 0
-91 14 -62 0
-42 74 -23 0
17 41 39 0
-35 -18 40 0
-35 88 -9 0
-15 71 97 0
80 4 -83 0
-68 62 72 0
52 -11 -84 0
6 10 -28 0
-49 -26 20 0
55 -46 68 0
-59 2 21 0
-54 -71 -69 0
-60 -40 -79 0
-21 73 35 0
64 -48 -8 0
57 61 -22 0
85 75 -69 0
-27 -17 -25 0
-66 -65 94 0
-72 -59 66 0
82 -22 -14 0
-42 50 -54 0
-60 -29 51 0
-43 -100 5 0
61 45 51 0
-9 -83 72 0
-78 -35 59 0
59 23 -98 0
63 -89 -66 0
-81 3 -11 0
60 38 -67 0
-52 -14 -73 0
57 -91 -30 0
-20 11 -90 0
33 -76 -14 0
-60 20 77 0
75 39 26 0
42 -58 -93 0
28 -77 44 0
-44 -83 49 0
-42 -57 13 0
6 41 -10 0
-49 47 -89 0
85 -42 -19 0
-61 -20 -10 0
8 91 35 0
-49 60 52 0
-68 93 28 0
-22 57 -75 0
21 1 23 0
94 99 -30 0
-38 32 16 0
86 18 -27 0
-44 -62 -36 0
