p cnf 100 340
31 43 -73 0
-77 32 69 0
12 -92 -87 0
-31 59 36 0
54 -15 -28 0
-98 8 -81 0
6 -29 -87 0
70 -96 2 0
44 -93 2 0
10 70 52 0
78 73 -8 0
-31 3 39 0
77 -16 -10 0
24 59 22 0
-81 97 -61 0
-61 -89 9 0
51 -39 -5 0
-60 34 59 0
-73 -74 60 0
28 57 -77 0
-33 41 97 0
22 55 34 0
80 -4 27 0
-50 -9 32 0
58 -75 -71 0
-84 96 43 0
-94 58 -52 0
14 84 -20 0
-4 16 -40 0
-62 68 -77 0
81 64 -1 0
94 -1 37 0
88 -85 2 0
60 -92 82 0
-38 65 -32 0
-24 21 -46 0
68 56 -6 0
98 91 -39 0
-76 -92 -57 0
-21 91 5 0
-66 -53 -93 0
-58 18 -62 0
-97 -61 -8 0
-45 -39 -30 0
47 -62 34 0
88 6 -46 0
-97 -62 11 0
-88 -76 -90 0
-41 40 -99 0
-43 6 82 0
-80 -19 67 0
15 87 -69 0
11 8 -92 0
79 48 -76 0
69 42 100 0
43 53 64 0
75 13 100 0
73 2 26 0
85 -21 -30 0
-74 15 27 0
-52 -46 99 0
-28 86 38 0
74 -73 -4 0
87 69 33 0
55 -28 18 0
61 -79 28 0
19 54 -78 0
-74 -66 68 0
-14 89 28 0
-83 21 63 0
-82 38 41 0
37 -1 -46 0
-69 54 28 0
46 -19 -23 0
-23 -98 -32 0
30 57 -86 0
-8 64 -85 0
-37 54 -8 0
-34 7 61 0
8 36 58 0
37 -28 40 0
91 -8 84 0
-2 -90 49 0
-57 -3 -26 0
-19 76 38 0
2 74 -48 0
35 -81 -14 0
-29 -87 -54 0
40 80 4 0
-13 24 -5 0
60 -81 -25 0
-61 -36 -88 0
9 96 77 0
24 21 -28 0
11 -82 -23 0
32 65 31 0
71 -53 -75 0
81 97 52 0
-61 -88 -75 0
-87 -8 24 0
33 57 87 0
14 89 -46 0
42 -100 68 0
21 32 26 0
91 24 92 0
75 99 7 0
-36 69 88 0
-95 -13 15 0
12 28 27 0
92 33 -31 0
9 65 -38 0
42 -10 -17 0
-63 -81 43 0
-82 18 69 0
-53 90 -43 0
99 77 -41 0
11 71 -4 0
81 89 -31 0
100 46 -15 0
23 85 -25 0
-63 -91 -18 0
60 24 39 0
55 47 -66 0
-10 -35 -87 0
64 -93 -11 0
85 97 -77 0
80 -74 77 0
-22 33 99 0
-92 35 -22 0
-28 73 -43 0
-91 -65 -12 0
-9 83 28 0
-72 -17 -1 0
-76 -88 2 0
34 8 72 0
-73 21 43 0
75 -100 -90 0
-50 82 48 0
-17 -81 -47 0
-87 -66 37 0
21 -89 -55 0
14 -95 61 0
-44 92 -76 0
-87 -84 68 0
43 15 96 0
85 37 -84 0
12 -19 -63 0
-43 -66 -5 0
-35 85 89 0
-90 76 -80 0
-6 -5 60 0
33 -94 78 0
68 -9 -26 0
12 29 26 0
-61 76 81 0
-37 34 -15 0
-58 48 94 0
-94 99 2 0
-47 -43 38 0
57 50 -81 0
1 -22 -87 0
90 60 7 0
-24 20 -8 0
24 -73 -65 0
-62 -75 -25 0
8 -20 40 0
-66 -31 77 0
-11 -39 47 0
-46 -15 86 0
-12 42 93 0
54 -4 12 0
21 99 -9 0
-80 15 -32 0
53 56 83 0
1 -8 -77 0
48 -36 -2 0
-91 72 34 0
7 -92 39 0
-74 -83 -76 0
83 31 84 0
91 -80 33 0
-30 -15 96 0
54 -83 -18 0
-88 -30 -4 0
-61 -37 -7 0
-76 -61 31 0
-33 -78 -21 0
77 -86 67 0
62 38 -15 0
16 -42 38 0
49 -63 -20 0
63 67 -75 0
-18 -100 -83 0
26 10 -91 0
49 3 -11 0
93 -85 -84 0
-94 -81 -19 0
-34 -49 -87 0
-30 76 16 0
-61 51 -91 0
37 -43 2 0
-95 25 76 0
-66 -19 73 0
-66 -79 -50 0
-4 -15 46 0
-12 -6 15 0
52 -53 46 0
-83 -79 -46 0
-17 35 -65 0
-54 51 47 0
-56 -70 -67 0
-14 90 27 0
-11 90 49 0
8 -93 -86 0
-39 -23 29 0
48 28 86 0
42 -73 -55 0
40 -95 74 0
36 91 -75 0
93 -69 82 0
59 -72 -26 0
1 -66 -9 0
39 -19 32 0
10 81 -23 0
33 93 68 0
-13 -25 -65 0
46 80 34 0
2 16 51 0
-31 81 82 0
-91 -33 39 0
86 -4 61 0
100 -54 94 0
-54 24 -23 0
-90 51 -53 0
96 -78 -58 0
94 -83 -15 0
11 -68 -89 0
14 -81 -86 0
24 96 46 0
64 -84 78 0
-3 -97 -84 0
91 -92 -36 0
-84 -36 14 0
-98 41 -75 0
-13 98 -40 0
-22 -27 14 0
58 7 -23 0
-23 9 84 0
-74 63 97 0
30 91 77 0
72 10 -85 0
32 -44 -10 0
13 -96 -62 0
77 26 -69 0
-86 -33 -9 0
-10 77 -83 0
69 -84 21 0
-15 -100 -83 0
-55 -98 52 0
-93 66 -48 0
-61 -31 -69 0
58 -16 -48 0
-29 88 24 0
40 6 -16 0
5 24 99 0
-55 46 83 0
-55 13 83 0
-76 81 -47 0
-83 -84 -40 0
8 48 -40 0
92 74 -35 0
-62 -18 -39 0
23 67 92 0
-45 58 25 0
26 -36 40 0
35 44 77 0
-24 86 8 0
-35 -36 85 0
85 -28 75 0
3 -42 79 0
-67 25 -18 0
-46 -88 -3 0
-42 35 95 0
72 -69 16 0
-59 -4 37 0
29 -22 47 0
13 -71 75 0
83 27 -2 0
-75 -33 67 0
-27 93 -52 0
29 23 81 0
-37 40 -41 0
-50 -82 -99 0
14 -51 87 0
9 12 -90 0
-94 -73 96 0
-40 50 18 0
41 65 -2 0
-13 51 60 0
-8 83 76 0
-70 -82 -2 0
92 35 -69 0
42 53 84 0
-50 76 -72 0
16 54 -71 0
33 -19 79 0
-23 -31 -72 0
94 92 1 0
-54 7 -38 0
49 83 62 0
87 -49 92 0
16 75 31 0
-79 11 -85 0
-65 85 32 0
-37 94 43 0
96 71 56 0
78 -43 77 0
-10 81 4 0
7 9 -57 0
18 90 -50 0
100 -94 21 0
-91 84 -90 0
97 -36 -82 0
-11 40 89 0
6 -12 53 0
7 96 28 0
14 -2 -50 0
47 82 71 0
96 4 -83 0
10 -100 80 0
19 68 -3 0
-33 -16 44 0
84 12 21 0
-82 -7 -1 0
-5 36 -91 0
-52 24 63 0
30 15 -11 0
64 82 -14 0
91 16 -11 0
-93 -1 -71 0
