p cnf 500 1950
382 -405 431 0
442 -116 -284 0
243 10 -303 0
191 266 -166 0
-135 -421 22 0
-490 -292 394 0
91 271 396 0
-145 238 -209 0
484 -254 -398 0
88 426 -361 0
478 128 134 0
-16 -307 -370 0
-291 281 48 0
-377 -89 84 0
296 -268 -113 0
129 245 -208 0
-486 489 230 0
148 -349 178 0
329 429 -450 0
309 -178 -82 0
291 412 237 0
-160 -95 498 0
-20 417 -237 0
-158 -127 -372 0
-225 -2 92 0
-259 165 92 0
-396 403 -260 0
-233 156 461 0
62 -469 431 0
-8 -363 -109 0
456 355 398 0
-464 414 68 0
-423 -416 87 0
-477 73 -142 0
165 153 199 0
-293 271 -374 0
91 -150 -210 0
-427 248 326 0
-292 43 323 0
318 -459 5 0
-436 -97 -43 0
238 -423 -84 0
-498 -424 -344 0
-328 244 243 0
245 -383 170 0
477 432 -107 0
336 -253 144 0
-311 -251 -14 0
381 192 -152 0
-11 -189 -426 0
367 209 -477 0
-308 205 497 0
-18 -11 112 0
-450 -255 76 0
87 -4 354 0
-268 222 43 0
465 453 -82 0
-179 476 445 0
16 -408 -370 0
-273 497 -456 0
401 375 -251 0
-289 -101 147 0
100 -386 96 0
-333 -342 359 0
388 129 -282 0
-160 280 42 0
209 -23 -222 0
246 -310 406 0
-477 395 209 0
-3 -280 348 0
201 -128 123 0
-146 257 -192 0
-12 16 395 0
-232 -393 -478 0
81 -376 485 0
492 -276 -324 0
228 268 -16 0
370 97 -155 0
165 156 -305 0
-161 -152 -465 0
35 -259 -245 0
385 -226 -261 0
413 -148 56 0
301 -364 363 0
93 -350 -444 0
44 325 302 0
22 243 -380 0
150 -75 -65 0
-422 178 157 0
336 -497 -159 0
109 146 75 0
-448 -325 138 0
-210 -465 399 0
-202 -445 -91 0
-179 360 -61 0
225 -426 54 0
-223 467 352 0
402 297 355 0
110 -273 67 0
416 377 -374 0
125 391 418 0
52 -313 199 0
-84 362 -286 0
-250 -37 145 0
-122 -150 36 0
117 153 -123 0
-291 328 -300 0
181 -10 -199 0
-335 -63 -354 0
173 -8 -392 0
97 487 -449 0
350 -344 238 0
-450 -222 -23 0
160 299 114 0
351 -399 -359 0
-236 -355 177 0
404 457 309 0
-264 172 -12 0
355 381 22 0
-475 -396 472 0
63 4 -447 0
-263 -480 -342 0
-44 -353 461 0
-439 -278 467 0
374 102 64 0
-472 -408 -95 0
193 -4 319 0
-390 268 -126 0
-410 44 36 0
-358 416 -223 0
-14 242 -383 0
340 -312 -66 0
-9 222 -412 0
-367 -415 -207 0
-270 -112 156 0
159 177 500 0
-237 207 62 0
-323 492 -185 0
-337 310 67 0
-162 -366 -340 0
-354 -78 -262 0
-143 -121 -406 0
-375 -183 187 0
151 -441 -87 0
-425 -153 -57 0
174 200 320 0
-262 -483 295 0
-84 132 -50 0
-153 375 85 0
-167 498 -444 0
-369 462 -84 0
-253 102 47 0
392 78 333 0
206 -20 354 0
-72 -145 309 0
16 -300 -36 0
-185 -18 -448 0
128 -229 52 0
423 -171 -236 0
171 -472 -346 0
258 321 51 0
-326 -51 -264 0
159 22 167 0
121 334 407 0
-14 217 -356 0
-277 452 -282 0
-118 -408 -1 0
-86 -299 -38 0
-494 -385 -225 0
355 412 -55 0
-109 -427 -387 0
123 -273 -453 0
45 -353 -432 0
356 12 48 0
-242 -491 329 0
-21 -445 355 0
-114 -121 259 0
-300 24 -412 0
207 -11 59 0
466 487 426 0
-272 -57 200 0
-226 479 463 0
-494 438 303 0
295 466 124 0
-327 243 -247 0
322 -442 406 0
-249 261 189 0
209 402 54 0
240 469 230 0
-40 465 -367 0
98 -449 -190 0
421 278 -21 0
-123 370 -119 0
481 492 248 0
33 292 -407 0
-469 -244 299 0
217 -412 116 0
18 357 262 0
-498 340 275 0
-71 300 -170 0
110 370 -436 0
378 -403 473 0
185 -232 -5 0
312 191 -452 0
369 80 -333 0
337 -358 485 0
-175 -267 434 0
392 291 -314 0
247 314 -130 0
142 -242 338 0
-111 -251 -422 0
217 376 429 0
205 -90 -10 0
52 -98 -75 0
369 -447 -215 0
381 -183 -290 0
-261 -296 167 0
28 -323 424 0
-43 15 112 0
486 441 217 0
373 155 -128 0
-369 -251 -71 0
371 94 -109 0
-157 263 64 0
198 51 -230 0
-320 29 346 0
160 -119 418 0
-384 439 465 0
388 -239 328 0
-418 -195 391 0
-473 439 181 0
-414 -77 -332 0
-255 46 -476 0
466 -140 -130 0
248 -94 -338 0
-343 58 -20 0
314 -106 341 0
465 410 -295 0
-303 421 -306 0
419 -173 81 0
392 164 -120 0
-456 -12 168 0
221 374 439 0
-388 -178 -486 0
-255 26 -128 0
57 152 -466 0
-254 98 -251 0
-124 -24 -432 0
448 269 286 0
-427 -468 425 0
-428 -494 -65 0
-134 -97 -441 0
455 374 -246 0
308 -16 -500 0
-313 208 -167 0
141 -433 177 0
-283 -483 358 0
-418 286 -28 0
-482 -216 -33 0
-262 32 43 0
276 419 54 0
-352 -238 225 0
395 257 -479 0
389 -60 -419 0
-96 196 79 0
-258 30 -244 0
-371 -72 -455 0
403 115 -427 0
218 346 -427 0
430 249 456 0
-207 71 26 0
74 114 416 0
223 342 -119 0
-277 -324 325 0
-399 438 355 0
-497 190 -398 0
-471 265 246 0
-266 -338 259 0
12 -448 -430 0
334 57 -199 0
-333 227 163 0
35 194 -470 0
224 -266 170 0
288 -479 211 0
70 -360 140 0
-343 -386 -50 0
-239 -37 -153 0
-10 323 483 0
332 231 139 0
446 -456 64 0
357 -193 -437 0
420 206 -455 0
163 -251 364 0
-393 492 -35 0
410 297 187 0
-92 -137 460 0
-258 288 -312 0
-445 174 233 0
177 433 124 0
-108 -488 -317 0
243 -245 -266 0
152 -161 382 0
-382 -498 494 0
494 88 206 0
-468 -15 -271 0
128 227 -36 0
314 -9 -366 0
306 340 416 0
-108 -438 -42 0
96 419 196 0
-154 493 427 0
-425 -13 -277 0
205 -481 19 0
-93 -491 -189 0
412 -459 -43 0
167 -262 470 0
-313 -249 -479 0
-286 -307 -243 0
119 254 -31 0
-296 -477 -139 0
-65 -12 -183 0
-301 -355 141 0
-453 29 -322 0
-343 -321 49 0
348 -417 -372 0
-415 -392 353 0
-357 58 138 0
-353 -90 255 0
-229 400 -449 0
464 -83 193 0
125 421 -230 0
419 -314 451 0
-334 -248 266 0
74 248 -410 0
-75 29 -17 0
370 280 -23 0
-315 -170 -485 0
141 340 346 0
-12 -497 -340 0
403 171 -208 0
40 309 338 0
225 -55 46 0
-350 30 84 0
-480 371 271 0
428 239 301 0
9 290 -299 0
-338 -211 -303 0
-285 -404 -322 0
425 460 13 0
399 100 -83 0
-288 -250 202 0
433 -64 -335 0
-487 304 435 0
-41 -87 295 0
345 175 -460 0
-307 281 -484 0
408 -267 -380 0
122 -495 -288 0
186 -5 405 0
417 48 -170 0
-262 -159 277 0
221 136 109 0
304 496 24 0
-476 -380 389 0
-369 337 -271 0
-77 -13 -318 0
-42 351 -314 0
73 410 -256 0
173 455 353 0
500 -486 227 0
-85 120 -423 0
345 95 277 0
203 -470 340 0
-301 -238 -131 0
-406 211 54 0
499 -471 -242 0
-123 -477 436 0
229 373 -210 0
-112 378 51 0
335 -299 -380 0
-446 32 -338 0
-403 27 64 0
326 -427 377 0
110 -145 -247 0
-500 211 -322 0
5 39 -85 0
-426 238 229 0
-261 292 -129 0
-294 376 -442 0
97 -25 -96 0
-203 357 39 0
-85 5 174 0
-146 -341 307 0
-417 55 497 0
-115 -190 174 0
309 343 184 0
17 -247 -264 0
283 -318 -131 0
-213 259 -353 0
-374 -411 -271 0
-269 -52 -291 0
258 -90 -38 0
-498 -219 -343 0
-356 152 80 0
310 -422 -244 0
-367 -446 -357 0
230 306 102 0
172 261 -445 0
247 164 -1 0
389 -198 -95 0
418 43 47 0
48 -363 -361 0
416 -414 48 0
-11 -368 -154 0
62 -182 40 0
330 392 389 0
-1 -173 -292 0
5 252 -449 0
-213 -449 418 0
-216 172 -164 0
451 212 -282 0
-243 -435 -232 0
370 94 -161 0
188 459 -317 0
-205 350 132 0
-231 -9 17 0
-161 471 237 0
66 143 -428 0
110 431 -259 0
309 -124 90 0
-271 -119 381 0
252 316 -122 0
-332 -123 135 0
-445 270 233 0
462 -103 -353 0
226 -77 125 0
97 -365 -13 0
-387 297 -140 0
-490 365 199 0
212 -168 -317 0
-484 -48 -393 0
499 -26 34 0
-243 -332 118 0
-360 -36 -390 0
204 333 -324 0
182 114 134 0
261 -306 -283 0
-446 -459 338 0
354 285 56 0
288 47 353 0
327 -346 -172 0
-192 143 -374 0
-231 -136 -355 0
451 463 111 0
-179 -337 -82 0
-316 -100 232 0
100 471 -313 0
416 479 -172 0
-100 -264 5 0
133 362 378 0
-88 -210 -105 0
-118 336 -90 0
-181 166 -272 0
-62 -421 -111 0
-250 -414 395 0
-215 -8 475 0
-452 224 -199 0
-265 -228 -164 0
-464 -148 253 0
347 134 -230 0
-411 -108 312 0
150 -151 176 0
-148 -285 94 0
308 169 205 0
118 298 216 0
-271 210 -383 0
70 284 209 0
-419 431 -432 0
-22 13 140 0
-180 138 132 0
-334 -485 -292 0
211 440 74 0
238 -367 -294 0
17 -282 -478 0
413 -102 -481 0
-484 422 -430 0
214 -239 348 0
22 374 -244 0
-249 -204 235 0
468 -273 -335 0
124 -497 214 0
408 311 71 0
-238 -5 -214 0
-308 -78 185 0
-145 197 261 0
53 156 358 0
-153 -26 -268 0
202 335 -203 0
226 -214 -254 0
-55 132 426 0
-83 -2 117 0
-46 359 407 0
-409 -434 79 0
42 171 -79 0
387 39 -255 0
-336 -82 205 0
285 305 -403 0
-421 302 73 0
-178 -426 498 0
127 96 -90 0
-470 288 -175 0
217 -183 -164 0
38 -276 -235 0
-281 225 -83 0
496 -437 36 0
-363 434 366 0
452 -408 309 0
28 94 -313 0
252 -308 -30 0
-352 -470 -218 0
46 -227 88 0
-242 -126 -189 0
-453 -112 282 0
-478 95 -444 0
129 267 107 0
-81 79 -486 0
-383 -162 122 0
11 -377 -499 0
119 494 243 0
81 108 -268 0
316 -297 -2 0
65 216 343 0
364 -204 281 0
-272 -197 240 0
-251 -288 -196 0
140 203 173 0
-82 132 271 0
-385 419 81 0
360 -52 246 0
477 -122 339 0
468 -194 -85 0
-115 -212 333 0
449 -370 -185 0
-330 469 -186 0
-117 -14 -296 0
-493 242 -289 0
425 131 -477 0
-48 104 -432 0
6 -287 -176 0
212 -489 -378 0
172 -339 -53 0
-319 -114 388 0
-374 -407 -486 0
-186 -162 444 0
178 -143 -252 0
-33 416 134 0
-49 -8 149 0
39 209 -339 0
-485 -407 275 0
-28 -396 309 0
-172 -218 79 0
-395 431 147 0
369 -9 -380 0
56 363 276 0
-267 412 -305 0
31 -240 -320 0
-150 22 -212 0
-413 -158 378 0
-340 362 -265 0
-146 173 -392 0
-400 -236 494 0
349 -212 133 0
-426 -47 -167 0
-443 -209 -187 0
-338 -238 -305 0
-274 214 -61 0
234 -12 -275 0
-84 397 -426 0
284 -49 226 0
-98 309 460 0
-389 -90 -392 0
479 370 -67 0
435 -64 -430 0
490 -286 -154 0
-140 320 -101 0
-187 493 -497 0
247 477 191 0
266 362 409 0
345 145 299 0
236 -444 159 0
420 230 -440 0
-24 39 -456 0
131 -290 452 0
-486 -210 -499 0
83 -4 -57 0
299 190 115 0
22 165 251 0
-67 154 8 0
195 -79 379 0
237 -431 320 0
372 87 -240 0
265 117 430 0
271 -361 -437 0
408 -317 -436 0
-74 -267 -207 0
-178 466 297 0
-272 469 -382 0
161 -485 -303 0
-190 -491 -70 0
-75 -373 -273 0
-83 60 416 0
283 -135 11 0
63 222 -443 0
-490 339 -132 0
-392 9 162 0
268 223 288 0
354 368 -475 0
433 408 -238 0
411 247 -357 0
142 67 -296 0
-22 123 2 0
-267 154 426 0
-500 81 17 0
-308 -236 -254 0
113 75 -115 0
-155 -196 -318 0
148 -432 -125 0
-255 137 -86 0
-209 -429 -499 0
-57 382 37 0
306 -137 64 0
-397 -129 -135 0
-248 -120 177 0
-154 -339 53 0
171 129 133 0
-380 -467 212 0
-212 -484 255 0
-450 478 156 0
-269 482 -306 0
-129 -409 41 0
-398 -331 -129 0
-355 482 -289 0
-406 -242 378 0
-30 479 -456 0
16 -332 -318 0
-345 23 474 0
-163 443 -354 0
-405 -335 34 0
450 13 68 0
459 457 231 0
-256 -123 -421 0
302 392 -176 0
-190 462 -414 0
-217 195 -447 0
167 289 88 0
245 436 281 0
56 412 9 0
-29 -382 -302 0
68 448 -472 0
-120 -25 -87 0
346 383 -312 0
-319 -257 -431 0
-231 -133 -206 0
-220 -149 492 0
430 -416 -35 0
-462 -201 -197 0
-52 96 -193 0
-140 280 327 0
-409 -405 273 0
-161 488 -163 0
477 -348 -74 0
-388 287 338 0
-182 -210 -206 0
-161 -19 474 0
-123 -417 191 0
-216 318 264 0
104 312 99 0
194 350 -11 0
148 212 273 0
-212 381 -269 0
-458 -268 -404 0
-331 498 -302 0
-447 -480 -39 0
-62 130 368 0
-413 -185 492 0
154 17 -210 0
-418 -183 -253 0
221 413 490 0
-5 472 -185 0
-189 -126 60 0
-169 272 144 0
280 -212 350 0
479 430 492 0
-82 -354 -20 0
134 446 -427 0
-302 -338 456 0
484 -11 -66 0
-70 -199 -80 0
-233 226 -352 0
-140 294 -214 0
-473 348 322 0
384 57 192 0
174 492 -354 0
7 297 465 0
-96 -450 300 0
-219 -60 377 0
-151 -500 -185 0
-276 457 208 0
-10 -270 -15 0
65 34 388 0
440 60 -94 0
-232 345 -423 0
364 -485 307 0
345 51 123 0
230 -444 324 0
437 299 -218 0
-312 -95 202 0
-320 416 -97 0
160 -222 270 0
-371 163 479 0
-44 385 -275 0
409 -277 -184 0
121 -198 -205 0
1 116 -403 0
-205 -199 -186 0
113 349 -379 0
458 44 428 0
-326 469 26 0
-442 87 -6 0
-87 273 -250 0
-33 -422 -191 0
-437 -336 123 0
-311 149 283 0
-25 192 276 0
-190 -21 350 0
-94 -206 428 0
113 -357 474 0
-366 15 -415 0
-151 -27 33 0
3 -411 -99 0
-125 -456 1 0
-108 -363 -50 0
-305 97 -152 0
-347 -130 17 0
140 -59 375 0
11 -397 251 0
-499 -160 -456 0
-160 426 -257 0
140 -83 458 0
278 237 -241 0
-480 -321 -500 0
455 247 457 0
-90 235 268 0
153 377 -79 0
-30 474 448 0
310 -466 108 0
-306 -165 240 0
-402 -123 -2 0
499 320 55 0
-449 397 295 0
-330 206 364 0
433 171 417 0
93 -445 438 0
-389 -55 -354 0
84 -228 97 0
442 316 415 0
-436 29 363 0
54 -497 94 0
-313 -218 202 0
-63 -311 -213 0
-480 -303 85 0
-350 -259 397 0
-74 40 13 0
324 195 90 0
-330 -177 -466 0
352 218 19 0
-331 -385 -405 0
-357 484 267 0
-170 -67 3 0
-340 106 -147 0
402 -237 -43 0
-377 241 -360 0
-406 -244 -326 0
13 440 -337 0
494 339 -263 0
-91 306 -183 0
328 -2 134 0
254 202 170 0
272 278 159 0
-168 489 465 0
-26 -422 420 0
114 483 -280 0
115 -437 -494 0
-286 -361 269 0
-499 141 261 0
-390 -243 -320 0
15 326 -147 0
312 500 35 0
-498 315 -151 0
416 300 -81 0
98 470 -468 0
126 -93 61 0
-393 -112 409 0
-72 222 388 0
45 458 201 0
-470 260 92 0
350 21 -46 0
458 284 -429 0
380 248 -236 0
473 -147 361 0
-244 18 80 0
-462 -403 131 0
-289 -356 85 0
-350 55 374 0
-17 -54 224 0
259 48 122 0
-16 -464 -310 0
-347 47 179 0
-443 -232 -271 0
139 115 -208 0
426 333 5 0
336 473 268 0
90 417 218 0
-261 -320 -269 0
-351 -462 -400 0
-335 417 -303 0
-324 -148 410 0
-470 240 246 0
-361 -113 -85 0
-300 481 157 0
69 304 -113 0
-487 382 117 0
90 -322 -285 0
-107 91 -201 0
290 -432 217 0
78 -203 167 0
462 -394 -413 0
-58 -145 -194 0
366 -401 62 0
-219 -330 -353 0
162 -285 -330 0
230 68 349 0
193 -9 308 0
282 -63 244 0
43 353 494 0
435 -351 197 0
414 -180 -484 0
96 -323 -306 0
3 -185 377 0
-113 -221 318 0
128 170 416 0
-330 361 5 0
-387 146 -103 0
-199 162 472 0
-415 142 -295 0
173 -227 37 0
145 493 286 0
-117 459 -209 0
-263 -15 -255 0
-49 -433 -411 0
-492 -483 78 0
-251 130 487 0
-50 359 -88 0
-381 38 -375 0
138 498 335 0
248 -185 -247 0
-150 -179 329 0
-393 -202 -451 0
-245 133 -180 0
174 -475 -168 0
-441 216 -411 0
142 -185 420 0
-367 -130 -197 0
337 -306 -179 0
-124 -345 -334 0
-324 -169 -275 0
420 198 -175 0
-135 -169 -331 0
-418 251 45 0
-366 -57 -109 0
116 -159 -323 0
73 -30 238 0
-24 -458 183 0
187 -107 330 0
419 -303 -266 0
99 -93 11 0
-480 378 -39 0
-157 444 -352 0
-228 -54 452 0
-102 -357 -243 0
444 -376 -421 0
204 387 293 0
81 276 -9 0
-177 -63 192 0
126 152 472 0
-485 217 -336 0
-6 -485 -1 0
-21 -4 -437 0
-456 61 -313 0
-201 197 -403 0
312 258 -145 0
-72 -104 186 0
-353 -483 -85 0
308 28 -35 0
-147 -75 -372 0
286 136 -172 0
138 -434 417 0
173 -200 170 0
-183 475 462 0
163 369 -27 0
-491 -194 -162 0
-141 277 -443 0
-213 195 -272 0
223 403 -198 0
30 9 158 0
-157 413 69 0
-8 -7 358 0
450 77 -215 0
204 -248 -498 0
-248 177 28 0
361 269 167 0
-80 324 69 0
466 -459 -269 0
60 362 275 0
-9 49 -252 0
-163 -344 5 0
367 -161 245 0
-259 66 -471 0
-259 -114 356 0
382 -13 499 0
170 36 -255 0
-299 -155 474 0
392 328 63 0
-56 -491 116 0
-49 272 99 0
346 -347 130 0
-256 -490 -135 0
-421 -323 -388 0
454 -363 -68 0
-491 -376 -488 0
-68 489 -271 0
313 -94 -246 0
450 142 306 0
371 -382 -214 0
186 -16 214 0
304 166 -435 0
-98 -52 -464 0
361 -293 366 0
-95 372 -313 0
-80 115 444 0
-79 -242 337 0
48 -58 317 0
423 -414 349 0
43 218 180 0
-23 192 473 0
84 210 262 0
102 -358 106 0
467 -471 162 0
109 -239 -86 0
378 465 135 0
-496 -497 -309 0
-339 -491 -295 0
178 309 -225 0
376 161 189 0
196 141 15 0
-381 -117 -492 0
443 -152 -373 0
53 -58 -180 0
-282 163 -288 0
-65 -66 -154 0
-270 127 423 0
180 193 273 0
268 335 393 0
196 -241 -85 0
497 368 -38 0
-473 -395 291 0
313 220 235 0
18 92 203 0
-130 -437 430 0
-104 178 209 0
3 -350 -248 0
9 -20 -129 0
58 -95 -161 0
386 168 -48 0
-115 276 -9 0
81 75 82 0
318 -401 343 0
398 55 -94 0
371 119 209 0
-144 139 -356 0
297 87 -101 0
-465 -314 218 0
151 110 335 0
-429 -482 -196 0
143 173 -209 0
303 286 -453 0
398 184 -318 0
-490 58 111 0
402 110 -191 0
-459 310 13 0
-217 342 -457 0
-39 -3 211 0
-243 -133 -197 0
347 168 -337 0
169 388 15 0
-167 347 145 0
394 -36 -146 0
-443 187 326 0
-412 -30 -385 0
6 -138 -258 0
-7 328 -16 0
267 -159 -316 0
145 -422 -432 0
92 159 95 0
351 -254 -63 0
417 -387 -222 0
-219 -362 314 0
395 284 -174 0
-87 252 -46 0
422 11 -88 0
-175 156 -332 0
-297 130 82 0
-74 26 -282 0
-83 -390 187 0
-459 322 -82 0
109 317 446 0
453 -17 451 0
343 14 106 0
490 -339 10 0
-488 -177 -214 0
352 -350 490 0
-185 231 273 0
-172 292 -371 0
-419 477 491 0
328 318 -329 0
-222 169 -91 0
-303 400 472 0
80 -286 -31 0
-45 131 -105 0
-377 -149 66 0
-55 -181 347 0
-226 484 298 0
-463 -366 19 0
-41 255 385 0
167 179 -432 0
-82 -380 -443 0
221 -73 215 0
-245 -246 -40 0
-392 366 101 0
-385 76 -261 0
-299 -495 -160 0
-482 -452 166 0
-34 -496 -405 0
137 47 92 0
311 237 -390 0
-461 127 427 0
47 -447 -132 0
249 -359 466 0
47 114 -163 0
133 296 -295 0
-262 261 362 0
458 171 441 0
-451 -468 -281 0
186 -181 -310 0
-33 418 426 0
-232 287 103 0
303 349 30 0
-473 -54 288 0
-213 433 272 0
-222 314 249 0
-472 -204 255 0
147 180 91 0
336 107 -56 0
99 77 -428 0
-312 -162 300 0
147 -304 -481 0
370 -148 -231 0
290 448 7 0
289 -45 -446 0
-318 -433 498 0
70 81 30 0
-446 252 -83 0
88 377 306 0
-227 343 -424 0
-404 -268 494 0
-168 -114 -416 0
-40 -29 -18 0
349 381 -496 0
195 -340 -32 0
-202 -429 403 0
267 456 -126 0
465 -51 435 0
177 368 346 0
-270 46 -482 0
-227 -267 -311 0
-434 -281 258 0
-22 388 -28 0
-453 275 -60 0
-490 -376 -372 0
-23 -469 -321 0
-135 460 -94 0
-153 -418 -430 0
-387 499 178 0
-257 -274 -442 0
323 381 243 0
52 -166 97 0
480 -36 55 0
389 4 329 0
4 11 -147 0
351 101 -276 0
104 -252 -375 0
-148 19 -87 0
-380 417 -315 0
-406 -161 -373 0
76 -234 -112 0
-26 -54 -303 0
332 315 -4 0
-372 -473 36 0
-75 268 -460 0
399 170 -215 0
205 -219 -474 0
70 -307 -246 0
79 451 -408 0
-292 364 375 0
93 187 51 0
292 425 -135 0
405 -341 -280 0
-105 -184 -349 0
-261 444 -351 0
412 -123 -394 0
373 -22 470 0
45 -35 -53 0
444 241 -372 0
97 -224 -454 0
442 13 217 0
418 357 131 0
283 320 -60 0
-382 -485 -497 0
-190 -429 205 0
252 -45 20 0
56 -13 -327 0
-172 -398 113 0
81 -172 139 0
390 147 -261 0
-42 390 -297 0
-282 275 9 0
-147 179 56 0
-264 -181 -105 0
-83 -281 189 0
-135 424 -218 0
246 344 177 0
500 218 261 0
164 242 -3 0
221 -248 59 0
367 -48 462 0
136 375 -37 0
-457 377 428 0
-50 318 167 0
441 197 -391 0
-182 84 377 0
-76 75 197 0
-294 -237 -19 0
462 -321 464 0
-223 -344 475 0
402 -432 -253 0
466 59 339 0
-394 -149 85 0
257 407 -150 0
127 -400 413 0
153 23 -471 0
136 -291 -259 0
-44 -274 -276 0
-186 249 -100 0
-204 65 417 0
32 45 -405 0
-23 116 452 0
329 -429 72 0
-87 -384 173 0
476 -219 -344 0
-377 42 -375 0
472 -73 459 0
-268 64 370 0
-328 -133 -376 0
31 4 195 0
-435 -25 52 0
-235 -32 260 0
156 459 -69 0
4 -242 50 0
445 -411 -207 0
181 121 -277 0
-371 269 -36 0
-143 343 -288 0
472 -269 -39 0
-253 -83 -229 0
-449 453 136 0
141 -237 442 0
-49 52 268 0
-370 393 -32 0
405 -369 -247 0
-455 178 -60 0
-85 154 -479 0
209 425 61 0
-415 406 -9 0
181 -75 -66 0
-491 -132 433 0
-486 443 -435 0
253 6 138 0
-454 110 -49 0
-17 75 335 0
251 18 346 0
-147 60 -370 0
-67 -7 -134 0
89 -410 282 0
81 397 -151 0
213 -36 17 0
251 -235 64 0
32 103 -380 0
-137 438 -146 0
-121 145 478 0
313 -111 354 0
123 -379 330 0
-258 -167 -272 0
34 -11 242 0
-62 -486 -180 0
471 -42 329 0
-224 305 -408 0
119 -480 -6 0
-325 -125 -334 0
-167 -16 145 0
390 443 372 0
-436 470 -150 0
-12 299 -49 0
37 -40 -395 0
93 378 443 0
-40 -171 -168 0
-493 73 234 0
-475 -324 -223 0
411 97 247 0
431 320 392 0
311 -310 -231 0
-325 48 -478 0
-79 -94 443 0
-87 -302 -481 0
-319 183 -275 0
-344 81 -278 0
-63 -163 -76 0
96 492 -306 0
28 -474 348 0
448 -370 -272 0
242 -5 -84 0
500 -222 178 0
437 -91 72 0
186 189 -241 0
160 -22 -299 0
290 160 -13 0
-281 206 379 0
-36 -200 190 0
-346 -193 -285 0
183 447 224 0
-291 -408 132 0
92 -289 120 0
142 -375 -251 0
227 -3 -269 0
-34 -154 -422 0
158 -26 343 0
-90 482 94 0
238 491 -26 0
324 -61 182 0
-202 209 454 0
307 -367 316 0
478 -494 -368 0
-455 -139 44 0
-314 -214 -425 0
71 -440 -179 0
223 61 -451 0
256 312 -135 0
62 44 -68 0
-396 489 -88 0
360 387 -293 0
-181 -275 58 0
-448 -288 -176 0
274 -187 -100 0
49 100 -386 0
-348 77 320 0
62 317 -447 0
44 -69 282 0
-318 -200 439 0
-24 -420 134 0
272 278 -256 0
94 132 -389 0
313 56 -207 0
-8 -146 477 0
-388 -290 242 0
-196 -416 -274 0
-53 378 -201 0
51 121 -123 0
-181 -417 -325 0
193 -270 -112 0
-130 -407 -242 0
-493 -227 -138 0
25 -258 53 0
266 -111 396 0
-18 -370 401 0
-246 435 -199 0
349 -166 324 0
-60 251 492 0
428 -410 -286 0
359 -98 -478 0
273 375 420 0
7 -244 -456 0
-294 -204 375 0
222 262 -269 0
232 -376 218 0
426 32 360 0
-486 -238 -383 0
-237 433 154 0
1 -235 -404 0
220 354 -310 0
411 -309 352 0
-179 194 -138 0
371 -243 -114 0
178 156 481 0
455 400 -300 0
90 118 -175 0
-482 224 188 0
-188 -382 -383 0
-205 426 91 0
-409 326 412 0
-299 -138 -13 0
-155 -361 -160 0
-259 -434 489 0
180 -191 -426 0
-82 -199 307 0
-116 -77 -217 0
480 -365 178 0
475 -319 103 0
-409 136 -373 0
3 157 475 0
-474 105 120 0
-445 342 267 0
499 -163 -341 0
109 6 -324 0
-317 380 94 0
71 -46 -136 0
455 -370 -152 0
496 144 490 0
171 113 -99 0
-462 281 -453 0
-366 -394 -183 0
248 -390 268 0
371 -29 169 0
-179 337 -451 0
-173 -31 -24 0
135 -157 -462 0
-201 -277 -7 0
278 394 428 0
87 362 -42 0
-117 -279 350 0
12 76 -249 0
394 4 6 0
336 -271 298 0
135 26 465 0
-418 -322 -2 0
-177 292 249 0
-199 -130 -240 0
287 -113 270 0
-284 -260 491 0
287 360 110 0
238 6 393 0
431 -264 165 0
72 -370 -365 0
-107 -67 31 0
-303 -144 -415 0
-184 -38 33 0
-316 -125 -57 0
-349 -262 109 0
198 21 140 0
216 -234 -33 0
214 285 -9 0
-96 -442 475 0
-111 -4 -458 0
307 296 101 0
-48 -430 -468 0
-72 425 -133 0
358 45 -196 0
-144 -225 -50 0
-32 -303 -44 0
124 101 269 0
-282 426 -104 0
-227 107 -111 0
-341 -304 285 0
-70 -214 195 0
-355 64 202 0
30 428 -139 0
-335 57 -476 0
-283 117 388 0
35 297 116 0
145 -89 -66 0
-252 -289 -321 0
317 221 128 0
219 234 497 0
368 -181 213 0
-311 -427 -441 0
-137 -4 73 0
-269 7 468 0
-79 -229 154 0
-352 402 -490 0
-293 -371 138 0
-175 482 -270 0
498 -232 163 0
-153 27 -421 0
-69 100 56 0
-104 190 -199 0
166 -59 -323 0
98 94 40 0
-456 437 380 0
178 -438 -292 0
217 272 499 0
-79 -76 -389 0
154 421 145 0
177 340 167 0
-418 123 -270 0
-208 -11 252 0
390 -175 29 0
252 -456 497 0
-134 476 464 0
310 123 71 0
370 285 -258 0
19 118 360 0
-194 -408 -38 0
141 -475 487 0
139 310 460 0
286 127 221 0
290 -80 -257 0
-11 204 -340 0
-396 -441 442 0
-271 -440 -148 0
194 159 473 0
-4 384 -487 0
-102 199 -120 0
-318 496 -442 0
-268 -335 -349 0
430 125 103 0
315 334 335 0
325 -490 500 0
-377 -276 67 0
260 4 -355 0
368 309 241 0
-173 298 -347 0
-151 -459 -344 0
28 -199 -106 0
417 -15 -380 0
480 24 -255 0
-351 325 -122 0
271 -345 212 0
-171 -270 -172 0
-77 194 -301 0
-209 -82 31 0
212 -429 -318 0
-369 281 -364 0
245 -266 -486 0
246 -208 -39 0
-492 500 477 0
-31 258 -14 0
410 481 327 0
391 485 109 0
-399 315 57 0
-4 318 344 0
79 -256 -343 0
108 -483 -445 0
212 -459 133 0
-159 40 369 0
-352 408 442 0
206 295 -276 0
-177 167 -300 0
52 -324 -435 0
491 -278 3 0
-3 483 450 0
-379 -156 12 0
386 238 -352 0
-320 335 -361 0
-190 -192 -284 0
271 -427 -139 0
380 -60 77 0
-147 -108 -29 0
287 164 125 0
-80 459 392 0
-35 474 275 0
165 167 357 0
-464 -196 -42 0
298 258 -132 0
-260 -132 -241 0
189 21 8 0
479 322 491 0
247 16 -412 0
338 -5 437 0
-438 -82 337 0
311 187 134 0
425 -467 -139 0
381 332 265 0
435 427 -446 0
-17 381 163 0
165 198 -31 0
417 -13 153 0
-412 -65 -270 0
-155 -316 -233 0
219 -456 250 0
-391 -484 -219 0
-492 -184 -95 0
-76 334 10 0
305 147 287 0
-7 -241 110 0
56 -25 457 0
-10 -164 172 0
426 445 -110 0
-471 446 124 0
174 -292 61 0
22 469 23 0
-60 445 -328 0
-225 59 17 0
-327 -96 398 0
-398 -426 -92 0
21 251 96 0
-53 -443 -216 0
86 432 -321 0
-220 403 -378 0
194 -352 489 0
-181 -465 -19 0
-101 -362 -9 0
62 383 -302 0
492 -331 -310 0
270 -455 4 0
260 -381 312 0
147 -329 241 0
-118 253 -364 0
424 -171 385 0
-321 402 366 0
177 209 94 0
-136 -254 369 0
-223 19 -323 0
232 -382 -138 0
51 -328 -354 0
-141 -308 -453 0
-474 48 -415 0
-348 -138 -484 0
-173 -88 -144 0
41 183 234 0
-376 -96 496 0
-241 -225 19 0
-238 -329 308 0
-107 96 337 0
-204 353 252 0
-456 132 149 0
-7 -163 -259 0
-242 15 384 0
-337 173 -165 0
-155 170 -109 0
-117 -471 -421 0
-476 348 -201 0
1 47 -455 0
-204 -88 388 0
113 -6 262 0
-145 469 -330 0
-5 -238 -27 0
12 219 -241 0
218 -453 138 0
-382 -130 283 0
-204 53 287 0
-169 -147 -324 0
71 77 -274 0
-372 328 -469 0
280 -104 -500 0
-140 44 -325 0
65 -253 25 0
-257 -162 440 0
21 -328 394 0
463 -13 -360 0
-462 -62 -193 0
137 280 -499 0
-353 144 92 0
-476 162 103 0
196 146 -109 0
-43 225 -126 0
-402 272 -204 0
-20 -322 -416 0
-73 -467 -314 0
337 -246 121 0
328 -443 321 0
130 -425 345 0
-99 -181 -306 0
-390 315 307 0
-138 -163 429 0
54 374 -190 0
-310 -160 -478 0
-317 292 128 0
-79 -255 -411 0
383 30 307 0
-496 -14 464 0
478 -73 -53 0
-3 -251 199 0
31 -461 -480 0
-231 -230 -290 0
58 -438 39 0
-92 41 171 0
-291 -484 254 0
37 -423 100 0
-482 -220 -358 0
-271 21 -253 0
262 -458 -421 0
353 160 -238 0
462 -229 319 0
124 305 -96 0
-268 422 -300 0
389 20 331 0
-258 290 -381 0
-153 -146 -346 0
259 164 13 0
-430 29 122 0
-142 318 228 0
100 -162 262 0
445 -481 354 0
149 398 -145 0
-431 -420 -490 0
-129 -335 245 0
-334 13 -260 0
-497 224 399 0
-384 227 -300 0
284 485 -228 0
211 -265 -156 0
-195 -448 238 0
-497 496 80 0
366 -65 242 0
-238 355 -407 0
344 -428 358 0
421 84 497 0
9 357 404 0
16 -329 -319 0
229 453 36 0
216 -71 158 0
173 181 -464 0
-189 109 -412 0
-240 65 -478 0
-374 42 -361 0
-312 -161 204 0
261 -150 298 0
452 -242 172 0
31 -18 -410 0
-469 170 -445 0
-175 61 -48 0
-263 -228 -462 0
-323 -23 -334 0
-251 371 327 0
283 468 -104 0
479 -29 -59 0
-396 -154 168 0
11 -125 429 0
218 -197 -461 0
52 78 -112 0
-39 -145 -429 0
218 -478 110 0
270 478 416 0
-403 -422 452 0
217 64 411 0
-159 203 211 0
-497 344 -115 0
137 -398 -417 0
-477 116 396 0
-243 -44 469 0
445 -72 -261 0
-217 236 -181 0
279 266 -468 0
-423 -477 -58 0
217 -133 -100 0
187 -5 256 0
296 -475 -208 0
480 33 -439 0
-266 -223 39 0
-432 461 217 0
249 -107 -9 0
440 485 -222 0
-145 195 -432 0
249 -45 93 0
99 233 -433 0
-66 286 362 0
-189 -154 -86 0
325 -16 -309 0
263 334 181 0
310 6 -166 0
219 -108 -447 0
293 -282 -19 0
-240 376 -6 0
229 14 -497 0
83 -385 -136 0
-24 82 250 0
-283 218 -211 0
-311 -429 -137 0
35 34 344 0
-275 -170 -98 0
56 -413 -260 0
385 21 -310 0
484 -335 -96 0
300 149 223 0
445 -188 -248 0
-93 -201 242 0
307 -331 -383 0
51 -353 -284 0
-486 -419 205 0
248 415 162 0
-337 -371 -4 0
-450 -156 255 0
-85 35 -398 0
-326 111 -181 0
-281 80 468 0
445 500 421 0
80 86 130 0
-33 241 -38 0
67 -171 362 0
-165 -98 -32 0
-379 350 -193 0
354 146 98 0
484 -29 -406 0
369 -364 -178 0
-313 499 269 0
-468 -295 -291 0
-327 207 -59 0
-77 -165 1 0
380 -75 -78 0
450 26 65 0
-394 125 -205 0
-27 -401 -69 0
-48 -278 -456 0
-19 -158 162 0
-134 -408 -231 0
176 -220 41 0
-496 497 188 0
-118 90 -371 0
-24 -440 -338 0
487 -136 24 0
239 -146 -258 0
330 -299 -362 0
-14 134 385 0
111 230 65 0
-469 459 -427 0
-95 -119 -313 0
249 -216 223 0
37 -281 493 0
450 -53 345 0
-110 -185 -484 0
9 348 418 0
-267 -246 68 0
-293 -288 -55 0
471 414 -46 0
151 223 -299 0
174 -241 -499 0
-369 346 -193 0
184 379 156 0
-422 114 -314 0
260 442 -39 0
404 4 256 0
415 69 138 0
-282 -437 82 0
375 20 235 0
305 -459 101 0
348 -372 172 0
262 -33 -438 0
-277 73 -66 0
-296 499 14 0
24 -460 -433 0
-439 333 98 0
-333 437 330 0
497 414 258 0
162 371 57 0
121 -432 -366 0
130 -126 203 0
41 414 432 0
-331 75 182 0
58 256 52 0
-142 -285 -419 0
240 299 -361 0
362 -76 447 0
291 -245 -45 0
-451 131 -272 0
79 141 468 0
-298 26 -53 0
-261 -106 13 0
393 230 68 0
-13 422 2 0
31 -235 -463 0
-401 -432 -214 0
371 -271 -308 0
258 -400 485 0
-211 415 -474 0
429 -231 -278 0
-184 -169 -374 0
-440 184 154 0
452 308 323 0
319 -48 -386 0
416 -233 201 0
-140 -421 -266 0
13 337 328 0
279 -214 113 0
-154 142 -460 0
485 369 -237 0
273 402 345 0
-298 80 415 0
43 -8 -414 0
-103 -374 -133 0
126 301 275 0
-186 231 -481 0
-441 74 488 0
-276 -26 310 0
-315 370 82 0
-37 224 -429 0
-185 454 84 0
380 135 267 0
-5 -270 241 0
-314 406 -294 0
115 -10 284 0
-48 -27 -282 0
8 148 445 0
-314 312 235 0
113 361 -380 0
100 -316 -360 0
327 362 309 0
419 -261 -112 0
-124 -343 -44 0
-142 -56 32 0
-420 326 -145 0
391 -151 -482 0
-484 11 396 0
-347 -362 -5 0
-351 53 3 0
5 -89 438 0
-158 309 204 0
375 56 -90 0
-101 87 464 0
165 -348 321 0
347 19 -490 0
-235 -274 59 0
-274 184 -24 0
-130 201 -309 0
-353 -8 -73 0
-27 -133 494 0
192 314 -161 0
397 454 -361 0
-397 -342 136 0
206 321 166 0
82 85 436 0
-406 -452 -240 0
316 -68 249 0
-474 -149 331 0
-286 -181 -391 0
-192 -240 466 0
-320 130 -347 0
-292 -79 6 0
-315 303 -380 0
140 149 48 0
489 -158 358 0
-298 39 126 0
275 258 141 0
-253 -24 13 0
409 417 -193 0
-225 -479 500 0
413 -124 -390 0
336 -13 -182 0
225 253 -424 0
-328 -104 47 0
301 437 1 0
-242 -2 -426 0
107 243 187 0
23 9 -85 0
-320 473 -479 0
83 29 -457 0
140 296 290 0
164 -65 56 0
-58 251 283 0
-498 27 -149 0
-450 266 451 0
498 362 158 0
-258 -223 97 0
270 191 -134 0
-50 422 -475 0
-305 187 -338 0
330 -380 31 0
226 -136 -487 0
362 -214 -484 0
-238 411 14 0
1 454 165 0
267 -327 14 0
57 389 30 0
-326 378 206 0
-196 -22 249 0
-376 155 153 0
-289 -5 278 0
-423 225 -194 0
187 229 -223 0
-76 470 143 0
426 251 -390 0
-295 -3 -397 0
85 367 62 0
408 91 223 0
-409 77 19 0
370 -318 58 0
80 240 122 0
-37 150 -350 0
-42 399 -352 0
467 99 362 0
466 150 -363 0
-15 -13 -217 0
232 -266 -380 0
311 -439 -397 0
292 -155 242 0
-345 207 175 0
-222 140 -492 0
215 458 390 0
-450 -307 -374 0
-207 -492 -278 0
484 305 -133 0
-476 -57 -160 0
118 199 -485 0
-110 65 361 0
-14 9 307 0
-321 480 160 0
-287 259 475 0
413 424 -187 0
-287 -170 -410 0
16 46 -19 0
-306 92 -392 0
122 -358 -50 0
-392 -471 -246 0
-221 -236 288 0
402 -481 -239 0
405 420 69 0
460 -5 91 0
304 131 204 0
-29 -295 309 0
-76 -441 -317 0
385 -412 -309 0
-368 -373 -54 0
-383 -429 -218 0
423 -46 -389 0
8 139 251 0
483 250 -476 0
-464 143 -44 0
230 44 139 0
403 116 -43 0
-343 107 -433 0
357 -214 480 0
-398 -457 -82 0
-243 27 -429 0
