p cnf 500 1950
-293 439 -166 0
-427 23 151 0
54 390 256 0
-161 -458 -157 0
-93 -12 -377 0
-434 437 -101 0
368 -440 -31 0
80 439 -86 0
315 446 337 0
352 164 -460 0
-31 -97 -185 0
-280 166 421 0
-3 428 -280 0
306 337 -410 0
-293 251 -457 0
-32 247 88 0
-102 -15 -414 0
-404 -440 17 0
424 -432 134 0
119 -413 -165 0
-331 217 -492 0
87 42 306 0
-109 -442 -5 0
-481 299 -338 0
-37 370 415 0
182 -405 -78 0
132 -419 -133 0
276 -410 317 0
-253 -477 404 0
-192 40 1 0
-91 386 261 0
-299 480 332 0
-492 202 -29 0
-413 474 125 0
-113 271 251 0
-224 -469 -102 0
371 -303 337 0
-315 380 -371 0
-166 223 -154 0
422 -234 -35 0
-248 413 -375 0
-312 -137 230 0
295 -400 350 0
-281 468 111 0
65 331 157 0
-466 396 469 0
-392 374 102 0
-197 368 -58 0
-478 -69 243 0
-238 126 269 0
117 445 87 0
-254 249 -469 0
-93 359 -167 0
463 -61 -359 0
-103 474 4 0
212 -417 182 0
466 -107 29 0
179 75 -346 0
301 126 -152 0
-488 169 101 0
131 -69 66 0
-360 -87 -164 0
389 -373 -485 0
-168 47 -378 0
409 217 -116 0
468 115 -346 0
-366 59 315 0
-100 -278 -164 0
-348 439 161 0
152 -154 -190 0
-440 272 169 0
-473 374 83 0
381 -369 -209 0
230 293 -98 0
-183 -257 -277 0
-416 185 -326 0
-56 221 -118 0
-331 -393 471 0
206 122 -89 0
402 104 -208 0
-399 466 356 0
-333 239 -342 0
-413 -262 124 0
13 -216 373 0
183 400 228 0
323 -322 368 0
-8 -424 -349 0
-244 -261 -110 0
72 196 -394 0
259 320 -15 0
326 402 115 0
-113 -377 -172 0
385 321 27 0
151 452 251 0
105 -120 58 0
-315 221 -209 0
149 -66 -29 0
-377 229 -20 0
-85 -18 -422 0
-454 107 321 0
-232 449 -474 0
-368 392 395 0
-109 381 294 0
392 126 452 0
-80 175 -6 0
214 -239 -63 0
241 -321 7 0
185 413 -213 0
-147 -3 -381 0
443 -183 -84 0
-500 480 145 0
348 -162 -367 0
-171 353 86 0
-249 314 -397 0
-319 -411 101 0
451 -174 -229 0
133 344 -496 0
198 -4 -472 0
54 492 -463 0
-234 -83 307 0
417 492 370 0
283 -26 -439 0
108 140 470 0
457 329 13 0
473 -197 261 0
-266 -245 -353 0
88 492 -167 0
57 -100 496 0
-422 -305 94 0
149 -6 461 0
-404 234 -4 0
-190 257 -260 0
-354 -337 -45 0
159 -288 14 0
77 382 120 0
-359 -435 235 0
-319 373 -101 0
56 434 234 0
-62 360 -99 0
-370 -300 -401 0
396 -200 -353 0
-287 -176 301 0
146 -483 -6 0
-348 -316 308 0
73 -282 38 0
-223 483 180 0
-293 -363 -380 0
358 255 290 0
486 -453 -139 0
-210 -84 443 0
-408 146 142 0
69 -332 29 0
-404 90 99 0
-259 365 -456 0
-303 28 -357 0
429 302 273 0
369 246 75 0
-386 364 -491 0
-438 92 478 0
-328 339 498 0
-406 -440 121 0
13 -19 231 0
-104 -370 479 0
-308 -357 -459 0
-459 -147 96 0
-298 -210 -82 0
-357 8 -331 0
-402 381 13 0
-471 -224 61 0
478 476 -180 0
-362 -116 -498 0
10 -457 340 0
-5 -92 -255 0
472 490 -348 0
-273 -491 320 0
468 -186 237 0
95 -202 183 0
216 77 342 0
403 -103 -109 0
256 -460 32 0
-112 -60 408 0
443 8 -114 0
430 308 -191 0
-254 394 415 0
275 -74 -285 0
347 374 457 0
145 -284 23 0
236 134 334 0
374 -476 173 0
486 157 -379 0
-186 306 90 0
177 -228 272 0
248 -370 67 0
-346 193 -153 0
11 -138 297 0
-399 -332 411 0
-399 -160 -325 0
-2 -301 -108 0
-475 227 66 0
306 387 92 0
-231 357 -446 0
247 257 440 0
152 -257 108 0
-457 440 336 0
-97 -288 50 0
-489 108 56 0
128 -243 -282 0
-473 -188 -26 0
-167 120 -101 0
-463 436 268 0
444 200 347 0
303 -205 6 0
-97 110 -165 0
450 -340 116 0
370 161 -209 0
-117 41 -72 0
21 -234 232 0
-348 328 111 0
22 79 -402 0
-394 83 357 0
-250 165 -80 0
379 455 -460 0
111 110 371 0
74 133 -380 0
160 -59 362 0
-304 498 -429 0
265 214 -213 0
298 416 113 0
84 -479 494 0
-1 -129 220 0
185 -1 -47 0
-348 136 15 0
40 318 -351 0
-201 -124 339 0
-467 -2 397 0
-275 217 -171 0
451 -202 195 0
-239 -44 -97 0
-247 -349 180 0
82 -170 -411 0
-318 -221 -196 0
25 -53 43 0
421 225 35 0
354 -219 -363 0
-449 -426 173 0
-249 183 497 0
-273 304 256 0
-79 -335 128 0
-100 13 -362 0
-1 -161 355 0
-75 -112 276 0
-372 -304 143 0
-423 -95 105 0
310 -470 -461 0
12 57 -6 0
-204 247 -45 0
338 -419 357 0
425 -424 -15 0
-319 73 -66 0
-247 389 333 0
-412 -111 367 0
404 326 -192 0
126 -161 -452 0
-308 404 -297 0
205 -362 -374 0
-293 59 396 0
117 -402 -5 0
-348 -404 381 0
-219 16 -301 0
-166 -338 214 0
-288 -446 68 0
-90 -426 -161 0
294 -79 -310 0
102 262 -73 0
370 463 406 0
469 118 383 0
45 -127 -131 0
230 312 -6 0
344 -106 304 0
451 416 -392 0
285 38 54 0
51 200 -214 0
302 45 202 0
-41 397 210 0
-127 -380 -22 0
-336 265 -415 0
347 -35 -451 0
-154 -220 -328 0
-136 -330 -26 0
-342 57 -415 0
354 -274 -315 0
156 -206 -361 0
-243 310 66 0
491 402 -79 0
-161 262 46 0
272 -390 -275 0
-171 437 -492 0
320 198 -448 0
-149 13 137 0
-307 497 148 0
-413 -169 137 0
-129 -422 254 0
-205 -262 83 0
34 298 130 0
339 -257 129 0
-495 278 -57 0
-266 6 83 0
256 168 -146 0
-304 -409 136 0
189 345 -200 0
-71 136 86 0
121 436 -19 0
-98 443 134 0
258 70 -354 0
327 195 -364 0
-454 -61 435 0
-401 61 210 0
351 74 497 0
57 -477 -290 0
-413 155 -278 0
-429 -78 -404 0
-91 -453 -445 0
345 210 -6 0
-206 -193 -92 0
397 91 214 0
417 146 -479 0
-318 431 -419 0
-376 371 -248 0
147 93 -450 0
-133 121 253 0
-397 331 -81 0
-486 463 497 0
-259 -224 -265 0
-323 -175 78 0
433 428 -143 0
376 452 226 0
-51 80 42 0
-422 486 -107 0
352 158 -276 0
-286 -342 -379 0
227 -152 -211 0
-287 192 -244 0
-78 -306 124 0
-488 -158 -182 0
-457 19 -68 0
281 233 248 0
57 187 -308 0
81 14 32 0
-275 347 63 0
-45 -137 -175 0
-378 -102 -291 0
-19 151 -491 0
1 -217 -6 0
44 -215 -366 0
-175 294 200 0
332 -90 -273 0
2 419 412 0
-188 258 -400 0
-193 141 -27 0
101 174 -316 0
-228 335 436 0
-345 447 480 0
412 306 -436 0
-122 -371 -101 0
476 111 -29 0
-37 242 308 0
-301 -322 -270 0
271 -125 185 0
-37 249 -26 0
318 -88 175 0
-51 -244 415 0
130 -56 -13 0
212 213 320 0
311 -235 118 0
-144 297 -169 0
-396 23 -409 0
-57 499 252 0
-45 372 -385 0
447 356 -313 0
-450 -32 291 0
-141 -291 -388 0
-227 1 279 0
146 -271 -78 0
-94 -200 88 0
-183 -323 409 0
170 488 25 0
-121 -80 131 0
184 310 170 0
275 -464 60 0
448 -34 127 0
219 221 125 0
190 -482 70 0
111 -150 -172 0
-98 -81 -489 0
-334 -427 -405 0
-239 -366 -181 0
-27 85 -244 0
359 -496 -220 0
211 30 1 0
459 -98 145 0
-443 -192 -46 0
-354 -465 -220 0
-357 -429 -286 0
475 213 304 0
390 126 -25 0
-276 -35 464 0
257 -107 165 0
277 39 -150 0
241 418 347 0
-495 454 29 0
467 130 -98 0
190 3 430 0
318 -271 -216 0
-454 -233 -112 0
-423 -93 -10 0
-372 -328 93 0
-477 -254 484 0
-21 -269 411 0
307 306 262 0
157 295 412 0
469 230 428 0
393 384 -180 0
427 -98 30 0
-260 122 172 0
-384 438 -83 0
176 297 -68 0
313 24 -156 0
69 212 -191 0
-210 -485 183 0
5 -293 -450 0
-315 -245 61 0
314 -293 438 0
-195 430 -6 0
-52 -153 -79 0
428 264 -383 0
86 158 287 0
304 274 -446 0
-180 -397 93 0
-217 289 375 0
-26 384 460 0
-200 -226 -67 0
169 -109 -316 0
227 -240 -241 0
330 471 -106 0
415 -284 -358 0
-448 -367 -497 0
-339 336 304 0
-195 -297 487 0
191 223 83 0
244 214 145 0
482 56 435 0
415 -168 -350 0
-27 426 341 0
22 -412 405 0
-334 72 86 0
14 -304 -5 0
-60 326 199 0
-14 112 -191 0
-402 437 175 0
-443 -21 -345 0
413 186 166 0
-302 -257 -171 0
147 107 105 0
-415 -178 174 0
381 -356 457 0
189 282 247 0
-352 -199 186 0
-248 -103 -276 0
-53 -157 308 0
221 -125 -150 0
392 316 444 0
10 487 -155 0
-206 -306 -220 0
254 -443 -232 0
274 -187 -406 0
-268 332 433 0
116 468 -335 0
490 -347 405 0
66 -431 433 0
-398 136 152 0
448 -271 -323 0
-325 470 -435 0
428 -471 90 0
139 248 -30 0
-52 495 -171 0
133 149 -57 0
-415 238 -52 0
231 -186 -210 0
-386 139 114 0
454 -131 -229 0
156 -277 162 0
-313 215 -217 0
-265 -201 -344 0
-422 340 33 0
80 -19 -336 0
-330 -20 -410 0
473 181 406 0
146 415 359 0
334 -146 -414 0
-488 -323 238 0
183 65 208 0
72 316 -51 0
-318 438 -390 0
-426 -465 -223 0
84 -50 -211 0
-202 219 167 0
309 133 296 0
-146 -358 306 0
283 391 495 0
472 -191 317 0
124 461 115 0
-15 -363 67 0
-24 483 -191 0
389 72 254 0
-453 -234 92 0
212 72 -465 0
230 -160 493 0
-293 470 -113 0
-27 -262 -420 0
-322 37 -309 0
194 -361 -119 0
114 33 -127 0
339 -255 441 0
-281 -59 -114 0
-98 223 21 0
-289 499 -418 0
169 162 -329 0
-302 92 -350 0
386 -154 -155 0
6 -390 -414 0
-39 384 -362 0
-241 -377 381 0
173 29 -269 0
-421 100 224 0
-225 426 435 0
-159 85 -71 0
325 290 -167 0
-4 -167 -210 0
455 121 -150 0
-259 111 -278 0
288 164 -24 0
-171 277 254 0
-17 30 455 0
262 -168 -209 0
190 -251 -388 0
-80 -486 -420 0
-258 -405 -488 0
-309 462 -199 0
462 291 -130 0
200 50 -303 0
460 241 495 0
252 -291 95 0
396 -438 341 0
-308 365 -317 0
48 472 387 0
500 447 -498 0
393 -27 -258 0
-208 404 108 0
-79 -462 -352 0
-355 -423 -275 0
-498 49 447 0
318 -240 -193 0
-71 489 45 0
170 -373 467 0
-172 -96 -222 0
201 -204 498 0
233 176 -162 0
-174 -168 -133 0
256 185 -269 0
441 -243 270 0
26 189 337 0
317 438 13 0
-74 85 310 0
139 -356 -301 0
-452 326 -419 0
-348 80 139 0
-45 168 -350 0
23 -355 253 0
50 -250 -400 0
-430 -239 -468 0
-325 -64 179 0
126 -479 -169 0
45 326 -27 0
187 -189 254 0
-48 -386 -335 0
-105 -376 138 0
224 -50 143 0
319 -211 -35 0
307 -10 4 0
-162 -347 -361 0
111 -105 -233 0
-64 -70 189 0
-480 -315 131 0
416 -44 -461 0
-448 -33 -135 0
-251 -436 474 0
196 157 93 0
-181 -322 109 0
118 477 1 0
-184 370 -244 0
9 146 76 0
-356 29 442 0
121 -262 154 0
-43 164 210 0
442 -213 311 0
-44 301 146 0
80 -198 -132 0
371 111 -418 0
483 265 396 0
-266 -234 59 0
-213 3 -335 0
49 45 -253 0
234 414 381 0
75 70 153 0
-275 306 -193 0
196 -19 -89 0
-374 -242 -182 0
439 -193 -489 0
403 -325 -143 0
-68 -173 415 0
433 73 254 0
-390 -233 376 0
-393 324 -303 0
-282 180 202 0
208 188 431 0
427 -286 -374 0
355 329 420 0
144 -93 -369 0
454 277 56 0
-5 -224 182 0
179 362 365 0
-368 -310 234 0
285 242 -100 0
-404 -496 -269 0
-107 15 236 0
-494 -263 -350 0
456 196 -294 0
380 498 -119 0
-384 196 206 0
-24 279 244 0
202 232 -324 0
-391 -486 88 0
-451 -103 -187 0
-129 300 321 0
282 396 -268 0
16 421 204 0
-358 388 -32 0
-184 -499 195 0
-49 489 -189 0
450 130 -394 0
-289 -32 403 0
395 219 -133 0
-189 72 -79 0
-406 412 -65 0
473 29 -256 0
339 -477 -141 0
-66 185 -241 0
455 382 460 0
365 -41 -426 0
-290 378 117 0
-160 109 -1 0
-413 409 -373 0
482 -137 365 0
-142 -62 361 0
-295 -15 -427 0
31 -413 -42 0
226 130 121 0
-214 -340 -490 0
-50 -271 -17 0
212 -477 -345 0
202 -252 93 0
-380 31 -10 0
-115 -257 -187 0
235 294 -104 0
5 -479 8 0
-165 219 379 0
223 -370 55 0
-445 -441 -235 0
-156 89 244 0
156 -234 -277 0
489 494 -470 0
457 463 -392 0
-375 -102 -277 0
344 380 -235 0
-2 -79 336 0
-298 376 50 0
-487 -443 232 0
-72 298 -220 0
496 347 -219 0
101 -412 -173 0
421 84 356 0
-124 -252 -424 0
214 459 -269 0
-497 -108 403 0
-236 215 442 0
-383 -30 -493 0
-100 162 394 0
-335 -309 486 0
-62 221 -72 0
-331 246 -148 0
41 259 -431 0
304 341 45 0
-334 -324 210 0
-5 374 222 0
222 500 -103 0
413 -181 -480 0
-7 -152 328 0
-166 474 -117 0
16 -228 333 0
-463 -467 22 0
34 395 -154 0
-322 -468 117 0
-206 42 135 0
346 263 216 0
-439 -14 40 0
-423 318 216 0
-484 113 -443 0
483 413 -407 0
284 478 -163 0
-327 -497 -256 0
230 41 -89 0
-427 84 323 0
5 120 55 0
241 -399 38 0
444 -275 269 0
-417 -127 448 0
-77 28 206 0
45 126 442 0
326 -192 -474 0
423 187 1 0
-151 83 -201 0
-448 499 -269 0
-174 370 246 0
349 -57 -84 0
-102 -485 -5 0
380 385 -234 0
252 100 -171 0
134 65 -421 0
37 -430 412 0
-379 76 302 0
346 -328 194 0
-305 -314 -145 0
-484 292 -199 0
146 151 -10 0
252 -149 413 0
364 396 -241 0
165 127 -179 0
379 71 -328 0
316 -149 -102 0
283 -216 101 0
35 151 -463 0
153 -229 321 0
-270 -401 336 0
321 -53 -180 0
-174 84 -228 0
-181 -122 -127 0
-301 -349 -103 0
295 152 -64 0
285 -46 -262 0
-40 -388 21 0
170 -188 -15 0
420 -317 70 0
-452 415 450 0
-265 71 314 0
234 -439 -195 0
-393 91 -310 0
-14 489 199 0
328 448 -4 0
-460 -155 -330 0
-447 344 318 0
-363 59 -82 0
369 172 -227 0
-302 226 462 0
7 -482 17 0
286 -251 141 0
276 -165 -278 0
451 494 -303 0
377 -45 -277 0
317 -64 -170 0
10 482 -104 0
20 91 -290 0
-330 -237 155 0
-316 -309 -175 0
-276 493 -388 0
-454 484 -284 0
-434 -333 -239 0
253 101 -289 0
-8 161 -160 0
-460 -414 -324 0
-122 142 -467 0
-449 -103 101 0
-241 -379 -351 0
-4 -172 -362 0
203 -116 215 0
99 -255 353 0
-66 -108 4 0
72 -458 -137 0
226 188 191 0
-447 -114 69 0
-384 63 -148 0
-429 165 77 0
215 -20 475 0
441 -96 -40 0
30 221 88 0
13 488 -211 0
-369 272 -74 0
-188 229 356 0
-484 -291 262 0
189 -13 103 0
-406 -111 -204 0
-223 487 202 0
119 -487 129 0
-153 -206 406 0
431 -36 -39 0
-233 106 306 0
413 -158 454 0
-129 81 -413 0
272 417 418 0
498 21 354 0
406 -122 70 0
472 -389 -485 0
183 4 -302 0
-98 80 59 0
135 282 273 0
-65 -199 -365 0
75 -96 -344 0
-16 2 475 0
-474 354 -318 0
326 288 -339 0
124 -136 -432 0
-449 -361 154 0
7 194 -51 0
-374 -82 476 0
364 401 -251 0
-365 -92 306 0
198 27 208 0
-49 -87 260 0
149 -136 -26 0
-200 -356 -113 0
-162 319 -403 0
224 213 269 0
69 -201 160 0
121 -385 -402 0
169 -446 -29 0
236 -139 -108 0
-354 -161 80 0
-487 266 -174 0
-90 288 -354 0
96 25 333 0
367 401 116 0
-380 -70 -464 0
-76 145 -423 0
-482 -25 129 0
-43 -34 446 0
1 384 82 0
408 -335 394 0
-20 -158 375 0
269 223 -130 0
8 -283 441 0
-291 -146 -322 0
165 245 216 0
478 473 -482 0
-138 396 315 0
443 489 232 0
-188 -338 -472 0
133 372 91 0
-170 -377 -62 0
80 -227 405 0
-224 93 -192 0
-38 -391 321 0
-92 -306 319 0
90 -236 -28 0
-395 -78 157 0
214 61 -348 0
121 -290 168 0
424 -182 -58 0
182 55 396 0
171 -242 -85 0
-453 43 -279 0
126 -177 -460 0
-6 -288 -249 0
263 -113 -460 0
335 -447 25 0
179 266 -226 0
-138 -337 -3 0
197 -174 -428 0
-348 -355 -42 0
263 -228 384 0
261 -465 108 0
259 -23 -443 0
-395 232 -32 0
8 390 338 0
273 224 283 0
46 417 300 0
108 -324 135 0
-469 266 233 0
-242 -190 -45 0
3 274 431 0
20 343 -375 0
243 -223 217 0
-273 -122 -165 0
-345 -292 26 0
-292 -12 362 0
322 -372 90 0
325 450 290 0
-372 184 154 0
221 -347 431 0
-256 372 97 0
81 -304 -403 0
417 110 209 0
202 118 -233 0
-366 39 498 0
-275 -173 489 0
-132 69 -3 0
101 48 318 0
230 -126 -164 0
-144 179 276 0
-424 38 -484 0
311 455 334 0
472 -140 61 0
-155 -125 -330 0
368 -246 -16 0
175 391 -10 0
-306 -435 -369 0
146 -30 201 0
89 -365 -480 0
-183 -178 322 0
-131 318 -117 0
-205 249 -343 0
171 -360 -38 0
134 -378 -493 0
-58 112 -321 0
2 -148 14 0
-357 -68 -111 0
-279 -429 -222 0
429 65 334 0
177 94 -491 0
-405 247 304 0
360 -340 -123 0
-98 4 183 0
74 131 -40 0
-147 -348 294 0
-222 -466 491 0
451 347 302 0
-62 -103 -235 0
22 -57 55 0
335 -15 -445 0
-276 329 360 0
-149 -411 -284 0
-484 458 125 0
-312 103 230 0
-360 155 304 0
39 217 432 0
-380 -429 30 0
368 399 378 0
54 202 -349 0
-136 -496 -104 0
63 370 119 0
94 21 8 0
-363 199 -74 0
-403 -121 -70 0
473 303 483 0
-296 232 231 0
50 275 174 0
423 -25 400 0
403 302 347 0
427 -90 -478 0
210 -87 -367 0
-177 324 -465 0
-404 495 487 0
-60 -90 -176 0
-19 -383 198 0
-74 -162 -268 0
-485 -190 -27 0
-33 477 362 0
282 -206 -111 0
-427 153 306 0
-386 -351 -366 0
-198 -374 -428 0
164 -296 181 0
-300 217 38 0
-329 -232 -131 0
-220 238 38 0
326 96 80 0
-252 234 155 0
-252 389 386 0
-24 463 -92 0
-240 -336 -31 0
-472 123 -293 0
198 -116 -464 0
15 289 482 0
191 -168 -370 0
212 418 272 0
132 -9 353 0
-232 319 151 0
-190 420 138 0
-437 460 247 0
482 -206 -250 0
125 -478 -236 0
-126 307 -103 0
59 -297 220 0
-157 36 297 0
-445 206 7 0
486 324 -204 0
488 105 -494 0
395 349 -409 0
-426 -404 214 0
115 -159 -164 0
161 307 391 0
-47 -112 326 0
-295 82 -467 0
153 -406 -256 0
-300 248 -230 0
286 -90 10 0
314 -444 217 0
262 -387 448 0
140 460 -339 0
-454 187 -403 0
-87 -355 -5 0
171 -165 444 0
291 160 275 0
338 -188 -317 0
36 -447 198 0
452 204 -232 0
207 314 318 0
-364 320 -334 0
438 401 -139 0
-34 25 142 0
228 -313 -315 0
-323 -415 149 0
-302 -346 207 0
-182 -150 292 0
-328 -49 163 0
77 -163 -456 0
59 -310 265 0
122 -491 428 0
-294 -200 374 0
142 248 44 0
259 -240 -224 0
-109 472 -443 0
-378 -341 54 0
480 -275 242 0
-68 -492 -341 0
323 490 215 0
-106 -455 -324 0
251 -478 -51 0
-382 -456 -248 0
-462 -278 -319 0
167 97 406 0
349 180 -75 0
225 368 255 0
12 420 -446 0
-130 -164 -40 0
-460 -410 162 0
263 -93 -365 0
-51 -243 -248 0
488 -437 -69 0
257 -234 -228 0
-475 -384 -109 0
397 463 -332 0
307 179 -13 0
-452 456 -295 0
422 186 499 0
229 11 46 0
195 328 110 0
-80 332 -67 0
-55 -230 200 0
-407 -480 139 0
64 434 317 0
500 498 17 0
371 -494 -261 0
267 411 -184 0
372 275 -411 0
306 276 114 0
-386 -383 145 0
-455 -222 -193 0
219 -439 -364 0
-234 -195 367 0
-22 -432 -21 0
469 49 -401 0
-126 89 284 0
-59 437 223 0
-451 -331 -249 0
-348 -114 -469 0
32 -118 -460 0
90 308 -357 0
-33 84 -251 0
-1 -46 -70 0
-163 24 -23 0
-478 79 -280 0
-489 255 243 0
-21 456 -110 0
-384 218 482 0
182 21 -42 0
238 -298 -403 0
468 -322 490 0
34 404 -373 0
24 -476 -320 0
-53 317 -275 0
-83 376 -201 0
-26 330 -52 0
-74 492 -475 0
451 -137 -371 0
498 6 41 0
129 289 -181 0
-299 61 -443 0
184 -420 -336 0
269 -28 13 0
136 -51 212 0
499 160 66 0
-365 139 -333 0
-287 61 -468 0
-118 415 268 0
-235 324 487 0
11 275 318 0
-415 -334 457 0
-411 -36 358 0
-488 -422 72 0
-126 22 87 0
376 109 356 0
180 -328 389 0
67 49 481 0
-164 -322 -253 0
45 240 252 0
442 381 -408 0
445 43 141 0
103 13 -130 0
-26 62 -221 0
459 152 -218 0
74 173 118 0
-30 368 476 0
249 -487 -497 0
285 -116 -312 0
-190 383 -427 0
-211 -443 -229 0
134 -336 -347 0
426 -358 282 0
485 255 -6 0
438 -247 -373 0
-44 -326 -65 0
325 71 -113 0
-14 -351 -98 0
-404 -278 -378 0
190 -444 -228 0
-320 125 326 0
-295 -383 149 0
-343 -410 -445 0
355 461 280 0
271 123 -334 0
102 26 226 0
-120 -91 247 0
300 -25 353 0
-123 -80 -206 0
264 -307 314 0
446 -128 -3 0
-53 285 494 0
280 -349 103 0
249 -435 383 0
-67 -290 -246 0
-138 -346 184 0
-346 -170 381 0
-185 -453 -5 0
258 -22 89 0
483 -256 49 0
108 -418 68 0
-313 -232 -393 0
-70 439 108 0
89 409 -64 0
-312 355 -337 0
-458 159 -356 0
-393 -220 127 0
-57 -315 -478 0
419 377 -301 0
436 286 240 0
-340 407 -273 0
340 360 249 0
-280 -444 41 0
-372 265 66 0
336 -304 145 0
283 -468 141 0
-417 334 -194 0
-410 417 469 0
-477 260 -429 0
-397 204 368 0
450 83 344 0
-457 -367 389 0
-34 221 -279 0
-206 452 208 0
-28 160 -268 0
259 322 -310 0
-54 95 77 0
467 -226 369 0
166 -418 432 0
-185 -414 -418 0
174 421 -215 0
193 -195 294 0
133 193 -326 0
-353 -61 -106 0
189 319 -187 0
268 -67 358 0
-264 -241 -211 0
151 256 -30 0
277 -416 -350 0
66 306 31 0
376 -415 -50 0
81 240 416 0
-368 -457 66 0
-159 463 166 0
365 -204 173 0
410 294 86 0
-410 -351 442 0
479 237 -498 0
298 -304 165 0
-448 52 474 0
-1 -266 386 0
331 -412 -414 0
-432 -40 99 0
-353 333 166 0
-241 -353 76 0
413 166 -436 0
-209 -373 458 0
-96 -341 -425 0
-182 -257 214 0
-150 54 -469 0
-244 237 -289 0
337 351 156 0
410 -331 -120 0
481 439 448 0
90 434 -383 0
-215 -29 -34 0
297 300 -453 0
439 -244 -198 0
25 -30 -206 0
-350 346 -186 0
-144 432 154 0
-304 -158 174 0
256 -399 -403 0
349 -359 -333 0
-117 350 471 0
284 76 -93 0
253 -358 293 0
-236 -261 470 0
-210 -452 98 0
-483 295 -26 0
261 162 -377 0
-282 426 496 0
-291 -111 -330 0
65 316 -150 0
1 211 403 0
-19 -353 252 0
260 -302 222 0
-357 142 132 0
-495 -264 -361 0
-79 228 -117 0
-15 -122 -26 0
-396 -356 155 0
452 -334 -68 0
461 -195 415 0
-497 173 -333 0
-399 -306 79 0
-456 -225 -1 0
38 -418 -444 0
-126 -30 397 0
-61 -495 463 0
133 405 -490 0
204 -147 -388 0
-493 -199 453 0
472 -326 -493 0
4 -310 -154 0
-363 -395 304 0
290 246 500 0
-355 483 -70 0
-441 -413 480 0
175 265 -251 0
-89 -141 -421 0
-285 455 38 0
142 -16 -163 0
233 21 -393 0
-332 -447 233 0
-410 215 114 0
155 471 236 0
471 65 -457 0
-396 331 -447 0
463 -485 -128 0
-109 -478 -399 0
138 -328 141 0
480 417 173 0
-380 -382 18 0
336 -284 -117 0
-489 486 132 0
393 -189 -180 0
-320 314 318 0
-203 -166 407 0
-393 349 -419 0
-25 160 264 0
-150 -211 -245 0
-213 14 377 0
321 269 22 0
-485 -371 -35 0
-172 419 448 0
-31 -443 175 0
-57 208 -342 0
288 424 157 0
75 366 124 0
473 101 -217 0
-93 -49 -339 0
-394 -3 -263 0
384 144 18 0
405 475 30 0
247 -442 262 0
-51 265 -18 0
-181 2 -434 0
-257 -268 76 0
-424 -357 -456 0
205 -179 -484 0
-202 428 -404 0
216 -164 224 0
253 -392 -87 0
133 -189 449 0
14 476 111 0
16 147 -22 0
379 -411 -83 0
359 144 57 0
-6 -179 379 0
-311 101 185 0
494 -75 1 0
-201 -362 425 0
484 375 374 0
-428 -129 -61 0
-188 -107 281 0
178 419 -428 0
65 -154 -104 0
112 -241 254 0
-70 -123 397 0
71 -300 -155 0
143 -66 70 0
437 -337 44 0
-134 287 -219 0
-21 203 192 0
309 152 -325 0
129 -91 -363 0
226 295 207 0
-301 -275 230 0
126 166 -195 0
470 -402 -303 0
61 70 5 0
396 -124 -437 0
96 364 -212 0
-249 157 -124 0
-289 -454 -203 0
-149 -87 -267 0
-484 -263 313 0
56 -323 47 0
260 -172 26 0
360 444 204 0
178 472 482 0
-500 -31 132 0
-470 -388 -166 0
-289 192 -461 0
-399 -414 36 0
-127 -73 128 0
-82 -116 300 0
354 328 122 0
25 -113 70 0
137 106 473 0
414 -272 -162 0
113 -69 374 0
79 -285 -2 0
-217 157 56 0
31 -118 -484 0
-44 135 84 0
-168 199 -220 0
-422 133 407 0
-440 426 168 0
188 -264 -448 0
-94 -116 -320 0
-296 462 -364 0
-379 -474 133 0
339 255 -260 0
168 72 -113 0
265 66 357 0
-408 252 -294 0
-46 -71 435 0
35 421 -67 0
-174 294 37 0
261 -278 415 0
488 -484 210 0
-69 -486 185 0
472 -328 477 0
297 -191 -155 0
302 217 -274 0
-310 -126 172 0
311 -208 367 0
435 -98 470 0
-409 436 229 0
272 192 -448 0
-156 -354 -341 0
413 314 -441 0
215 -3 -87 0
-212 286 153 0
-351 -51 355 0
-387 -40 183 0
76 -37 59 0
-376 313 -86 0
464 -24 -183 0
-175 -69 -145 0
2 -85 346 0
372 -47 17 0
-413 -445 122 0
-185 -209 84 0
-184 180 -105 0
-188 134 -324 0
-325 -177 -283 0
-178 -387 -82 0
-164 191 81 0
480 62 -46 0
52 -369 -65 0
-4 -21 -420 0
-138 54 -328 0
-201 297 399 0
-187 -489 202 0
-220 -221 314 0
14 -316 -169 0
301 -488 147 0
65 258 380 0
-167 417 -164 0
369 422 68 0
345 266 -412 0
185 -457 67 0
-431 113 264 0
116 -329 129 0
416 -25 484 0
-291 494 -82 0
-32 -222 -122 0
25 401 -303 0
286 468 452 0
302 277 335 0
-250 -144 107 0
-211 -414 -208 0
99 -152 -169 0
301 257 456 0
213 -92 -201 0
-489 144 43 0
12 -361 -132 0
-166 -215 -341 0
450 435 182 0
-319 91 66 0
328 408 -491 0
-202 305 379 0
203 2 406 0
397 -297 -62 0
469 337 -432 0
493 -236 -259 0
-337 -477 432 0
-62 -87 -386 0
-92 -318 -170 0
363 -118 -127 0
-32 89 -445 0
-89 330 -295 0
382 -278 -493 0
-311 -219 -339 0
-25 344 421 0
-94 150 341 0
-143 -320 -46 0
-437 -493 -249 0
-179 -441 -403 0
259 166 -207 0
-277 400 -241 0
-267 -474 -49 0
-30 -342 -21 0
269 -77 -50 0
369 -48 -134 0
208 242 -60 0
-65 63 305 0
463 -428 -363 0
14 313 -465 0
474 418 -203 0
454 56 -456 0
-136 -403 -52 0
-196 -220 374 0
465 430 174 0
139 431 -450 0
-60 -212 79 0
-391 406 -33 0
132 239 -196 0
-4 416 -43 0
367 -117 410 0
-397 -318 428 0
334 -336 179 0
-258 283 485 0
-201 -316 -187 0
-298 -97 -160 0
317 -315 -382 0
-445 -290 -417 0
204 -349 199 0
429 -327 35 0
-173 273 7 0
-217 -355 -108 0
435 -305 -97 0
-218 307 -219 0
318 -265 -166 0
263 179 -192 0
267 117 49 0
328 253 343 0
50 105 -444 0
-382 243 -417 0
241 183 341 0
-19 -478 34 0
385 106 298 0
287 410 26 0
-318 -196 -334 0
-19 -216 -45 0
-258 283 -139 0
-475 -481 -249 0
-484 -111 -443 0
-388 434 19 0
-17 -256 -381 0
-65 -227 -8 0
488 -320 176 0
77 132 182 0
-195 52 495 0
146 -57 -123 0
-97 248 -400 0
21 419 260 0
61 489 209 0
222 295 -259 0
-143 296 288 0
-90 -34 -284 0
119 305 460 0
-149 -438 93 0
198 337 39 0
364 127 27 0
101 297 403 0
292 203 -162 0
399 363 -251 0
-264 -255 -417 0
391 -458 250 0
-187 -355 -84 0
216 -250 88 0
-108 465 -99 0
-61 -314 467 0
-364 493 280 0
139 146 275 0
260 346 60 0
-288 -271 -104 0
382 -300 -491 0
274 272 469 0
-118 -440 -254 0
-218 -231 194 0
35 430 500 0
-208 6 -109 0
-171 -234 272 0
435 -185 212 0
394 -304 174 0
-335 183 417 0
-493 478 -495 0
-273 321 199 0
275 -317 -130 0
157 219 32 0
-125 -312 294 0
310 -95 -98 0
18 122 262 0
70 -217 370 0
94 -58 -451 0
335 293 56 0
-313 -321 -444 0
326 -283 -355 0
281 486 -15 0
318 100 -441 0
134 -51 -1 0
250 212 -444 0
-77 -213 17 0
-22 -58 -462 0
-65 474 66 0
491 -242 -54 0
-121 -177 214 0
434 -86 -211 0
-451 -407 9 0
384 -248 27 0
273 344 82 0
-436 -102 -400 0
-315 415 -460 0
38 199 -8 0
-42 -91 340 0
11 347 -7 0
153 -288 102 0
397 35 136 0
372 -354 -183 0
-185 -241 451 0
-265 183 161 0
-312 45 -155 0
309 -399 -41 0
-159 -363 328 0
-327 164 431 0
-396 128 409 0
194 -442 66 0
222 -275 -224 0
-77 10 186 0
488 -323 -498 0
213 59 -403 0
32 393 417 0
52 -37 7 0
78 32 -200 0
171 -107 -180 0
193 155 113 0
65 150 -247 0
226 13 -64 0
-354 -422 -307 0
484 95 52 0
-496 -33 156 0
30 209 115 0
-72 -447 -493 0
-229 25 -301 0
-90 366 54 0
195 196 -83 0
-65 148 -403 0
-215 -334 436 0
18 -385 289 0
225 -494 194 0
456 -181 174 0
212 -273 327 0
272 -253 -3 0
-233 -398 275 0
118 -113 141 0
-466 -150 -447 0
-84 378 334 0
-272 -84 379 0
-76 -394 -82 0
456 279 -414 0
108 157 101 0
110 474 -208 0
425 -250 -320 0
440 -484 -17 0
286 -411 13 0
304 -449 -387 0
38 472 -281 0
-60 272 -89 0
487 -292 -39 0
-91 -183 -379 0
329 40 -88 0
477 -263 -312 0
152 223 376 0
342 446 -477 0
192 210 163 0
465 243 193 0
-253 73 -297 0
-291 -214 -196 0
122 328 383 0
-191 111 -289 0
212 -56 61 0
388 405 254 0
499 327 -39 0
-130 77 -159 0
442 221 199 0
-20 190 -336 0
84 -324 425 0
-281 -324 -23 0
299 391 319 0
337 -329 -272 0
161 396 54 0
-405 251 355 0
350 267 -487 0
452 -255 220 0
181 128 141 0
6 -419 48 0
-76 164 324 0
-404 34 152 0
81 -362 -275 0
190 -322 55 0
-174 36 83 0
-332 -209 361 0
136 390 -94 0
-236 70 -84 0
396 165 356 0
-483 -71 175 0
-284 -98 -420 0
-58 -283 -436 0
-144 -250 309 0
46 88 -292 0
466 -364 272 0
383 83 -342 0
-451 169 -421 0
31 151 -192 0
-313 32 -431 0
-411 -304 -408 0
-332 274 188 0
142 206 -268 0
461 -137 -321 0
162 79 12 0
-169 -44 392 0
258 203 -71 0
56 246 294 0
309 -232 295 0
-320 -293 -327 0
-347 229 311 0
393 -460 149 0
-478 442 348 0
-352 374 -158 0
42 -154 225 0
499 176 341 0
-97 -380 -406 0
208 256 225 0
277 251 190 0
-428 18 261 0
-111 25 -250 0
8 390 433 0
-115 -468 408 0
188 349 465 0
-269 -322 364 0
-460 23 -281 0
-161 -479 -174 0
-65 301 231 0
149 292 79 0
353 84 411 0
157 -53 99 0
-183 -110 431 0
258 -225 60 0
468 -106 42 0
-35 -481 421 0
286 356 115 0
152 -46 -16 0
455 -407 225 0
-372 3 310 0
-253 430 -117 0
-16 316 -408 0
63 -92 380 0
-274 -118 -52 0
102 -148 -314 0
226 71 427 0
-156 414 -392 0
278 -135 47 0
-473 -293 -119 0
-311 427 292 0
382 467 -294 0
175 -180 309 0
-276 304 24 0
168 58 -115 0
472 43 -369 0
31 255 -483 0
111 -390 372 0
243 -346 132 0
-337 309 74 0
31 295 446 0
200 -500 412 0
-312 405 76 0
40 -245 312 0
-434 139 -4 0
-395 469 82 0
-374 -315 -275 0
301 371 -385 0
-428 183 -65 0
-108 309 202 0
308 359 -45 0
-78 -391 435 0
186 364 -336 0
-28 -52 -179 0
434 -306 -248 0
-108 334 -326 0
-33 -418 323 0
132 -370 -352 0
-394 -5 98 0
-146 231 421 0
233 -323 -390 0
-364 -373 -166 0
25 369 215 0
-433 -213 298 0
363 217 87 0
457 -280 135 0
181 388 -484 0
-428 195 -407 0
4 -165 304 0
-277 464 -67 0
-338 180 -21 0
-236 -1 187 0
474 -335 126 0
-475 -235 136 0
-121 446 416 0
248 352 -44 0
-165 -182 -111 0
149 381 179 0
125 315 -493 0
-304 -275 46 0
-293 448 -473 0
-381 230 168 0
398 -425 -39 0
-67 -294 -258 0
-171 197 -252 0
-61 -212 -81 0
100 167 164 0
290 -295 -313 0
372 309 -142 0
327 87 336 0
89 -174 27 0
108 498 -201 0
79 225 -125 0
200 -44 421 0
-97 313 152 0
-485 -411 383 0
-374 -178 319 0
287 -399 -366 0
-169 463 116 0
316 -294 62 0
279 100 74 0
-130 376 -416 0
459 256 452 0
-315 238 -131 0
130 135 -497 0
-311 -288 -16 0
-145 -368 480 0
-335 -302 -190 0
178 -256 235 0
-86 156 14 0
-284 -116 407 0
91 -287 352 0
-46 374 78 0
266 118 125 0
-41 -352 -294 0
441 1 -78 0
180 88 -379 0
-348 405 -212 0
491 263 -314 0
355 -285 -74 0
-428 470 83 0
105 217 121 0
-193 302 -250 0
-222 405 -266 0
117 67 -322 0
130 -216 -496 0
203 -435 354 0
40 -251 -310 0
296 6 485 0
-8 -172 -305 0
-129 423 -453 0
-256 273 -382 0
-366 -251 165 0
-44 -240 211 0
-266 -66 -357 0
-407 282 -24 0
-174 43 -292 0
195 -268 -84 0
-443 180 386 0
79 10 316 0
157 330 -221 0
-145 -481 340 0
-346 489 342 0
158 430 38 0
-361 25 404 0
-421 273 236 0
-299 160 -342 0
62 14 199 0
144 43 -203 0
-99 498 488 0
195 53 193 0
175 356 -390 0
-278 -340 56 0
-168 193 -444 0
-142 -256 -41 0
147 -473 -41 0
46 420 -345 0
261 58 125 0
-60 408 -491 0
385 -143 24 0
75 -328 -324 0
-386 176 327 0
-53 440 244 0
-340 62 -138 0
31 -461 -73 0
-343 -368 232 0
-204 -227 -435 0
378 -318 102 0
328 -79 436 0
151 -36 469 0
149 282 -169 0
388 451 -137 0
63 -66 262 0
-30 -164 271 0
-155 -354 -21 0
-382 483 -467 0
160 -334 -214 0
273 353 -160 0
-238 -167 -97 0
123 111 94 0
-188 115 -36 0
-386 25 84 0
278 -234 167 0
-428 475 -36 0
-351 121 -363 0
406 426 -283 0
-282 439 48 0
212 -475 365 0
-260 451 133 0
330 -190 241 0
215 125 135 0
331 134 471 0
-263 487 146 0
410 327 477 0
-152 -25 -129 0
-366 50 223 0
484 189 -449 0
377 63 -389 0
-228 -440 298 0
433 480 489 0
432 -434 -255 0
416 250 491 0
-286 15 -217 0
103 -335 127 0
-458 -323 467 0
-50 356 -495 0
267 148 -263 0
119 125 313 0
83 425 -419 0
96 -326 -147 0
157 11 -34 0
147 -56 475 0
-128 79 -12 0
-65 -386 -12 0
405 418 482 0
-183 358 -330 0
-239 241 413 0
-75 314 18 0
311 100 57 0
1 74 89 0
61 -445 -491 0
-18 -73 -231 0
176 460 398 0
129 -457 267 0
190 -325 -88 0
441 308 -321 0
35 405 40 0
260 -142 62 0
424 -310 -271 0
423 315 455 0
-244 -272 185 0
-451 488 258 0
-365 337 -224 0
154 354 -177 0
338 -313 497 0
68 79 -449 0
297 -311 350 0
-399 9 -254 0
-34 163 155 0
-36 -20 -265 0
-269 -182 -244 0
-47 343 -11 0
-188 -476 472 0
-293 -143 -195 0
46 88 436 0
-459 77 254 0
-49 291 -415 0
-165 -348 142 0
