p cnf 1000 4850
-622 -667 -343 0
-813 377 34 0
543 442 -70 0
-489 -229 133 0
404 596 432 0
859 -665 969 0
-165 319 40 0
-723 276 915 0
-766 -791 546 0
-122 541 677 0
20 134 -720 0
466 389 -746 0
633 -440 -150 0
-443 601 714 0
-211 -423 -173 0
-951 -864 605 0
-265 -24 355 0
-145 595 953 0
934 -848 239 0
804 -519 -658 0
-50 -248 267 0
-452 -841 -748 0
-718 -492 -83 0
646 976 -804 0
-649 -523 -448 0
318 219 967 0
-547 128 116 0
-185 -894 814 0
188 -954 624 0
-107 379 -937 0
43 200 434 0
-213 956 339 0
-609 -134 -927 0
190 537 516 0
371 273 112 0
544 225 644 0
899 853 -964 0
948 -148 -431 0
495 349 -446 0
-682 719 -202 0
-432 -994 306 0
-392 -815 -358 0
-549 -719 -6 0
912 -982 994 0
-558 -898 803 0
769 22 -597 0
-759 -997 -670 0
-192 -773 -669 0
936 -395 -688 0
23 -690 257 0
887 722 946 0
-80 888 656 0
-470 559 -399 0
20 389 85 0
-217 -245 538 0
-353 402 -40 0
-375 735 -488 0
473 -591 707 0
-189 -235 394 0
-440 213 -86 0
-903 -766 348 0
648 356 -678 0
823 -6 752 0
597 990 -476 0
756 956 6 0
138 704 99 0
-445 749 830 0
-184 29 -775 0
-295 -698 676 0
555 -616 727 0
-938 428 611 0
578 -812 431 0
453 -954 331 0
336 72 558 0
-960 -265 615 0
294 598 -948 0
-801 -731 466 0
986 22 628 0
743 -688 200 0
596 364 -589 0
-775 -469 -127 0
-528 967 -886 0
-397 294 -207 0
-375 321 -619 0
558 -19 510 0
-390 -49 -34 0
-840 -970 488 0
419 641 -120 0
-433 -603 -335 0
422 148 218 0
785 728 -915 0
-927 907 569 0
116 791 -876 0
545 -615 612 0
166 -971 -949 0
-425 471 768 0
348 -419 324 0
933 667 708 0
742 69 -828 0
336 669 -960 0
672 585 382 0
-385 935 269 0
778 -247 -840 0
-925 846 784 0
756 72 -183 0
903 791 27 0
-717 259 901 0
-433 112 392 0
492 374 -476 0
-795 401 708 0
790 662 -273 0
70 703 682 0
-714 -305 560 0
-205 -48 85 0
-879 106 -522 0
-518 -364 34 0
385 -951 211 0
-2 -238 993 0
-960 571 350 0
-273 -304 661 0
-549 -102 951 0
-525 -489 -994 0
-276 275 604 0
948 -847 -826 0
-538 223 687 0
716 982 445 0
367 911 805 0
-923 523 431 0
655 -735 947 0
-559 -204 880 0
644 -207 -806 0
-585 817 526 0
107 -287 217 0
159 -736 442 0
709 143 773 0
-876 979 257 0
390 617 -849 0
-495 -413 -587 0
-630 -737 993 0
858 482 945 0
602 -438 -63 0
571 158 -930 0
-464 -648 -622 0
-956 -54 -335 0
412 511 897 0
509 -429 -144 0
-323 -53 237 0
791 -103 819 0
742 243 -732 0
49 305 -739 0
795 -354 436 0
900 -631 -730 0
-806 779 -263 0
-897 940 -63 0
395 508 -670 0
706 -413 -46 0
76 -209 764 0
553 -744 578 0
291 330 -580 0
-445 -361 733 0
-707 139 -598 0
-642 -25 -626 0
-570 973 -521 0
-643 454 883 0
931 477 -968 0
-411 604 655 0
623 -728 795 0
-941 605 -333 0
74 -574 -105 0
966 219 -809 0
424 300 802 0
-389 199 550 0
-76 121 112 0
991 -743 885 0
614 -83 -791 0
-397 514 830 0
-708 372 -346 0
-890 389 674 0
930 -342 -85 0
527 61 -992 0
-717 376 -45 0
506 -942 541 0
-497 -41 215 0
-848 187 617 0
601 767 660 0
-630 -473 784 0
-829 -68 546 0
-990 -523 685 0
-764 490 -578 0
-314 -336 222 0
-102 -46 50 0
134 762 774 0
-875 628 -310 0
-408 681 141 0
79 840 -975 0
964 607 -51 0
444 -290 -403 0
659 994 -143 0
-612 -515 465 0
-348 -799 -3 0
346 -960 469 0
725 844 -698 0
902 -836 -204 0
846 -353 714 0
-652 -135 -486 0
741 -570 -136 0
159 -48 -571 0
659 867 77 0
572 667 250 0
133 -682 512 0
-377 -796 -903 0
486 -947 -136 0
406 172 656 0
823 525 -147 0
-951 -353 396 0
301 285 908 0
-748 -511 154 0
688 -448 591 0
-570 426 -151 0
-458 456 -12 0
376 716 988 0
261 -549 614 0
-429 775 -166 0
251 -56 -412 0
526 -655 484 0
-699 -799 -65 0
51 803 798 0
194 -568 -544 0
-345 -61 569 0
678 107 2 0
856 557 306 0
498 479 450 0
-423 -608 -227 0
299 -808 -557 0
-959 975 122 0
-575 -811 -615 0
353 256 -609 0
-615 -218 -931 0
-67 128 -572 0
541 783 -656 0
37 859 -164 0
555 -379 997 0
840 454 -20 0
62 420 815 0
-644 358 825 0
-918 -296 -298 0
-607 -237 752 0
283 -672 345 0
-582 103 -342 0
447 637 -18 0
-273 -864 388 0
-866 989 570 0
96 22 -532 0
-283 -279 505 0
-522 -839 -153 0
-865 673 -825 0
-210 170 -634 0
707 -470 -168 0
995 315 -713 0
-62 -307 691 0
478 -160 -299 0
534 -136 530 0
236 -745 -645 0
448 -381 360 0
668 620 592 0
189 -699 -53 0
-267 -993 961 0
233 34 -810 0
983 -473 -335 0
-82 720 812 0
152 475 141 0
97 297 -161 0
123 -354 756 0
750 914 -199 0
669 -306 -290 0
99 -496 -418 0
149 929 -322 0
283 -582 -294 0
-207 -494 692 0
873 -382 -148 0
-408 -472 16 0
449 295 904 0
-962 466 -744 0
-414 905 766 0
-793 -297 346 0
495 -763 -749 0
459 374 -514 0
-421 718 -733 0
254 533 -756 0
477 432 -71 0
-711 281 816 0
265 764 -358 0
810 -397 -520 0
47 869 -789 0
20 967 -706 0
-561 -519 508 0
889 -293 600 0
963 -967 -788 0
910 -511 394 0
-600 57 -387 0
252 -149 960 0
-607 -776 213 0
878 -517 -236 0
-909 -995 387 0
-108 -245 -359 0
921 224 -161 0
571 392 -652 0
759 907 -153 0
-174 -45 -204 0
-747 934 -614 0
-286 449 -119 0
917 -196 716 0
303 391 143 0
153 -21 -397 0
527 705 -149 0
196 312 98 0
593 554 496 0
-451 416 188 0
281 -777 -580 0
115 489 -868 0
672 821 -153 0
-933 -119 -986 0
562 -775 -75 0
751 176 -51 0
-664 800 -150 0
182 341 58 0
781 67 -398 0
-285 273 -85 0
-858 522 431 0
-733 -661 -930 0
507 -905 -669 0
-363 72 -446 0
-725 635 114 0
943 -985 -196 0
691 -437 52 0
-588 26 -461 0
-10 -776 223 0
137 -638 -338 0
30 384 856 0
806 333 -787 0
277 -453 410 0
-655 549 -826 0
-724 71 851 0
-976 261 264 0
-712 -607 560 0
413 -193 650 0
993 128 -276 0
325 211 -381 0
223 -726 -729 0
-854 598 871 0
932 321 -319 0
701 -98 -555 0
688 -456 706 0
-945 -119 899 0
-850 -134 656 0
376 107 842 0
-825 -218 583 0
-924 397 37 0
950 -18 754 0
999 735 -723 0
-704 834 92 0
17 -546 -983 0
-891 913 -993 0
317 -405 232 0
-75 -178 -448 0
-939 505 899 0
-983 625 377 0
-24 702 -433 0
579 -152 744 0
3 177 -542 0
558 897 -816 0
-800 858 -794 0
-472 803 492 0
781 856 -98 0
750 929 -502 0
919 -413 -121 0
-542 171 813 0
-533 -322 -816 0
-465 802 652 0
854 -336 -15 0
747 862 -118 0
-631 -495 49 0
-777 257 -249 0
216 -793 -554 0
645 -825 -419 0
-442 -654 379 0
391 -750 628 0
78 -709 746 0
-564 -1000 -216 0
-426 -513 -489 0
334 -614 -179 0
192 -555 726 0
-95 -195 -599 0
131 427 -9 0
-230 180 878 0
-917 427 816 0
954 -41 -677 0
-464 294 -264 0
908 -827 101 0
824 -244 64 0
112 -605 -706 0
-586 558 816 0
-949 617 -298 0
5 -994 505 0
280 393 -791 0
-898 166 542 0
-582 258 -650 0
786 -858 -243 0
34 338 -278 0
-704 -325 320 0
-503 -669 -81 0
-313 -947 -120 0
-260 -232 -406 0
42 985 624 0
-685 -417 271 0
63 747 81 0
-58 -777 -123 0
921 -360 206 0
-609 -455 33 0
811 -266 -442 0
-437 233 -261 0
-684 -646 195 0
809 -978 861 0
-125 300 -60 0
-272 88 -989 0
-639 27 -995 0
-834 611 614 0
830 325 -845 0
354 449 927 0
-722 735 -646 0
295 -620 962 0
-825 328 524 0
-29 -882 -436 0
547 -496 -828 0
-658 814 461 0
-561 -458 -83 0
3 -515 338 0
659 575 -913 0
348 -98 745 0
-649 -517 314 0
-790 -419 84 0
-166 417 -33 0
-282 -849 724 0
-346 -581 -96 0
-843 -648 -277 0
981 563 -222 0
-555 -399 -502 0
943 435 -581 0
-656 -77 -934 0
910 737 132 0
1000 -545 -293 0
-588 706 958 0
-846 926 -947 0
42 -676 -140 0
-160 -693 -283 0
460 -849 -391 0
125 -301 -542 0
243 279 570 0
691 8 210 0
-777 582 896 0
-745 772 -550 0
-194 -710 -285 0
923 992 938 0
-977 -21 -467 0
827 853 -962 0
480 806 946 0
459 -861 845 0
-853 -727 -927 0
-178 -13 199 0
-812 -369 -744 0
-31 20 578 0
278 -957 861 0
478 -767 -152 0
-872 277 353 0
710 130 666 0
-573 53 -18 0
663 237 -877 0
-861 -711 36 0
859 -408 295 0
-724 170 -506 0
262 436 634 0
-728 -713 -870 0
123 -746 -269 0
-580 -275 -715 0
-814 800 59 0
551 124 -960 0
-842 -184 -924 0
297 477 -896 0
-435 -855 -840 0
-81 228 -765 0
865 -866 -58 0
950 235 65 0
422 210 351 0
566 -222 -271 0
70 537 369 0
-582 83 845 0
-172 -260 -153 0
5 -256 -476 0
632 858 671 0
586 -469 237 0
274 -787 -315 0
373 -798 77 0
411 -826 34 0
999 -635 -779 0
-883 315 -848 0
-602 -31 105 0
-581 353 380 0
145 681 -114 0
505 166 -9 0
648 445 -663 0
-583 -655 -309 0
190 961 273 0
-123 287 222 0
209 -912 -265 0
729 545 -870 0
468 -516 -811 0
312 358 142 0
-629 330 -892 0
-34 291 585 0
-976 319 -650 0
-864 710 -950 0
984 543 -532 0
453 -560 -768 0
536 389 650 0
158 971 310 0
242 -222 147 0
912 883 674 0
150 863 -933 0
764 -862 116 0
-203 -942 878 0
329 -130 -480 0
-969 -899 -730 0
-41 -259 863 0
825 323 -645 0
477 -194 529 0
-487 -423 -356 0
109 -644 807 0
-815 -533 158 0
-299 670 813 0
-646 987 -739 0
796 844 625 0
-972 -81 703 0
205 468 -884 0
271 752 -872 0
-588 810 484 0
-570 887 -449 0
-391 733 -544 0
-890 -884 938 0
-234 -446 -660 0
485 768 269 0
408 701 -558 0
-621 410 13 0
174 720 -817 0
-824 -139 867 0
-332 -718 985 0
770 -30 -93 0
528 108 221 0
155 -434 -429 0
418 484 -792 0
521 175 705 0
466 527 -795 0
-600 -908 -623 0
-207 15 -673 0
685 794 -314 0
-492 238 873 0
-143 865 629 0
-188 455 958 0
135 754 858 0
-356 -589 21 0
933 -237 907 0
-565 915 97 0
15 -765 693 0
359 -121 -941 0
658 924 890 0
-248 144 891 0
868 -290 867 0
-923 778 973 0
497 217 361 0
-226 -188 243 0
-119 -108 -244 0
531 -959 737 0
931 -100 754 0
-479 17 -670 0
-863 733 497 0
879 114 -194 0
-472 -677 -558 0
829 -735 478 0
648 897 -875 0
573 76 79 0
810 989 123 0
950 424 -421 0
117 438 -360 0
-113 956 -125 0
-658 734 178 0
498 882 -187 0
-676 481 -971 0
-953 -642 7 0
-740 -492 -344 0
30 -238 957 0
307 265 688 0
55 -376 72 0
-570 872 -946 0
-524 67 -235 0
41 982 165 0
-425 989 -53 0
330 142 119 0
313 598 327 0
-350 -445 -979 0
-478 704 -892 0
-608 36 855 0
-664 265 374 0
-64 457 -180 0
-872 -353 321 0
823 305 -374 0
-104 -185 570 0
96 282 924 0
-609 531 539 0
662 950 83 0
-754 718 -482 0
-792 570 685 0
-963 -321 -345 0
531 822 -193 0
162 762 630 0
843 919 -467 0
205 -847 -512 0
11 121 -296 0
66 -131 945 0
-641 261 632 0
422 278 -719 0
540 -692 -814 0
-258 -908 210 0
-413 760 -752 0
775 146 -534 0
160 651 -904 0
-33 830 260 0
50 160 -832 0
267 996 -869 0
895 444 -719 0
32 511 -235 0
-717 639 -107 0
-55 -770 224 0
-927 874 -527 0
224 -885 -381 0
760 284 -580 0
40 -677 244 0
-775 317 762 0
687 -317 359 0
-542 -856 -819 0
953 -314 -283 0
962 134 142 0
-815 773 19 0
269 -311 711 0
-795 -444 -387 0
739 -468 634 0
799 601 262 0
940 417 -848 0
704 631 689 0
997 232 -490 0
369 584 680 0
-592 -602 12 0
-831 -421 958 0
559 -290 -881 0
848 222 159 0
140 8 -485 0
-446 -92 -533 0
-247 -831 -531 0
622 -823 -998 0
-385 403 -527 0
493 425 -43 0
699 750 841 0
680 -475 780 0
-733 -319 156 0
-17 734 242 0
-541 -637 -911 0
502 558 221 0
-953 -595 -579 0
166 -300 537 0
-528 748 -254 0
-404 626 -71 0
-54 -795 625 0
500 -631 -620 0
-71 -744 677 0
-802 -58 997 0
714 -747 -283 0
-546 814 219 0
-753 728 -670 0
-893 270 -122 0
668 -876 -487 0
934 470 800 0
260 -950 -341 0
295 414 362 0
-576 713 -149 0
782 840 -666 0
-953 -797 222 0
-183 166 76 0
-23 478 22 0
-796 -954 720 0
-500 292 634 0
246 -58 885 0
293 958 883 0
-510 -825 -522 0
877 -138 617 0
-153 -603 -897 0
-995 786 -624 0
-96 -770 -246 0
-964 678 805 0
-229 -982 939 0
-636 -959 -191 0
-105 387 251 0
258 900 -347 0
-967 -440 601 0
-156 -844 -729 0
748 -362 569 0
-642 -287 -270 0
227 -248 -937 0
532 1 933 0
892 959 -863 0
-453 -322 -821 0
-961 211 -87 0
-118 -137 -756 0
588 -658 608 0
333 148 -891 0
508 -553 872 0
-381 416 382 0
96 -949 928 0
975 -456 161 0
835 -148 -692 0
-716 -974 926 0
-453 -646 -763 0
-212 974 -552 0
-87 476 -932 0
-959 -574 368 0
998 -66 534 0
-927 86 -941 0
888 -905 -501 0
-23 -93 -393 0
-352 26 -24 0
284 877 -700 0
764 -946 -38 0
445 865 -480 0
-512 419 351 0
-98 -707 829 0
688 935 559 0
709 220 468 0
464 939 -466 0
-630 -13 -998 0
336 171 -157 0
-177 -895 -921 0
6 -24 39 0
756 -342 364 0
7 394 248 0
-4 -330 -539 0
-895 490 207 0
80 123 269 0
774 114 312 0
-509 865 -769 0
-96 -765 -238 0
-464 -847 -837 0
-388 -263 -419 0
-314 -649 -135 0
283 -57 364 0
-5 173 -447 0
-331 -970 -306 0
-688 73 516 0
211 809 -951 0
38 767 944 0
479 785 -947 0
550 66 101 0
413 -530 -574 0
-623 -398 -630 0
-71 -992 -83 0
-855 255 337 0
326 -21 -31 0
-177 -794 -370 0
-603 404 -345 0
646 128 -891 0
454 804 -757 0
-190 126 849 0
626 -205 399 0
180 -593 -767 0
-372 -418 -847 0
-417 -71 100 0
-929 -461 13 0
616 104 -897 0
-397 8 -701 0
632 155 727 0
200 -672 -180 0
944 -812 121 0
157 -298 -68 0
833 954 177 0
-417 -320 974 0
662 583 -988 0
840 54 850 0
-209 321 -241 0
77 -813 -797 0
-538 -441 -970 0
972 -446 -141 0
-856 -421 301 0
-510 335 629 0
900 -10 745 0
-790 444 539 0
151 -12 742 0
-797 46 972 0
-644 154 -61 0
-169 -969 954 0
687 334 723 0
-196 -766 -106 0
-105 -913 65 0
625 653 564 0
-731 -231 788 0
-860 555 868 0
-515 390 835 0
-454 -655 891 0
-261 932 452 0
358 189 88 0
419 -90 476 0
203 394 -506 0
-325 384 -730 0
-828 -507 -201 0
779 -109 -825 0
387 807 215 0
568 -326 235 0
-65 779 508 0
565 -479 -674 0
-52 938 -356 0
-966 299 -354 0
946 -176 -299 0
359 431 399 0
842 -233 258 0
841 10 -997 0
400 -581 -567 0
-914 587 715 0
75 -592 -54 0
-428 -486 278 0
914 963 538 0
-219 -170 -959 0
960 438 329 0
908 -108 -557 0
10 249 579 0
-186 -895 -948 0
858 -605 -810 0
-415 366 -635 0
-899 -678 -944 0
-932 196 -174 0
318 233 825 0
-231 -136 -50 0
397 594 591 0
725 -277 266 0
-57 144 -232 0
827 -689 -339 0
-232 -170 -560 0
-947 -873 -464 0
-355 915 -843 0
-471 -411 -794 0
305 -201 399 0
166 -661 300 0
294 -230 -690 0
123 -37 -763 0
384 -930 692 0
417 321 -832 0
-341 199 -280 0
884 757 -240 0
-994 306 -346 0
-540 -865 -678 0
-818 -648 -600 0
-689 -294 889 0
-849 -532 365 0
-757 -876 807 0
-3 -467 660 0
294 820 971 0
-482 -887 178 0
125 612 457 0
-270 -914 -795 0
-385 -794 -712 0
515 112 196 0
-701 -535 -146 0
112 -368 110 0
714 16 -819 0
342 -172 53 0
-305 -690 260 0
326 -932 -734 0
-749 804 -384 0
-163 932 527 0
-750 -318 896 0
-642 118 993 0
285 -52 398 0
-281 110 -547 0
-464 551 920 0
6 -846 498 0
67 -538 277 0
599 -703 -869 0
862 133 -922 0
-111 775 578 0
604 -85 -523 0
-417 -445 -660 0
-292 831 -154 0
282 -154 -352 0
-297 -901 -904 0
-261 846 -534 0
-616 42 -722 0
-560 219 278 0
-378 187 -601 0
465 98 454 0
-81 297 -376 0
122 -423 -496 0
-460 132 994 0
974 986 -3 0
-330 824 13 0
-871 789 941 0
572 -267 545 0
645 181 152 0
982 739 883 0
-804 -496 -995 0
-879 -360 731 0
-647 -663 910 0
95 -861 289 0
393 717 193 0
-435 123 -891 0
-729 -804 -535 0
-148 732 433 0
240 260 -122 0
517 -612 45 0
390 -24 -542 0
-193 -46 -31 0
96 -71 -379 0
64 -746 -242 0
-207 480 -519 0
579 857 -524 0
200 776 658 0
-45 -969 -113 0
492 -916 -968 0
846 377 358 0
-585 219 -351 0
214 578 429 0
-174 -696 938 0
-66 -85 -856 0
-698 564 -476 0
-949 -500 -115 0
-515 503 -616 0
427 -485 -967 0
-48 365 -22 0
-103 -789 187 0
839 -616 -135 0
86 -306 -556 0
791 496 -118 0
-798 -234 489 0
-761 -690 583 0
487 173 -520 0
215 983 612 0
361 -779 -549 0
65 -197 883 0
-807 -284 468 0
120 225 929 0
-746 -931 -560 0
727 515 907 0
918 -648 654 0
-341 -347 -340 0
4 -936 -194 0
-520 -909 -575 0
801 730 -457 0
-357 72 -320 0
570 272 547 0
-118 203 166 0
-332 898 81 0
276 -681 812 0
-829 -629 607 0
-235 367 888 0
-110 53 -379 0
941 -150 329 0
-754 -104 5 0
366 -107 435 0
-799 -785 298 0
-460 -735 -111 0
896 239 -489 0
-193 451 881 0
518 -655 769 0
304 474 -977 0
731 247 705 0
535 789 -915 0
-124 -537 -969 0
-149 379 -399 0
68 512 -172 0
-647 710 10 0
-319 783 652 0
-231 -134 -984 0
-777 -422 694 0
-162 -464 443 0
701 -159 -181 0
122 -766 -242 0
411 563 778 0
100 -370 -820 0
-79 562 -73 0
-408 -848 -536 0
-311 935 89 0
-902 830 -700 0
523 -513 482 0
-612 677 -775 0
389 965 -933 0
753 315 233 0
-181 -561 -973 0
675 186 -569 0
178 -503 205 0
-133 -446 36 0
-994 482 -727 0
-674 -956 902 0
-305 491 96 0
956 417 -668 0
446 -39 823 0
13 931 -150 0
-704 -421 974 0
175 -25 -145 0
-129 -757 13 0
182 594 543 0
-830 699 354 0
918 896 -787 0
353 395 159 0
103 158 386 0
-442 -765 548 0
-330 854 -100 0
556 386 986 0
-441 444 99 0
-492 839 -597 0
-203 -548 -484 0
-754 -92 -239 0
-127 -905 -389 0
-59 -615 -848 0
-37 -365 975 0
951 706 -311 0
817 -783 275 0
-224 -10 -712 0
207 -834 -365 0
-147 -876 -397 0
-101 187 491 0
347 291 116 0
-251 247 -377 0
-94 -11 -553 0
952 363 -769 0
13 -665 -841 0
826 -718 -998 0
-885 -726 977 0
-686 -360 484 0
947 568 -716 0
-887 448 634 0
-136 -34 436 0
176 -152 17 0
-237 301 -750 0
764 842 -510 0
524 -579 583 0
551 -266 -123 0
119 -697 928 0
-696 -903 -154 0
597 -376 510 0
122 45 -839 0
-39 171 -392 0
-133 -944 56 0
-893 28 -725 0
-681 186 -126 0
900 -45 -775 0
887 -896 -599 0
499 231 867 0
333 -184 -713 0
-895 360 -208 0
271 -471 -859 0
23 -188 -723 0
-722 -987 -596 0
791 12 -458 0
231 -170 -558 0
857 3 -610 0
-723 515 -750 0
-453 -991 226 0
896 -56 374 0
414 615 217 0
-722 575 -590 0
-459 627 -70 0
-171 -822 67 0
342 821 -770 0
144 -660 11 0
-187 961 -909 0
-825 -782 -510 0
581 276 620 0
-747 768 618 0
-792 715 -844 0
-255 68 226 0
247 529 821 0
222 31 -964 0
787 820 450 0
-462 665 -779 0
938 188 781 0
704 -98 750 0
448 363 -993 0
659 838 -846 0
960 797 -145 0
398 -254 -616 0
-759 584 -541 0
-942 459 -649 0
306 199 -227 0
-777 -655 -280 0
-273 -503 956 0
455 280 -103 0
938 888 916 0
-984 -783 -491 0
-43 630 711 0
-943 804 -231 0
-519 -958 724 0
390 179 808 0
-645 -955 -752 0
121 555 -448 0
217 165 748 0
353 452 -930 0
-946 -351 -125 0
772 923 415 0
536 986 380 0
938 692 205 0
953 -581 -853 0
347 -522 413 0
636 -64 -293 0
-249 -413 288 0
2 -906 -444 0
871 -508 -396 0
903 -201 -911 0
283 -792 -833 0
192 852 128 0
-39 563 766 0
962 653 337 0
465 -252 -793 0
57 909 829 0
603 -762 -214 0
-851 -143 408 0
-234 229 689 0
83 533 -961 0
-680 876 668 0
772 -697 -450 0
-15 447 696 0
722 708 -33 0
-152 -332 834 0
-199 410 434 0
-32 -257 406 0
285 -571 386 0
-712 389 622 0
-609 -423 569 0
-735 708 149 0
-667 903 -868 0
531 -277 229 0
-746 -713 -701 0
-857 604 -681 0
916 539 -835 0
720 402 -949 0
193 4 874 0
568 140 -14 0
-258 267 713 0
192 204 982 0
260 819 396 0
-334 -3 199 0
-921 283 -831 0
-266 -331 -591 0
210 -918 -419 0
-856 865 427 0
653 -174 -249 0
-592 598 -132 0
934 -919 -754 0
-849 627 -329 0
360 306 415 0
841 146 238 0
-261 353 -277 0
503 864 219 0
-516 -19 814 0
268 -625 201 0
788 -381 -744 0
-127 17 -355 0
-659 -85 522 0
731 -807 -679 0
-762 -863 -522 0
546 25 726 0
424 246 -841 0
267 400 489 0
-921 820 -287 0
434 -76 -497 0
618 -318 -83 0
468 485 -175 0
-899 -481 930 0
778 758 71 0
-431 -650 -692 0
-432 568 -743 0
-924 635 -856 0
-550 -547 -372 0
439 239 -8 0
-574 772 -759 0
627 -299 -172 0
528 535 -356 0
-348 118 -426 0
86 -221 -767 0
-954 -875 -211 0
-210 -959 716 0
-844 -867 897 0
452 620 885 0
-281 -469 798 0
222 -43 911 0
-980 926 -215 0
-86 -810 -263 0
188 -996 569 0
-520 -396 -929 0
393 -665 138 0
-432 221 -952 0
973 591 473 0
-987 630 435 0
-37 -22 -504 0
77 125 -113 0
47 -649 -435 0
13 898 -718 0
110 674 162 0
243 -784 -619 0
15 -422 -345 0
-679 -688 488 0
418 362 -304 0
980 -515 970 0
273 425 932 0
-275 -932 -960 0
-657 684 983 0
-648 384 -203 0
-988 624 -612 0
396 -264 547 0
-560 696 -572 0
394 514 -230 0
680 -20 952 0
-223 -696 59 0
-622 -699 -908 0
-557 22 -629 0
-294 810 -411 0
-251 520 -153 0
65 28 743 0
229 645 450 0
-302 662 -924 0
653 -636 114 0
94 240 950 0
95 -275 -297 0
823 681 -512 0
402 -576 540 0
-464 -443 -75 0
-121 -482 -479 0
-161 -369 320 0
-398 924 44 0
848 451 -780 0
-135 -887 -944 0
756 193 -437 0
-335 184 122 0
53 -487 672 0
-763 -210 949 0
-533 284 -552 0
825 -82 367 0
-398 -701 997 0
-486 494 -873 0
-500 10 808 0
596 867 847 0
46 -300 864 0
-370 937 716 0
398 801 475 0
534 -904 -607 0
826 -2 11 0
-95 -79 -871 0
474 -658 -599 0
-772 963 -391 0
-69 423 -17 0
-257 225 -811 0
348 -339 999 0
-395 656 -999 0
59 707 -853 0
-133 896 132 0
208 -840 993 0
-316 -695 -284 0
-109 895 121 0
-574 -92 888 0
728 975 -488 0
19 383 583 0
-291 -891 -547 0
658 -628 -114 0
248 -109 -871 0
-755 -336 619 0
500 -154 983 0
524 -361 -80 0
72 -239 241 0
141 280 852 0
616 874 59 0
-366 299 748 0
-80 477 128 0
253 599 321 0
-52 -250 -879 0
-618 -91 -388 0
159 984 83 0
-158 -700 146 0
288 162 124 0
-774 -241 656 0
853 -525 -172 0
-804 2 621 0
-357 666 801 0
27 567 -664 0
930 589 726 0
-737 200 -668 0
-867 -898 236 0
-845 972 433 0
-611 -843 233 0
-780 895 -78 0
-588 -745 -590 0
-506 945 643 0
629 253 -187 0
-468 -291 875 0
-330 248 -88 0
-303 -606 -262 0
26 -25 -106 0
-410 -211 127 0
183 -205 -228 0
-105 -172 -73 0
440 -683 -311 0
-52 -810 184 0
-711 -485 -644 0
604 21 -942 0
479 -573 696 0
130 -681 -10 0
960 799 -916 0
-374 -627 863 0
777 -40 -1000 0
-868 -999 -853 0
702 741 -851 0
9 559 -717 0
-208 25 -149 0
440 -296 -850 0
-57 -467 -969 0
350 508 -575 0
257 487 -497 0
739 -64 -806 0
528 -49 179 0
-959 52 -389 0
-36 690 -514 0
956 993 350 0
300 767 885 0
525 720 -509 0
655 264 -384 0
944 -432 137 0
298 160 -738 0
741 18 -869 0
560 508 -749 0
307 -388 699 0
798 -451 -981 0
-793 710 370 0
420 -100 -47 0
-418 455 -575 0
880 -375 30 0
-860 305 144 0
628 -135 261 0
-508 -194 7 0
-512 -12 475 0
123 -719 -868 0
-200 -301 -997 0
-563 993 494 0
-322 837 483 0
-670 699 -35 0
-541 -240 -797 0
378 -586 -626 0
-231 315 348 0
589 -935 -717 0
947 372 942 0
312 -597 -438 0
-79 261 -109 0
-685 -478 -931 0
678 326 -436 0
909 638 -522 0
-97 446 -984 0
670 428 578 0
-628 -279 -928 0
-600 -58 -396 0
-328 787 701 0
-300 509 -186 0
499 -841 976 0
-163 688 -946 0
279 -192 59 0
523 -407 257 0
-911 51 451 0
-542 133 -420 0
-538 -160 -843 0
563 -492 813 0
739 -993 355 0
-169 435 -551 0
-373 983 96 0
-683 719 -601 0
827 799 -683 0
-635 -449 -809 0
222 -960 -898 0
-374 -19 519 0
568 -537 724 0
217 -926 746 0
265 930 822 0
-473 -4 -800 0
-280 207 -462 0
120 712 -254 0
-313 622 -453 0
-640 -821 364 0
-623 848 -451 0
497 155 -920 0
-146 -822 -554 0
-76 -353 -408 0
-739 606 742 0
-423 -397 181 0
-537 -136 -963 0
-539 859 59 0
767 151 -367 0
528 253 -694 0
41 891 -753 0
-141 -816 214 0
-862 -52 -724 0
316 -711 -413 0
114 489 681 0
-540 -874 326 0
271 80 624 0
-169 -429 979 0
-278 737 283 0
74 626 403 0
14 220 -290 0
-533 -686 368 0
-754 501 -930 0
-81 717 -495 0
-641 -14 -648 0
694 399 -453 0
-763 815 -656 0
-972 285 -102 0
44 -862 -329 0
-753 -72 603 0
976 -675 213 0
-871 -180 398 0
-10 75 -615 0
-137 425 917 0
-611 -389 -106 0
332 76 281 0
881 -886 -725 0
-81 -387 -669 0
729 166 -464 0
-826 456 588 0
-829 721 776 0
661 185 494 0
-582 512 861 0
602 767 -729 0
-298 991 949 0
-298 479 -135 0
-757 515 -193 0
338 -323 -137 0
-540 -194 949 0
-983 -26 -817 0
-210 333 875 0
933 9 505 0
662 -264 864 0
189 -355 379 0
848 965 726 0
-572 -124 408 0
478 848 -722 0
-648 899 -745 0
776 124 -365 0
-615 -906 -887 0
-24 772 968 0
280 166 -732 0
-476 725 -412 0
881 906 265 0
864 66 209 0
-475 857 815 0
-484 -445 -964 0
326 961 -936 0
337 -776 -764 0
575 568 609 0
-584 -109 -740 0
-344 542 59 0
863 492 -997 0
-368 -228 197 0
-201 -855 -285 0
-244 -228 78 0
689 -771 -70 0
94 -108 97 0
459 974 635 0
-678 267 852 0
561 925 -544 0
40 -576 587 0
11 -290 419 0
-363 -237 482 0
-389 -783 -56 0
177 -61 -79 0
721 -823 236 0
128 -930 -774 0
347 77 757 0
-646 890 104 0
-349 -142 -849 0
741 876 -677 0
-504 22 862 0
-35 586 -378 0
10 144 681 0
-256 248 -723 0
656 118 -281 0
350 -810 352 0
-265 -944 528 0
173 929 -646 0
887 842 419 0
145 -423 -505 0
383 -700 742 0
307 407 227 0
-569 -241 -662 0
660 666 -640 0
195 -827 61 0
-436 751 -591 0
70 313 562 0
663 -185 -110 0
-44 737 373 0
885 10 -333 0
-388 -622 745 0
620 -991 198 0
-621 -560 881 0
-525 -789 155 0
-684 -751 -366 0
904 -164 434 0
-886 -319 -743 0
-477 -463 -272 0
933 -60 278 0
887 -294 -874 0
-39 -699 514 0
-232 -295 -857 0
845 -979 -58 0
568 599 -209 0
781 -270 -434 0
-639 91 282 0
-598 -230 -491 0
-465 458 767 0
366 -159 584 0
277 -378 393 0
124 182 -557 0
131 -31 801 0
958 -129 70 0
-723 990 945 0
-510 -405 -193 0
-737 870 -590 0
-837 -582 -786 0
-873 623 -403 0
327 507 172 0
-594 -694 -291 0
760 -664 -599 0
491 -80 -878 0
-922 15 -226 0
-919 -8 415 0
-224 -716 -423 0
234 224 230 0
-366 465 -84 0
423 -744 -213 0
348 110 201 0
-991 486 557 0
-944 550 263 0
11 -428 235 0
174 -411 -534 0
-682 -445 6 0
116 566 -589 0
639 68 729 0
454 194 285 0
-446 970 -437 0
488 216 88 0
-889 -444 350 0
569 -104 -50 0
801 828 -432 0
575 619 547 0
-911 847 531 0
-764 -155 684 0
266 -383 -203 0
513 148 653 0
999 481 141 0
711 -416 169 0
530 832 -461 0
543 410 -492 0
-399 556 350 0
-593 -792 460 0
325 559 547 0
551 838 228 0
-607 -161 771 0
-8 -307 760 0
-747 310 -512 0
-609 -731 600 0
328 195 710 0
-529 630 19 0
499 -535 -726 0
651 421 -297 0
811 306 640 0
773 505 723 0
276 892 799 0
-328 100 997 0
837 -903 513 0
247 -111 95 0
-151 646 993 0
-471 -897 478 0
970 -776 654 0
-762 -777 638 0
-705 476 513 0
847 -131 880 0
687 -172 886 0
50 417 9 0
-130 -666 -727 0
-720 216 413 0
-967 -739 431 0
401 -402 396 0
486 348 453 0
649 -858 759 0
203 -895 668 0
-478 400 -170 0
-98 -852 -951 0
-330 -198 328 0
753 75 620 0
-32 -82 -153 0
-781 -170 -854 0
-365 -459 -529 0
-190 728 886 0
-672 -391 -168 0
209 -220 -17 0
-924 904 -664 0
-8 -593 459 0
733 -630 576 0
82 -193 -648 0
904 -13 685 0
16 -265 -474 0
867 157 -611 0
634 905 -128 0
73 119 -93 0
-186 -239 -825 0
275 754 -964 0
-90 307 55 0
70 -174 910 0
277 -635 250 0
-978 -171 154 0
162 939 972 0
513 -670 -554 0
937 -77 -967 0
763 -7 -883 0
190 876 464 0
-41 984 937 0
907 -832 -207 0
-164 -530 -594 0
22 -658 418 0
-407 328 989 0
665 -436 -103 0
-313 -249 655 0
388 519 -858 0
544 89 -271 0
742 -974 382 0
-576 -567 128 0
-300 25 -46 0
-906 -662 169 0
-820 77 845 0
-981 -839 -842 0
222 -741 752 0
850 -477 525 0
777 -793 -133 0
515 -827 -224 0
610 -479 793 0
-299 -748 857 0
-420 -940 672 0
-118 184 383 0
-578 840 -892 0
299 424 -753 0
705 -159 249 0
-864 -137 -827 0
590 -329 -174 0
-711 542 847 0
-190 -690 -97 0
-861 -273 -528 0
-435 336 -269 0
-609 -811 -727 0
135 846 341 0
481 59 692 0
-204 -952 -514 0
108 -79 778 0
-888 -838 373 0
-130 962 -586 0
-563 -371 182 0
839 675 466 0
317 18 -940 0
897 -244 580 0
212 865 462 0
-168 812 -493 0
754 -761 -698 0
-283 307 619 0
348 331 -110 0
-154 257 -85 0
596 -166 -174 0
568 242 981 0
34 -718 -635 0
-138 -490 1000 0
958 51 -948 0
-243 783 -810 0
-847 -376 -904 0
-478 756 -394 0
-217 825 591 0
-770 46 620 0
-170 306 946 0
-11 475 -447 0
192 -526 -21 0
-321 136 -446 0
207 264 53 0
-966 650 -888 0
-294 -156 -486 0
-143 238 -161 0
-937 -733 448 0
52 330 -349 0
768 -492 -873 0
-676 -114 663 0
-971 849 169 0
711 -731 775 0
-678 -483 -151 0
502 -548 995 0
358 -245 -540 0
853 -391 -377 0
925 -823 -802 0
989 -271 -252 0
959 -620 -818 0
249 -246 976 0
267 809 513 0
-251 -626 615 0
772 -162 567 0
-274 -201 723 0
118 -290 -923 0
-612 -749 -631 0
-918 953 -975 0
-627 -801 491 0
662 -56 147 0
-336 103 373 0
-8 840 552 0
307 507 -958 0
-775 -447 -495 0
152 -19 -454 0
501 -470 -575 0
978 118 939 0
-974 -505 630 0
-422 375 -231 0
-933 193 156 0
391 -797 -446 0
914 297 -757 0
79 141 -112 0
944 -689 -46 0
366 381 -196 0
-200 532 -603 0
-837 -198 990 0
-921 -181 498 0
-305 -804 -183 0
267 -69 -181 0
-539 347 -691 0
714 -567 -695 0
-274 -552 960 0
159 -829 642 0
149 36 302 0
-587 813 -730 0
838 -242 504 0
-879 512 419 0
391 307 664 0
-723 910 188 0
414 25 -291 0
-650 709 634 0
98 612 429 0
827 141 -386 0
459 -166 -69 0
-437 -474 992 0
-652 976 35 0
-737 297 45 0
-143 -158 581 0
-403 -389 -723 0
-240 332 32 0
-674 -342 -488 0
369 731 -946 0
-512 970 -979 0
44 32 799 0
900 268 87 0
-660 568 -655 0
535 -496 -161 0
495 -417 626 0
-43 -946 5 0
223 -26 -658 0
-674 -707 515 0
203 324 196 0
-408 -259 -169 0
-103 -799 150 0
76 665 125 0
133 579 -851 0
-907 -110 659 0
-500 -569 -724 0
584 -384 -622 0
981 472 638 0
184 938 -87 0
-896 -666 554 0
414 624 -957 0
51 856 748 0
635 61 -417 0
-85 -567 -647 0
184 755 869 0
-23 -678 -655 0
478 -558 -1 0
-496 635 813 0
-668 -600 -555 0
123 707 679 0
264 385 -168 0
-648 981 -483 0
-149 594 496 0
772 454 -39 0
266 251 -803 0
346 -729 8 0
91 -486 -921 0
761 -704 -571 0
875 107 -420 0
-926 -283 -939 0
671 -359 95 0
-448 -56 957 0
690 968 394 0
137 727 559 0
-267 858 -902 0
-764 -95 -304 0
-847 -709 690 0
-973 -863 771 0
-693 712 -894 0
49 901 -208 0
-282 320 -989 0
188 727 -609 0
647 571 327 0
799 75 464 0
-363 -259 176 0
158 206 -603 0
-839 -244 12 0
509 -179 893 0
-469 587 263 0
-727 238 -872 0
-176 -664 -697 0
-266 -660 -396 0
-18 -473 -740 0
-816 960 -751 0
375 449 986 0
-789 -598 -893 0
659 -760 -94 0
-824 457 -255 0
-447 834 -220 0
-111 -127 -913 0
-652 -157 778 0
-611 -298 599 0
-613 684 -480 0
398 -234 838 0
-421 769 830 0
213 -974 -824 0
-104 -571 -737 0
157 400 -33 0
-423 415 49 0
-618 490 394 0
-717 25 580 0
303 -313 -279 0
817 225 -956 0
590 29 -257 0
-424 -196 -546 0
817 -584 -793 0
533 -390 287 0
920 -587 908 0
-625 792 196 0
906 -365 961 0
456 -214 -322 0
17 355 735 0
975 939 -673 0
561 -777 468 0
-840 -135 -706 0
145 -726 779 0
-699 249 -436 0
238 650 -616 0
352 -184 -947 0
767 982 -490 0
-194 290 883 0
154 26 148 0
827 -85 436 0
21 -283 -678 0
-836 -282 -85 0
-290 584 -57 0
-487 86 -194 0
-547 436 169 0
-487 361 500 0
-883 -760 908 0
321 365 899 0
-37 -271 607 0
663 697 877 0
895 666 -552 0
-197 -456 -302 0
-409 337 819 0
729 -442 713 0
753 274 -481 0
258 -440 577 0
-164 639 -441 0
-898 -494 703 0
247 444 -832 0
538 957 -741 0
-80 -183 811 0
622 -953 -34 0
760 59 24 0
-372 -796 -716 0
632 -841 851 0
-681 901 -178 0
-500 30 322 0
-134 581 918 0
-101 418 -514 0
-843 -34 -179 0
-151 827 -682 0
860 -162 -681 0
-154 -797 115 0
676 265 -624 0
-130 -998 846 0
659 296 527 0
-465 571 -691 0
-634 677 -834 0
345 474 -841 0
194 -960 -316 0
624 534 -554 0
766 634 325 0
-38 -532 433 0
-627 749 746 0
-243 -144 -919 0
587 -477 862 0
-283 -219 -265 0
768 -398 -621 0
-833 -387 408 0
468 879 754 0
-975 652 477 0
-127 -248 728 0
-535 154 727 0
-62 818 301 0
981 -287 545 0
114 475 -993 0
900 799 101 0
-786 830 941 0
-717 -947 606 0
691 -4 883 0
-259 726 776 0
-486 -944 -74 0
-285 -34 -194 0
-145 169 297 0
-619 994 -443 0
-334 816 954 0
430 -411 -298 0
-211 327 -874 0
312 -715 -637 0
952 997 390 0
537 -503 782 0
19 -755 611 0
114 -578 -174 0
480 550 718 0
20 454 414 0
-810 402 -627 0
257 -48 63 0
398 -440 540 0
-661 627 783 0
865 -494 412 0
782 812 -980 0
-524 -747 -107 0
-463 704 -162 0
-740 445 -637 0
920 -68 -493 0
-240 -861 -808 0
-816 771 299 0
-322 -436 909 0
952 662 -747 0
-747 563 -247 0
899 717 253 0
88 -47 708 0
-636 -44 6 0
-385 383 -101 0
698 942 643 0
-779 220 255 0
195 339 -834 0
-285 884 -165 0
-378 -921 -139 0
651 -565 -402 0
-863 -93 143 0
-924 43 561 0
-128 27 703 0
987 -43 369 0
683 537 613 0
-652 136 299 0
708 -535 -43 0
-838 -194 430 0
-391 779 -726 0
760 408 -737 0
-808 677 -591 0
965 809 216 0
-345 809 -558 0
984 -270 -994 0
-651 798 -405 0
988 460 725 0
-825 478 -100 0
-439 -205 -343 0
-666 536 631 0
-182 -390 681 0
99 156 550 0
104 -895 468 0
525 534 -422 0
206 -878 -862 0
305 98 214 0
-291 409 -257 0
275 -950 -53 0
-683 846 728 0
-917 912 -744 0
-604 875 886 0
11 -130 -750 0
-300 -620 -782 0
6 972 975 0
-278 247 -62 0
-392 660 -198 0
3 -460 534 0
172 246 235 0
-535 290 -61 0
334 653 162 0
383 -233 -395 0
-932 235 613 0
741 356 293 0
-844 7 409 0
914 -432 723 0
-950 853 -77 0
-2 -280 -179 0
-543 -939 263 0
276 -668 -295 0
207 972 820 0
44 107 688 0
-740 303 671 0
360 747 930 0
851 697 462 0
-630 765 276 0
182 287 358 0
-494 -918 -340 0
899 -419 -688 0
527 -315 -308 0
-837 893 851 0
-759 -38 786 0
314 -229 836 0
-481 711 436 0
-605 763 785 0
-731 308 -501 0
172 -583 226 0
986 -704 -612 0
-287 473 392 0
-819 935 -825 0
-560 -425 -106 0
-943 1000 570 0
-431 -54 -525 0
300 665 -234 0
-71 17 -991 0
297 -277 -716 0
-468 -7 -596 0
164 -668 620 0
-308 646 501 0
-12 853 -108 0
374 378 688 0
805 486 -872 0
187 -218 627 0
602 -570 -932 0
-387 311 601 0
-733 -402 -72 0
-443 -659 -311 0
-704 359 -590 0
521 -203 855 0
-216 603 -208 0
-453 828 16 0
514 416 814 0
-678 107 939 0
695 436 409 0
-660 704 -125 0
530 226 -990 0
-13 172 698 0
643 290 -83 0
997 -150 567 0
-136 -295 272 0
-712 -658 270 0
787 -939 164 0
421 137 631 0
-779 -879 219 0
-971 337 614 0
-421 -205 208 0
825 -507 291 0
97 229 -102 0
357 -848 -874 0
398 -838 -308 0
-70 -991 958 0
-756 -535 286 0
-290 -115 577 0
227 -446 -660 0
-256 439 -330 0
356 939 -809 0
-887 105 -985 0
-141 -42 850 0
-13 -626 -809 0
133 780 528 0
24 -355 227 0
897 -446 785 0
573 -493 -104 0
316 759 333 0
226 231 -307 0
602 -949 549 0
-474 923 -810 0
-360 -615 -799 0
-446 -699 844 0
147 298 956 0
-829 506 597 0
-144 -247 388 0
268 -579 -522 0
-551 -597 -648 0
492 -626 -851 0
579 -900 153 0
-997 -98 -527 0
-411 29 -953 0
-701 532 282 0
-670 186 148 0
917 524 -758 0
811 102 -738 0
-574 -804 568 0
257 387 -614 0
954 133 156 0
914 -848 55 0
-244 -366 -740 0
110 -172 -565 0
34 632 -997 0
-220 -410 572 0
199 -971 581 0
435 -732 371 0
410 387 542 0
919 73 -864 0
-81 -66 533 0
-774 547 -328 0
586 -896 -908 0
38 561 -543 0
-511 -548 -487 0
482 586 -156 0
313 655 -429 0
-300 600 175 0
-314 -510 -495 0
-574 507 739 0
-698 981 204 0
-289 -288 47 0
-149 698 -790 0
-654 -65 211 0
801 975 398 0
-405 -750 -734 0
571 -573 -755 0
717 587 -462 0
-460 854 -535 0
-227 -446 -478 0
823 752 -19 0
-975 919 389 0
870 -190 613 0
-760 68 -755 0
-589 678 81 0
570 809 762 0
181 -17 -830 0
849 -491 -861 0
318 -195 -881 0
-56 628 -778 0
619 763 895 0
346 418 133 0
126 -639 -617 0
57 645 524 0
454 -500 660 0
-926 128 -58 0
-99 -258 -883 0
-653 523 -121 0
879 530 117 0
75 123 625 0
-611 -503 -361 0
456 -911 101 0
-294 273 970 0
-117 395 -683 0
16 649 655 0
560 -731 174 0
327 -161 -844 0
-287 -747 109 0
-808 -153 4 0
781 -72 254 0
-24 475 -290 0
-995 -59 156 0
-752 -766 -176 0
-388 -170 -452 0
-709 284 -425 0
-980 956 -908 0
705 -726 49 0
-583 -271 -410 0
-190 -359 510 0
582 -284 -452 0
-144 882 237 0
553 -537 555 0
709 -571 -859 0
837 9 628 0
-147 -610 -469 0
-123 706 691 0
-238 -571 101 0
277 85 777 0
808 -287 -657 0
887 -15 -22 0
-716 -215 -1000 0
-418 497 363 0
-950 438 -317 0
-43 148 254 0
824 -474 750 0
592 -699 740 0
-781 -948 105 0
-202 642 88 0
926 589 -593 0
-11 119 899 0
-642 837 -150 0
-305 -625 402 0
582 103 333 0
855 -471 888 0
612 -311 -508 0
-39 859 60 0
639 -471 685 0
-91 774 394 0
548 -901 640 0
150 -859 -179 0
-459 -249 818 0
-809 -91 50 0
453 -971 613 0
43 740 757 0
-975 -565 -250 0
812 854 550 0
472 272 908 0
839 -468 302 0
-759 -548 -663 0
411 202 -547 0
-886 -160 292 0
411 891 -607 0
394 145 975 0
-820 277 -639 0
-475 -151 941 0
156 715 -707 0
-396 257 -141 0
348 -66 171 0
-875 -163 635 0
-76 179 -642 0
395 -296 785 0
-145 -712 -555 0
498 226 -162 0
294 376 -254 0
321 -333 -926 0
-757 193 625 0
993 -259 644 0
447 -891 20 0
11 -792 -114 0
-100 387 -232 0
264 186 700 0
-438 -110 -457 0
-642 -596 314 0
537 979 -320 0
417 -983 284 0
-333 810 947 0
-845 474 780 0
-657 458 -589 0
-393 -972 -692 0
810 425 119 0
43 -648 -927 0
580 819 -280 0
907 -764 -45 0
803 -890 4 0
617 -914 -588 0
-2 -575 364 0
846 714 875 0
679 113 -107 0
771 30 422 0
765 -947 313 0
132 -29 -709 0
-830 716 -127 0
-940 708 -472 0
663 265 382 0
-181 123 605 0
479 414 749 0
-224 -1 193 0
357 -756 -614 0
825 54 610 0
263 -443 -571 0
770 -38 -83 0
-639 -248 586 0
-512 -686 976 0
-356 -448 -360 0
-851 866 -275 0
-509 -332 167 0
-878 -891 -462 0
-15 -441 709 0
719 483 573 0
851 370 -315 0
200 652 -76 0
964 -634 399 0
-552 -742 233 0
-753 -808 253 0
295 -558 -778 0
-953 893 -575 0
-248 401 948 0
-40 -623 -91 0
-431 -802 -737 0
278 -222 -822 0
-374 -808 -328 0
493 -997 795 0
615 775 527 0
744 -166 370 0
-392 493 933 0
-852 -168 392 0
421 114 -427 0
681 -348 -875 0
-400 -206 870 0
-564 722 343 0
-703 -65 168 0
-526 -213 747 0
-366 491 -514 0
24 -399 824 0
398 -397 -92 0
986 -841 -15 0
895 519 496 0
-341 -542 62 0
-430 -668 -90 0
734 -131 153 0
-315 -913 -310 0
167 -494 613 0
-566 660 -849 0
-862 83 583 0
958 -6 -195 0
699 318 -133 0
457 -660 841 0
229 -471 14 0
-870 478 133 0
538 -368 -369 0
-507 -586 443 0
-836 709 166 0
-267 -45 -3 0
382 -263 -962 0
-101 661 947 0
-405 -209 509 0
-489 -719 -641 0
879 755 301 0
-317 -929 -97 0
788 382 -131 0
-758 -860 -661 0
271 -219 208 0
-408 -603 887 0
837 415 -916 0
-84 698 155 0
511 -216 -73 0
372 -61 944 0
476 97 209 0
237 95 473 0
565 -548 -447 0
-220 510 -547 0
-846 937 -716 0
-348 -276 53 0
197 832 882 0
450 -877 -383 0
456 898 -16 0
372 369 -340 0
-172 -836 6 0
341 246 790 0
-467 196 -602 0
-212 -269 879 0
250 432 379 0
-346 -680 46 0
647 -295 -265 0
-320 -419 -351 0
32 -418 266 0
-297 -468 -721 0
-665 691 -594 0
-503 -462 511 0
373 163 -658 0
-569 -803 -207 0
-738 -569 139 0
534 -985 -59 0
220 -743 108 0
775 -442 -428 0
-638 -206 -282 0
-140 910 -562 0
-54 -685 -451 0
-22 -872 822 0
664 330 850 0
-302 110 777 0
962 515 631 0
284 -219 -549 0
-244 799 -613 0
-717 -905 661 0
-475 -864 -808 0
-441 198 -200 0
-455 526 -375 0
-53 461 36 0
-978 -362 -403 0
-789 563 -745 0
243 -871 201 0
146 -197 405 0
419 339 809 0
-307 -594 576 0
-436 -884 828 0
913 472 -857 0
68 -149 -985 0
-880 626 -144 0
887 -324 -923 0
-428 467 217 0
427 -240 -518 0
-857 -171 298 0
-145 659 -482 0
536 237 -889 0
902 337 927 0
-840 18 109 0
718 450 -543 0
250 870 -177 0
-573 924 213 0
-322 760 13 0
517 965 296 0
700 938 -616 0
970 -739 605 0
700 337 -761 0
-955 -185 -119 0
236 -144 463 0
608 -922 -445 0
321 165 25 0
-157 -370 -399 0
-366 596 251 0
22 380 -363 0
615 241 926 0
273 -292 3 0
424 167 192 0
-213 -200 -780 0
-211 652 996 0
69 -485 -869 0
411 194 732 0
-186 -127 319 0
-702 -861 -485 0
334 -11 306 0
748 509 301 0
103 -171 -484 0
532 -499 158 0
849 77 -679 0
783 -642 -531 0
-210 -45 492 0
-873 287 -483 0
32 -210 -346 0
-342 112 -302 0
688 -400 81 0
433 215 803 0
530 759 766 0
861 -848 434 0
-251 353 651 0
-543 -382 -593 0
451 190 -782 0
676 -848 -289 0
-917 -651 497 0
319 -531 814 0
963 981 -932 0
441 -273 -451 0
922 -822 568 0
754 741 -767 0
500 -333 565 0
-800 583 29 0
-691 -208 -873 0
-711 -696 746 0
-547 -333 -67 0
146 -691 199 0
336 -513 740 0
-375 -119 313 0
-939 230 -997 0
-960 -442 388 0
99 -390 -187 0
120 518 373 0
-448 735 -300 0
728 -599 -575 0
-152 20 369 0
-652 425 -163 0
-933 -350 360 0
652 996 110 0
720 111 246 0
780 985 165 0
650 994 794 0
-336 -83 810 0
569 21 -731 0
377 420 868 0
30 -423 135 0
-327 109 890 0
-455 657 656 0
197 864 121 0
120 -888 -587 0
-322 -156 784 0
812 -146 90 0
-865 46 -341 0
-653 -8 -968 0
-865 -244 -816 0
534 -585 -249 0
404 -367 312 0
-196 663 51 0
464 -635 907 0
-761 557 711 0
482 -427 -222 0
-858 -91 24 0
-45 599 -192 0
-69 -388 -48 0
476 -641 -391 0
-810 -726 539 0
464 -598 -853 0
911 76 -239 0
-608 890 528 0
-884 -701 -758 0
-385 658 81 0
-612 -960 330 0
675 286 -883 0
-603 -32 -559 0
-271 218 -609 0
-439 744 -144 0
502 38 -960 0
-444 399 127 0
275 765 187 0
-237 -97 312 0
-497 664 786 0
-830 751 -339 0
110 -67 -737 0
517 693 469 0
-936 -873 430 0
973 420 -931 0
-738 882 -831 0
-573 76 195 0
-712 -188 703 0
-685 -339 -114 0
-563 -135 961 0
-473 -405 -988 0
-373 829 929 0
456 410 -746 0
940 80 465 0
-104 588 -857 0
-442 753 114 0
-40 -70 -286 0
-974 464 -887 0
-439 275 -6 0
957 -399 246 0
548 -685 348 0
767 468 94 0
63 -849 -431 0
-369 145 701 0
-519 447 -188 0
-377 -469 -988 0
-934 23 310 0
-514 646 743 0
965 528 3 0
506 -590 440 0
-193 859 -572 0
-394 965 324 0
-587 329 451 0
-286 -42 -343 0
-595 841 431 0
658 828 395 0
-465 -187 -478 0
-722 -226 -610 0
-913 930 748 0
761 -48 224 0
195 -263 -18 0
359 -522 29 0
637 835 -368 0
376 -177 726 0
-574 441 464 0
790 -307 331 0
-187 729 -955 0
320 148 -203 0
233 184 -896 0
-708 -131 447 0
464 -444 -394 0
851 -410 -682 0
198 -175 441 0
-530 -377 406 0
714 -496 -797 0
73 -312 -528 0
-183 -82 510 0
-260 841 -970 0
-106 833 -813 0
-210 -573 -235 0
-703 613 -943 0
-274 8 764 0
-650 664 338 0
607 -50 187 0
15 -867 478 0
-306 983 -586 0
38 -9 -68 0
-834 945 208 0
-572 -641 -352 0
584 111 513 0
-201 -381 219 0
-376 320 -418 0
-828 -120 518 0
-671 492 -358 0
-880 947 -962 0
-345 392 -595 0
-882 961 -257 0
43 749 181 0
-528 890 -134 0
-919 227 469 0
365 798 495 0
-481 34 -394 0
-657 293 177 0
431 -578 859 0
-545 -22 773 0
103 258 -242 0
-9 -278 -840 0
894 -421 -543 0
460 -636 -753 0
-669 906 880 0
351 692 136 0
47 -996 543 0
-600 -410 358 0
238 -529 880 0
-360 -574 -558 0
542 898 740 0
401 -891 -838 0
311 -229 -672 0
424 -42 664 0
292 -758 100 0
483 -664 -693 0
998 156 641 0
913 941 601 0
594 283 -4 0
763 238 -50 0
-198 -549 -234 0
28 985 333 0
-997 -80 -644 0
-232 172 902 0
162 -598 154 0
84 501 257 0
-810 726 150 0
724 388 -442 0
86 -514 -679 0
-458 805 -275 0
-527 -281 3 0
-218 76 448 0
973 -400 503 0
952 103 -29 0
-307 392 -735 0
848 -309 432 0
184 563 -367 0
-138 126 909 0
464 196 -602 0
-68 440 912 0
-454 -568 577 0
486 -209 -421 0
521 -166 -124 0
-103 -231 -294 0
792 -989 938 0
-309 127 797 0
453 787 -105 0
-343 474 -43 0
882 -34 -32 0
-847 1 -22 0
527 -776 914 0
-672 -691 -268 0
-112 -614 158 0
894 194 -69 0
-761 -566 -174 0
106 501 -856 0
-665 259 725 0
879 -981 -760 0
-968 351 -513 0
933 903 -173 0
-341 -485 154 0
-653 450 -21 0
-253 -123 -282 0
134 -924 257 0
302 -847 42 0
-483 -812 -742 0
-846 -914 -241 0
-999 -519 -619 0
-67 -355 -845 0
869 -378 400 0
964 95 -894 0
-36 320 -544 0
-723 696 207 0
51 650 953 0
447 -813 729 0
733 -263 966 0
95 -834 -717 0
375 40 -456 0
868 -812 496 0
-779 -977 254 0
503 586 -221 0
999 -230 -147 0
835 -385 -595 0
-897 545 -310 0
672 -741 -931 0
596 -761 142 0
-812 537 -776 0
-628 594 150 0
403 -3 597 0
-841 808 384 0
-12 -957 390 0
351 221 -470 0
691 547 401 0
913 -617 -538 0
764 351 32 0
-240 -871 -662 0
53 513 -524 0
-700 -736 571 0
-867 715 -734 0
-856 583 6 0
58 560 460 0
236 2 316 0
662 -121 123 0
-801 -377 -381 0
623 -941 -278 0
-674 -530 -315 0
-387 -365 744 0
920 901 -736 0
-937 -22 601 0
-431 372 458 0
-575 839 -889 0
-856 957 840 0
-856 -487 -775 0
-988 -623 44 0
949 487 81 0
191 -925 -236 0
965 732 -718 0
151 -692 -554 0
-94 -694 -908 0
-996 942 634 0
-413 -93 840 0
-869 -873 -399 0
783 688 959 0
452 -342 -814 0
-995 -734 740 0
733 164 -597 0
881 -25 -655 0
-99 -705 -8 0
769 -2 -286 0
735 174 121 0
657 -558 49 0
769 405 359 0
579 366 -318 0
-370 -70 827 0
-625 329 780 0
-330 -802 -204 0
208 864 639 0
-988 543 -93 0
-237 -814 -977 0
428 -106 897 0
-40 -671 54 0
16 86 -812 0
-842 19 158 0
-735 816 -748 0
331 -52 -201 0
567 -913 171 0
-856 443 -355 0
-705 659 -512 0
951 -711 -186 0
793 -683 -73 0
164 655 -690 0
-267 -542 471 0
-687 -586 295 0
-592 872 432 0
937 612 -355 0
462 268 -286 0
-403 503 50 0
808 763 255 0
259 -400 377 0
-73 -908 298 0
344 -708 647 0
-136 828 -971 0
-604 173 -438 0
-342 686 138 0
581 -946 -683 0
920 -646 244 0
594 -98 -381 0
634 193 -862 0
198 590 170 0
284 480 517 0
565 102 576 0
217 -376 -934 0
569 357 258 0
-412 341 134 0
786 -958 -33 0
-908 487 970 0
-131 934 -566 0
-408 -566 631 0
856 619 41 0
543 -378 540 0
335 -93 109 0
277 -524 -501 0
484 607 -224 0
-198 407 806 0
-713 -165 -135 0
-575 -982 -34 0
-907 -29 272 0
-869 796 -562 0
436 -190 -573 0
-940 -812 -986 0
-788 -565 -624 0
567 473 -127 0
900 -426 -110 0
-863 -351 -693 0
372 -319 224 0
739 45 517 0
-166 -570 -549 0
-440 350 990 0
542 931 -944 0
-978 -716 -125 0
-385 -143 -705 0
79 -420 441 0
273 -286 -573 0
-73 -591 885 0
249 128 -854 0
121 -582 -235 0
-99 903 -718 0
828 221 946 0
210 -594 -262 0
-115 -926 291 0
-146 -706 -395 0
27 428 -983 0
-26 404 -661 0
956 -675 764 0
329 -880 -874 0
64 -881 670 0
-463 83 592 0
-665 -505 26 0
183 -193 380 0
-458 477 -531 0
-366 -165 -176 0
962 -720 117 0
-83 -235 202 0
-231 -80 330 0
-670 -58 146 0
-562 -940 -177 0
895 -59 -816 0
-372 -880 -707 0
920 -602 -167 0
769 -989 3 0
850 580 669 0
-627 743 -546 0
-193 -768 846 0
-812 943 387 0
127 -99 492 0
237 171 -417 0
20 -302 -61 0
-51 575 -919 0
361 635 774 0
-517 704 -778 0
614 169 999 0
-377 166 646 0
-946 -333 971 0
372 -539 501 0
-373 -548 -39 0
-176 -331 -939 0
-252 80 -120 0
-379 -10 -323 0
-49 309 184 0
221 -161 -103 0
-412 347 216 0
-414 -10 -849 0
-26 374 795 0
-656 931 -458 0
20 -497 -472 0
-261 -473 148 0
845 41 -556 0
55 -32 -62 0
-559 -409 610 0
-145 -262 -913 0
-384 720 459 0
-431 -266 -823 0
-361 47 964 0
-924 659 -228 0
-153 -961 435 0
687 739 602 0
-892 516 -104 0
-396 559 -771 0
-301 -225 -601 0
-265 140 -257 0
-3 924 798 0
537 -251 815 0
-212 642 -603 0
212 677 -445 0
767 -101 4 0
-445 -350 -139 0
664 998 88 0
-198 414 -736 0
-645 -551 50 0
440 796 -581 0
-113 -724 484 0
249 47 658 0
-103 -714 -993 0
840 -706 -43 0
642 20 735 0
126 565 772 0
-685 -616 -494 0
452 317 -423 0
385 710 993 0
-915 240 -889 0
876 -50 589 0
947 -324 -822 0
947 -406 790 0
845 954 977 0
471 -333 -1000 0
78 -194 -302 0
-701 -164 201 0
438 619 518 0
685 339 957 0
992 673 93 0
940 512 943 0
-638 947 238 0
-157 200 687 0
762 -666 -992 0
-203 268 -998 0
-538 74 756 0
145 150 74 0
861 546 -673 0
-213 -412 -442 0
-962 -475 442 0
487 -33 422 0
-823 -905 636 0
694 652 141 0
26 702 326 0
-922 -198 -321 0
-566 -450 -334 0
-21 568 213 0
-122 806 -821 0
182 43 979 0
937 -352 -411 0
-562 -474 -255 0
-603 159 405 0
971 -872 -562 0
-376 602 -867 0
-47 251 -911 0
-934 -117 235 0
-760 525 -735 0
-799 -494 -259 0
909 -930 -372 0
-555 -294 -153 0
496 500 934 0
685 -90 298 0
-464 282 277 0
936 724 -782 0
-734 187 696 0
495 587 -303 0
383 568 -885 0
-989 -536 -606 0
-348 188 296 0
558 -67 -633 0
-837 173 -100 0
-389 -255 -946 0
354 -233 969 0
-368 412 -992 0
-219 122 -473 0
-763 980 749 0
328 466 425 0
-536 415 353 0
252 -264 553 0
-981 -190 -863 0
-849 690 824 0
-453 -254 504 0
-620 257 -816 0
-112 -479 226 0
943 -596 -702 0
-977 -926 766 0
-971 -91 -307 0
953 -613 -323 0
872 -29 492 0
780 10 -732 0
-847 -481 12 0
68 -238 752 0
242 -682 362 0
-964 -672 -924 0
822 -524 -541 0
-840 630 -936 0
101 -957 696 0
-421 423 -344 0
-616 -839 988 0
294 888 575 0
-201 32 -948 0
-898 -500 -815 0
-849 217 98 0
-995 558 426 0
613 -181 784 0
-732 -106 -250 0
799 413 925 0
291 838 -566 0
59 11 635 0
884 -492 -466 0
465 -203 396 0
-987 111 -540 0
286 547 266 0
355 905 939 0
-916 278 336 0
-933 -927 -302 0
-249 329 93 0
525 -447 -183 0
-392 898 64 0
28 961 11 0
208 -673 685 0
662 779 624 0
244 -229 -278 0
943 732 455 0
81 -903 -275 0
-62 668 716 0
-924 695 150 0
-701 -593 865 0
444 -520 -555 0
446 -979 466 0
54 53 842 0
920 843 187 0
-934 -518 258 0
-602 -596 -938 0
-30 -774 75 0
-617 -561 876 0
-346 -132 -601 0
-578 -832 881 0
740 586 -274 0
-15 -936 -612 0
288 236 -230 0
185 -826 736 0
-96 310 575 0
486 747 -891 0
-554 514 203 0
-881 -906 -654 0
-80 -718 496 0
413 205 -622 0
168 -100 -792 0
-961 109 -696 0
-212 265 446 0
837 -988 -354 0
-391 -786 -58 0
377 -810 -794 0
-615 410 333 0
-153 7 -364 0
-581 -603 -957 0
-605 -862 212 0
458 442 826 0
617 466 -300 0
-894 -524 -862 0
625 503 107 0
189 -921 521 0
-909 -809 -467 0
131 206 -871 0
531 -586 -37 0
-395 631 -180 0
713 -490 7 0
-342 361 832 0
384 212 -923 0
-104 -13 -106 0
862 -926 749 0
823 691 -564 0
111 -146 -119 0
607 -300 938 0
-493 383 -117 0
-784 -40 -397 0
-941 391 -60 0
-938 -863 -583 0
-806 439 -403 0
750 -533 -111 0
-663 -313 -634 0
833 -183 -23 0
-142 -209 627 0
168 -423 -545 0
517 51 738 0
754 133 -728 0
-130 -547 709 0
612 924 189 0
-591 34 -211 0
-591 340 597 0
-603 907 -30 0
-837 780 501 0
2 -237 -475 0
170 -168 -907 0
663 715 260 0
677 -96 -593 0
995 -853 932 0
-219 109 601 0
737 -789 4 0
113 -152 595 0
-127 -479 -663 0
-408 -763 -924 0
-998 234 -594 0
492 226 -248 0
278 152 569 0
-697 962 740 0
-673 454 418 0
157 -190 139 0
866 -596 277 0
786 -803 -292 0
37 -30 467 0
473 912 -539 0
615 -743 -848 0
-621 -319 -349 0
86 28 216 0
848 847 -352 0
-804 286 -555 0
-211 509 298 0
-603 -431 -844 0
291 -135 602 0
-707 -123 -308 0
808 -233 -269 0
-118 -535 -647 0
164 -936 1 0
-711 -769 -824 0
-801 -791 570 0
-237 -904 365 0
-469 -543 911 0
140 381 -174 0
960 -529 715 0
83 127 657 0
-558 -96 -871 0
873 921 -176 0
209 -527 -12 0
717 -592 -321 0
-747 258 -938 0
445 210 -813 0
-193 847 -227 0
-890 585 -328 0
450 -725 268 0
-991 -655 -358 0
110 -304 -124 0
-328 297 -415 0
451 -538 -844 0
164 -3 -251 0
-46 734 -314 0
101 -662 -34 0
17 -954 -524 0
-484 -572 -875 0
360 -862 -168 0
811 -339 -88 0
263 363 365 0
-652 -77 40 0
277 -187 -717 0
-326 919 638 0
-107 930 -538 0
565 -339 197 0
560 194 722 0
472 86 374 0
-914 -116 -74 0
440 -918 610 0
-54 -74 -766 0
206 807 677 0
-94 361 -29 0
-127 -738 664 0
-617 90 902 0
648 -64 323 0
-341 -485 890 0
614 -98 819 0
844 -543 753 0
436 -645 -379 0
-49 -648 691 0
-998 -990 -240 0
164 747 -155 0
748 290 -447 0
-375 -740 813 0
-318 943 -274 0
242 -613 -296 0
-974 424 224 0
601 412 134 0
-34 157 -338 0
-783 952 -470 0
-393 814 995 0
-130 908 -248 0
-853 38 539 0
-579 -569 -839 0
994 -69 742 0
405 -91 425 0
894 101 516 0
-207 -961 690 0
-129 842 94 0
570 489 -692 0
987 -623 435 0
500 175 -154 0
-375 -651 -833 0
226 -609 -671 0
-937 -752 356 0
508 593 -890 0
91 -647 71 0
-29 -939 692 0
289 -386 165 0
-276 818 644 0
-114 -634 1 0
350 -188 900 0
-464 -594 -728 0
3 -656 -2 0
576 927 -907 0
-544 342 -659 0
-573 -105 -776 0
-509 -851 760 0
-76 210 -136 0
496 565 549 0
84 -322 723 0
722 -102 -694 0
971 730 -551 0
311 532 -243 0
-374 -800 -61 0
-927 -520 -126 0
-162 591 -320 0
-630 -305 225 0
-598 -149 -102 0
988 -374 575 0
-260 -372 753 0
-948 -898 -163 0
-768 85 -333 0
-659 -40 519 0
-484 -697 -175 0
-895 994 423 0
809 719 134 0
979 10 913 0
788 335 227 0
107 719 213 0
-68 -451 89 0
629 175 -481 0
-344 106 382 0
346 -215 502 0
789 232 351 0
668 -227 66 0
116 -253 -967 0
-937 -727 248 0
734 -588 -584 0
9 -463 195 0
-502 950 869 0
952 283 -448 0
-238 732 418 0
898 478 794 0
157 550 -806 0
-9 -776 426 0
490 34 60 0
222 842 -633 0
-460 478 -515 0
-397 -695 48 0
750 241 350 0
-256 924 693 0
-46 -669 508 0
669 965 114 0
541 -559 -220 0
-724 667 746 0
-373 947 570 0
-339 667 677 0
133 818 638 0
-681 -909 -211 0
918 567 995 0
-414 -938 372 0
54 835 -150 0
-350 -604 984 0
-70 -206 235 0
-195 863 376 0
-787 586 610 0
145 815 196 0
-31 -401 579 0
-808 465 363 0
-151 604 -544 0
-568 968 -965 0
625 173 208 0
-736 512 338 0
-226 -14 624 0
-744 359 273 0
1000 930 529 0
-343 769 -241 0
-582 443 -704 0
892 -152 774 0
-173 -104 261 0
-215 -245 972 0
-250 -361 -137 0
-145 58 -121 0
458 -238 197 0
-740 -73 -717 0
667 39 28 0
-301 491 -762 0
773 -630 14 0
-727 -31 -743 0
907 -844 -206 0
-992 249 50 0
-366 -149 -568 0
626 -785 -770 0
-114 -662 905 0
-272 -385 380 0
903 407 282 0
-190 211 551 0
-556 -634 -169 0
-406 929 -197 0
16 192 582 0
-583 177 -364 0
-640 580 -141 0
528 823 749 0
-179 -829 381 0
304 -307 -270 0
51 897 199 0
277 674 -37 0
-373 -195 -60 0
-374 -183 -192 0
-500 156 -579 0
-266 -100 7 0
-427 986 -660 0
-718 263 342 0
126 -469 -792 0
-819 -226 -136 0
-313 90 -817 0
434 -900 -221 0
-106 -265 584 0
921 -380 288 0
-335 471 -319 0
289 434 724 0
-905 810 292 0
-996 851 -159 0
647 699 -38 0
-70 -118 -776 0
95 331 515 0
538 -426 270 0
-408 -614 -710 0
35 613 841 0
287 -403 508 0
435 -469 146 0
-140 577 833 0
-844 970 -117 0
-771 56 630 0
922 -245 -684 0
7 10 -496 0
413 904 -445 0
-954 -88 -920 0
-450 596 -738 0
295 166 -788 0
-405 -834 347 0
-203 875 115 0
426 -784 -22 0
-428 649 363 0
-538 -357 -525 0
780 -184 -249 0
5 11 -60 0
-440 -866 -530 0
-605 568 -196 0
-848 855 -61 0
769 -726 -860 0
721 -251 -138 0
-752 -954 230 0
-856 145 280 0
-176 -150 -399 0
-841 -795 645 0
151 609 586 0
80 620 -422 0
202 -694 863 0
-141 -116 955 0
-676 425 -503 0
-784 615 -330 0
119 -308 911 0
319 -724 -338 0
467 -709 155 0
-637 -532 -393 0
215 976 551 0
-937 95 931 0
-783 -44 -62 0
988 108 650 0
121 875 -200 0
942 -159 -46 0
-116 -512 -852 0
-354 912 -120 0
-423 -277 376 0
510 -92 654 0
-220 -369 -621 0
-418 524 -838 0
-406 -911 -109 0
840 780 -87 0
-801 -485 -82 0
856 304 615 0
-880 508 518 0
-857 220 487 0
310 -24 893 0
11 373 488 0
-74 -220 500 0
229 279 -970 0
128 642 -134 0
926 -556 -606 0
-362 838 -852 0
-567 -938 -521 0
-640 -946 710 0
-516 -508 147 0
84 423 -308 0
368 -917 682 0
-20 392 -546 0
-289 805 -661 0
758 628 -255 0
-632 -227 73 0
-742 246 -866 0
295 867 -700 0
947 491 182 0
475 198 -800 0
112 569 362 0
521 -512 -191 0
-201 -256 616 0
448 186 628 0
347 30 570 0
407 -961 -93 0
-755 703 -82 0
-920 483 -929 0
68 -43 -592 0
302 363 -644 0
-656 347 224 0
961 -661 653 0
335 -715 709 0
742 -528 -57 0
983 596 -253 0
907 524 -825 0
492 -562 644 0
483 -330 690 0
-904 963 -564 0
322 567 -382 0
415 -989 -184 0
-113 -441 884 0
61 -80 -801 0
828 -430 -595 0
-182 -11 -271 0
728 809 -581 0
511 -891 987 0
-772 -610 158 0
-512 -273 -711 0
-969 -451 769 0
-656 -939 -392 0
-290 163 343 0
-92 374 -748 0
87 956 283 0
475 -674 -380 0
-295 376 -619 0
114 557 429 0
-539 -803 963 0
598 2 973 0
-419 243 -847 0
628 -378 860 0
87 842 158 0
767 285 692 0
128 -648 -122 0
-332 766 -16 0
-627 630 99 0
-590 -608 368 0
680 -577 -286 0
-93 -697 -10 0
-683 652 -931 0
196 -711 662 0
597 202 565 0
452 -878 -725 0
-542 54 -310 0
310 353 733 0
801 -753 -689 0
-100 546 -614 0
-107 325 -733 0
-113 -728 -187 0
479 -745 636 0
-134 -500 -540 0
-23 -143 -445 0
-190 -62 480 0
886 -666 -103 0
-328 489 -264 0
-523 -28 11 0
-542 -186 -255 0
-965 853 -404 0
-154 20 -245 0
651 -3 314 0
786 805 -828 0
-64 825 269 0
109 402 127 0
-651 714 227 0
191 170 -820 0
739 -573 -349 0
-108 869 502 0
145 393 884 0
-372 946 -945 0
495 -490 176 0
-620 143 811 0
249 921 58 0
-459 503 887 0
970 -264 -493 0
270 639 352 0
495 756 -823 0
870 -911 -643 0
912 -520 -820 0
-558 494 -912 0
388 -143 -804 0
584 426 860 0
553 -768 -793 0
235 -582 -643 0
569 519 -829 0
674 -89 -234 0
635 -303 822 0
383 -914 -462 0
-625 -411 414 0
-7 -262 -950 0
324 -242 102 0
831 -531 581 0
-72 996 642 0
194 -738 -784 0
799 606 -531 0
606 248 -843 0
668 -146 808 0
-463 7 668 0
-599 902 -178 0
-530 555 529 0
-448 855 369 0
-679 594 978 0
606 -790 192 0
430 -299 -266 0
410 204 948 0
911 -207 -539 0
630 34 -977 0
380 -762 417 0
-901 -578 856 0
-539 221 37 0
-730 649 708 0
239 -436 996 0
-903 25 -520 0
-473 382 -505 0
-850 -707 401 0
-400 -925 124 0
534 -437 224 0
243 -415 -170 0
-705 360 2 0
810 691 -958 0
104 -475 -618 0
-3 80 -201 0
29 -575 -954 0
82 708 96 0
-906 -994 820 0
-205 -655 -917 0
990 -248 970 0
83 -115 483 0
812 -45 -265 0
889 -434 -254 0
-778 421 857 0
957 -664 98 0
-232 -288 -908 0
870 759 -346 0
-919 365 -479 0
160 548 -550 0
-498 225 288 0
714 118 -138 0
-523 266 -447 0
-558 920 -866 0
-796 443 795 0
-672 -326 -599 0
-636 -803 341 0
-61 778 180 0
89 987 966 0
-843 -666 -277 0
509 -66 353 0
335 723 -27 0
344 -938 46 0
138 791 -288 0
-68 -856 -988 0
595 572 -335 0
-47 99 753 0
-801 736 956 0
653 -547 20 0
872 668 -972 0
198 -417 -784 0
-491 763 868 0
635 398 -958 0
-648 841 -507 0
270 -311 566 0
10 -109 411 0
-949 -273 -494 0
281 499 -154 0
-508 -955 -505 0
-671 -942 644 0
-330 431 988 0
-535 770 676 0
-812 -314 -107 0
923 355 688 0
-231 906 106 0
37 255 -187 0
-386 371 -109 0
-768 -746 346 0
-916 736 263 0
-796 519 363 0
88 647 687 0
-134 269 83 0
307 -113 -161 0
294 505 -996 0
-763 874 -161 0
184 578 -176 0
-677 575 -301 0
-310 -596 377 0
708 -931 -371 0
132 -725 -740 0
248 -670 -885 0
632 -169 -509 0
-677 -680 412 0
39 -395 -478 0
-542 -329 -839 0
-701 -703 -76 0
778 732 -467 0
285 938 942 0
212 -159 -593 0
-554 -192 957 0
883 826 105 0
-189 -129 670 0
-764 191 -11 0
-601 -206 921 0
28 -515 163 0
-493 -416 318 0
42 -585 -463 0
-992 74 261 0
-665 -376 -918 0
-416 -681 734 0
-324 -894 355 0
-774 -949 979 0
987 -395 -35 0
394 -969 -398 0
889 858 29 0
332 -119 -58 0
690 -975 566 0
519 193 -742 0
-196 26 526 0
704 -570 -29 0
937 -371 189 0
-878 194 970 0
293 -638 -759 0
-508 828 841 0
433 146 355 0
756 -600 796 0
-840 -817 870 0
242 227 -142 0
210 912 437 0
-70 425 -202 0
-951 849 844 0
-155 475 297 0
-367 463 -316 0
539 642 -706 0
-712 -767 -853 0
-886 -668 -652 0
-114 78 -978 0
957 -312 -284 0
-502 -515 18 0
-688 -206 -976 0
26 445 -562 0
905 555 -579 0
509 623 470 0
-16 189 717 0
100 -466 -719 0
649 964 440 0
-828 595 951 0
456 504 13 0
-253 550 454 0
-207 27 -677 0
609 -858 616 0
-425 -890 401 0
350 -514 -654 0
302 -556 -841 0
833 101 992 0
945 -235 -113 0
-527 850 -211 0
464 616 962 0
-185 132 -458 0
12 -643 -434 0
862 -778 93 0
-347 -58 269 0
311 -275 -874 0
-770 179 -875 0
389 443 503 0
831 989 -513 0
-493 595 986 0
455 329 121 0
365 464 -239 0
-365 -148 166 0
-437 950 243 0
634 372 -291 0
-397 -513 -271 0
121 -771 -291 0
324 -122 35 0
947 -70 498 0
-759 299 -252 0
960 922 -446 0
217 -326 295 0
230 56 862 0
578 118 -787 0
-977 91 812 0
655 44 64 0
591 -317 531 0
-409 -593 -857 0
-11 395 143 0
-816 664 212 0
-265 -845 148 0
-684 -309 -383 0
-204 205 588 0
-373 236 516 0
-936 -120 -992 0
-942 851 664 0
-231 -141 776 0
655 552 -401 0
546 -190 -288 0
153 242 118 0
503 -34 -828 0
-42 -394 687 0
-485 721 700 0
94 -869 -446 0
202 -230 -538 0
-743 51 -261 0
729 -942 821 0
-558 673 -15 0
120 11 -376 0
820 -762 -584 0
136 -845 -951 0
777 92 -750 0
14 -575 525 0
259 977 -369 0
-554 -32 -623 0
171 -359 591 0
519 272 -904 0
-933 -845 -892 0
418 410 254 0
488 -762 396 0
94 351 -875 0
147 -325 -246 0
-794 -2 263 0
416 534 -762 0
354 -273 -928 0
-239 489 -335 0
839 -739 579 0
788 759 -977 0
226 -861 722 0
529 -961 -611 0
668 519 537 0
786 337 -102 0
105 543 514 0
712 -272 631 0
748 378 4 0
-405 -872 110 0
919 560 991 0
892 643 -523 0
819 594 67 0
533 -513 -933 0
-26 -468 -381 0
-999 14 129 0
-953 851 794 0
-995 -696 -936 0
-788 476 -811 0
-700 -178 -51 0
-697 223 -211 0
-237 496 -594 0
214 948 -400 0
538 126 799 0
-900 683 23 0
52 411 -960 0
992 -556 -333 0
765 494 599 0
291 -53 -27 0
-481 63 736 0
730 -811 224 0
-13 157 62 0
930 543 786 0
-674 95 941 0
44 -691 169 0
901 -837 -758 0
151 28 436 0
-456 970 95 0
381 61 322 0
312 -907 -461 0
-373 -559 449 0
310 -826 -623 0
973 -980 683 0
-263 24 -830 0
-734 -694 -560 0
417 259 136 0
591 -795 616 0
808 195 817 0
638 -866 931 0
850 915 -844 0
-526 -461 -294 0
856 411 -436 0
-633 123 35 0
-147 -795 576 0
-348 653 317 0
1000 624 -311 0
858 -735 557 0
-782 -447 807 0
292 -924 -930 0
24 -41 36 0
-593 351 -532 0
252 -585 67 0
565 -538 -959 0
203 310 159 0
-255 704 -770 0
303 774 67 0
597 -948 580 0
594 164 249 0
-638 420 -145 0
-282 -960 851 0
-55 394 -206 0
-707 204 89 0
112 -952 -276 0
-508 -698 -60 0
-748 16 -572 0
-486 499 -339 0
547 588 -630 0
241 -268 -619 0
613 -823 253 0
-96 819 348 0
-854 -116 -217 0
-281 562 -144 0
893 402 364 0
624 60 315 0
-642 -405 -36 0
182 228 -79 0
-769 -743 943 0
-751 649 395 0
-31 -126 306 0
872 580 377 0
-22 198 389 0
266 393 349 0
-886 232 430 0
945 -672 -650 0
-681 -592 385 0
771 392 994 0
-286 -723 44 0
999 -590 957 0
224 699 -818 0
517 667 -274 0
-688 698 649 0
273 535 743 0
91 -298 -648 0
-49 -713 -611 0
218 -825 81 0
786 330 -66 0
-478 754 665 0
-820 -283 908 0
424 -952 -777 0
-979 -751 671 0
-539 99 -323 0
-744 245 -453 0
190 720 811 0
598 848 -792 0
-478 -590 -330 0
92 -725 671 0
-548 640 716 0
391 -355 -168 0
915 -920 555 0
-951 -947 855 0
691 -445 -254 0
107 12 -219 0
-974 -745 -575 0
425 -345 -628 0
461 -734 101 0
213 659 507 0
579 -627 823 0
-684 478 -819 0
530 181 -213 0
-348 77 -132 0
709 164 -925 0
-134 975 -136 0
896 -532 -837 0
820 999 -179 0
813 6 928 0
-732 56 -964 0
351 -232 375 0
403 754 -714 0
165 70 -424 0
2 186 -544 0
936 -699 838 0
-810 906 819 0
-936 501 123 0
682 977 -890 0
233 921 996 0
341 997 160 0
661 188 -352 0
-488 449 -339 0
470 223 857 0
-432 -256 -854 0
-601 -845 -273 0
-486 -657 545 0
-680 -181 631 0
-616 778 905 0
393 501 726 0
-400 925 585 0
761 759 144 0
-624 -956 11 0
-209 -45 976 0
-20 612 -449 0
-68 -816 304 0
-269 294 717 0
-201 -838 374 0
183 671 46 0
-228 -366 845 0
872 -736 481 0
279 -625 -644 0
-378 -166 751 0
319 -944 498 0
-107 -758 -56 0
652 907 649 0
682 783 424 0
589 -652 299 0
486 399 -317 0
-586 655 812 0
-809 429 -726 0
630 460 557 0
540 220 -286 0
45 -373 98 0
-806 -514 510 0
906 -986 873 0
-978 287 989 0
-997 280 52 0
103 885 -31 0
200 -434 628 0
-537 514 376 0
992 274 -547 0
-771 786 -627 0
-610 -218 -228 0
241 130 -922 0
-593 -378 -431 0
-291 63 -191 0
-91 -885 -98 0
622 659 230 0
-739 -436 675 0
-696 -746 -305 0
327 750 -441 0
735 928 -410 0
70 840 -686 0
96 -211 -618 0
426 -939 234 0
693 -854 711 0
401 379 -108 0
-867 -186 842 0
913 -558 -108 0
729 301 -231 0
99 220 -677 0
-996 -47 673 0
-534 526 -273 0
-977 355 -631 0
531 -604 -814 0
-181 499 -830 0
-773 865 553 0
-97 393 -98 0
-803 944 485 0
-63 -430 335 0
-460 -428 974 0
944 859 -45 0
-223 -440 136 0
-444 478 -215 0
976 640 217 0
-531 146 -881 0
-297 755 430 0
-851 -297 -319 0
-170 473 -93 0
-495 -785 -147 0
276 -906 -304 0
-865 -214 -688 0
139 31 723 0
-494 -343 -901 0
-626 -377 702 0
-668 -542 -540 0
810 950 615 0
132 -52 -386 0
-711 574 34 0
711 909 -300 0
981 -636 790 0
-22 -382 232 0
811 623 21 0
522 907 466 0
667 643 -105 0
777 66 5 0
798 317 174 0
184 -108 -353 0
813 854 -875 0
989 677 -492 0
547 1 -718 0
-902 -316 454 0
722 197 396 0
-770 -567 61 0
717 -949 106 0
929 -922 964 0
215 -525 435 0
138 -744 -457 0
787 775 454 0
-10 905 -543 0
-859 324 598 0
-160 607 897 0
210 -113 -857 0
151 677 838 0
809 -618 -395 0
261 840 227 0
-362 898 -193 0
-186 78 -124 0
-76 721 -148 0
207 826 94 0
438 235 -785 0
-639 -231 341 0
-148 742 772 0
854 392 682 0
-545 455 174 0
872 -682 -936 0
536 689 664 0
880 -764 674 0
-19 91 877 0
-204 -354 -165 0
-10 -767 -588 0
-386 506 208 0
-473 363 -738 0
742 -953 270 0
449 820 -826 0
388 141 -787 0
677 -389 564 0
668 -569 281 0
39 -624 679 0
510 -28 994 0
318 868 -4 0
562 -738 -709 0
825 -863 -217 0
58 937 -474 0
-289 -455 650 0
808 -345 420 0
844 -388 832 0
-201 -994 -283 0
-825 714 173 0
276 93 -574 0
109 619 -946 0
757 464 -739 0
-993 -536 -457 0
19 50 -420 0
773 877 534 0
-745 -5 332 0
-886 -302 -54 0
390 -926 -686 0
253 262 148 0
275 -262 -991 0
809 -861 -185 0
-801 -485 241 0
-931 -49 648 0
862 -727 924 0
-130 347 -753 0
108 435 -356 0
517 871 762 0
-298 758 177 0
-424 594 411 0
-30 768 738 0
372 347 -566 0
-570 -242 -454 0
969 523 645 0
-154 -616 -532 0
-321 -127 805 0
-295 -37 355 0
-763 -320 410 0
415 812 94 0
-884 -938 121 0
418 789 -690 0
-62 40 604 0
10 -470 -377 0
-266 494 307 0
143 271 747 0
268 622 845 0
-132 -983 -638 0
202 -637 105 0
-582 400 187 0
220 -172 544 0
-902 773 -915 0
-647 -108 -707 0
-103 -802 454 0
-459 -827 -870 0
159 462 -190 0
-184 669 -109 0
630 858 493 0
-544 -407 262 0
471 -774 -106 0
-370 475 421 0
214 -11 -784 0
-913 -80 738 0
280 -561 -983 0
657 -329 272 0
-899 576 -428 0
-966 -909 -144 0
-444 449 -596 0
-26 781 369 0
-397 207 333 0
-71 -374 594 0
566 -921 408 0
-706 -956 890 0
754 838 83 0
-924 445 52 0
-926 -881 -609 0
189 470 -716 0
-391 505 -975 0
727 186 -628 0
-186 -618 310 0
-722 83 -353 0
-434 -496 37 0
872 -757 -507 0
218 -919 240 0
199 -713 -148 0
-926 -344 -153 0
948 45 93 0
-888 -790 20 0
-334 554 -117 0
-521 260 762 0
-476 -542 591 0
621 -364 706 0
-437 -192 -805 0
-786 486 -355 0
224 -241 218 0
-830 -191 -904 0
-233 -396 -446 0
6 862 -543 0
-63 -300 -790 0
52 -316 -859 0
796 -200 267 0
-456 300 914 0
-735 438 -262 0
685 -963 -876 0
376 151 -423 0
-875 -509 -141 0
34 -197 -236 0
-59 -703 150 0
909 -976 424 0
248 451 38 0
36 545 776 0
123 886 633 0
-119 -345 799 0
521 -42 -839 0
-335 390 -955 0
-847 685 449 0
-230 -758 -810 0
-506 -882 968 0
-428 -889 368 0
-301 588 416 0
-233 -11 -715 0
-653 -716 521 0
96 -736 670 0
942 -682 -859 0
634 113 941 0
460 43 -782 0
-872 419 983 0
-27 820 -552 0
983 300 723 0
971 456 -947 0
17 -854 -226 0
-21 -692 -675 0
677 740 613 0
6 728 -40 0
245 129 -165 0
871 -331 -736 0
-865 264 853 0
795 -39 255 0
-268 -957 -329 0
-212 430 285 0
-603 -619 320 0
-194 -745 155 0
-437 -358 -672 0
-338 -857 439 0
-621 1000 -982 0
-629 -661 478 0
-508 -667 -171 0
-655 966 973 0
206 -385 -742 0
-172 743 332 0
-233 356 817 0
-412 -660 686 0
577 -177 -411 0
955 -265 -202 0
-190 266 435 0
-59 -24 241 0
-518 237 -46 0
710 596 -163 0
-959 -526 -900 0
-327 811 -313 0
-139 543 -803 0
-863 -951 -59 0
-738 -595 -521 0
658 751 -304 0
353 -535 222 0
590 189 -21 0
-288 -603 -311 0
149 -581 -646 0
97 -541 547 0
-178 770 -685 0
-187 571 164 0
911 305 -987 0
-123 249 388 0
-550 650 124 0
-652 862 -185 0
-20 -944 -362 0
-486 -907 206 0
603 -834 450 0
377 467 352 0
-551 -117 -328 0
-208 252 608 0
-730 -87 -332 0
67 -358 271 0
285 553 -668 0
245 -735 -572 0
-548 622 -130 0
189 220 -850 0
-327 687 -397 0
195 885 285 0
493 75 686 0
147 808 -952 0
430 440 -249 0
30 675 890 0
30 -15 387 0
-520 142 314 0
396 -797 944 0
-153 -847 -503 0
955 -901 434 0
739 554 718 0
-544 -64 -975 0
521 327 598 0
-995 -174 -954 0
-487 998 -35 0
815 681 -914 0
-502 190 498 0
884 -193 -544 0
165 -973 83 0
-396 -803 666 0
210 578 767 0
-158 -35 -956 0
360 -697 -264 0
-739 727 836 0
655 722 863 0
220 -79 645 0
246 -728 -448 0
301 217 -788 0
-924 528 -247 0
676 957 120 0
-306 434 -888 0
-375 526 365 0
-493 -418 -92 0
455 639 80 0
526 574 -730 0
-307 478 -847 0
-496 966 -564 0
-548 -104 619 0
-575 -63 -709 0
28 128 -259 0
63 -140 -521 0
-65 977 676 0
101 -501 618 0
46 -86 45 0
-554 -613 471 0
88 389 -871 0
157 -273 85 0
-174 -567 70 0
1000 -381 -796 0
984 -950 291 0
-819 -172 640 0
-191 135 806 0
313 -120 -24 0
18 -121 650 0
369 85 431 0
-775 434 610 0
132 -677 -131 0
-3 -576 882 0
252 -437 655 0
-569 5 -644 0
584 -186 443 0
-574 650 -721 0
-342 188 984 0
223 495 -908 0
75 -636 701 0
452 477 -573 0
892 829 -861 0
-651 747 457 0
-609 529 -205 0
-677 -85 630 0
744 -384 -360 0
-199 -265 982 0
936 -119 995 0
649 883 239 0
230 322 -923 0
-234 5 74 0
444 -621 -409 0
-482 -363 -672 0
-338 459 -231 0
-155 -861 143 0
275 436 -289 0
222 843 512 0
964 -630 433 0
-763 -494 -853 0
804 -171 -770 0
351 -996 622 0
-368 -264 -354 0
-927 126 -997 0
763 489 -992 0
580 -223 -185 0
156 959 -431 0
-762 696 354 0
51 783 -342 0
442 781 -529 0
6 717 497 0
-895 996 -465 0
-945 328 -74 0
428 177 -829 0
31 -411 -926 0
-422 210 906 0
-518 -435 -244 0
-179 -693 -29 0
-986 -922 556 0
265 -656 532 0
856 -583 -769 0
-88 388 115 0
700 -463 -406 0
-609 74 -126 0
68 -131 549 0
-975 508 -814 0
802 -713 612 0
-87 497 174 0
-444 343 -849 0
903 205 263 0
-922 374 599 0
476 -878 -147 0
-543 363 -297 0
-942 792 17 0
922 -46 925 0
-653 -922 -928 0
502 13 -746 0
578 795 297 0
590 603 528 0
613 -466 -969 0
122 740 -70 0
528 -482 107 0
-579 573 247 0
84 568 -856 0
140 560 -339 0
-710 -531 -459 0
877 598 439 0
579 181 -999 0
287 305 -654 0
-442 -83 -977 0
-75 146 934 0
-471 -972 367 0
-870 -556 -573 0
-102 399 508 0
-586 -436 602 0
-846 411 670 0
1 788 -154 0
-831 951 -932 0
-116 -754 -933 0
793 266 905 0
-208 -348 -221 0
-995 34 330 0
697 -186 633 0
-352 -304 947 0
-47 -780 788 0
295 -265 -548 0
-958 -924 859 0
476 -943 991 0
772 598 929 0
-174 -922 -941 0
902 -849 -986 0
-473 -137 -665 0
-577 -168 -359 0
184 904 -216 0
-559 -553 729 0
596 -380 145 0
-660 -464 908 0
-297 112 963 0
149 -509 -553 0
-861 -862 515 0
-194 794 -610 0
413 -866 -470 0
998 -957 103 0
107 992 780 0
-814 -861 -93 0
-391 -591 357 0
432 205 -76 0
891 -570 365 0
244 178 -616 0
-981 777 -711 0
-119 90 570 0
953 25 282 0
-90 -59 312 0
-223 -931 54 0
-642 350 -592 0
766 256 611 0
252 -287 616 0
5 998 388 0
37 696 -961 0
411 -163 -394 0
835 -468 948 0
-759 -859 -66 0
304 308 618 0
-457 191 -408 0
434 841 867 0
-59 -633 -524 0
-738 -964 -274 0
-53 -430 14 0
792 -979 594 0
-882 -785 772 0
504 590 581 0
-592 686 -381 0
-710 743 -926 0
-563 -268 -997 0
125 -28 660 0
-681 -54 970 0
977 969 -170 0
924 -355 23 0
926 -137 -794 0
-666 -289 -955 0
-166 -532 243 0
-70 -822 -693 0
972 494 806 0
-528 182 55 0
-303 -806 881 0
-267 -57 85 0
723 35 -864 0
-756 98 116 0
-76 53 -63 0
-126 546 -699 0
910 778 760 0
-880 859 654 0
-566 11 811 0
-685 -560 133 0
-449 -74 492 0
-540 -97 -165 0
755 -23 -954 0
-114 126 -906 0
487 -635 -982 0
369 -496 -561 0
-501 -101 44 0
-511 -442 456 0
-490 -268 69 0
603 601 684 0
563 -679 -208 0
-160 568 436 0
-820 -713 -214 0
-735 166 69 0
951 -193 600 0
-403 156 -714 0
-381 -618 -239 0
433 -794 -898 0
537 -67 -853 0
894 316 989 0
308 551 -529 0
-899 -627 -651 0
-554 -230 632 0
468 -93 679 0
581 151 -441 0
-309 -151 739 0
-95 834 -98 0
-486 -858 478 0
547 -456 -455 0
-521 751 -566 0
-653 401 -546 0
-372 916 835 0
-318 -12 257 0
48 811 753 0
510 262 690 0
-270 -877 647 0
658 -60 392 0
708 -777 449 0
-336 -331 -328 0
433 272 934 0
-571 -677 -842 0
-557 704 585 0
-267 -693 649 0
-381 302 -272 0
797 -881 841 0
-390 -944 221 0
-637 891 -503 0
-284 -24 -714 0
-797 74 740 0
-519 229 232 0
704 423 -474 0
696 -687 -996 0
771 554 -48 0
-934 -722 -737 0
145 -700 -48 0
161 890 -690 0
693 696 -988 0
-628 -725 -614 0
-514 573 -125 0
-837 741 810 0
791 -401 425 0
188 985 219 0
-448 681 -434 0
661 -460 410 0
431 476 940 0
780 -198 221 0
780 957 112 0
726 -849 740 0
-695 -500 -66 0
871 -966 -13 0
-40 -656 347 0
-16 -474 -574 0
-328 147 -321 0
-870 -489 -109 0
-255 -894 -497 0
-66 980 314 0
893 -139 -670 0
270 268 -697 0
961 -128 -985 0
730 564 772 0
-522 825 -205 0
-515 -462 751 0
-805 691 371 0
848 200 244 0
5 -400 379 0
617 836 216 0
975 631 -738 0
174 845 751 0
997 -726 -677 0
659 -547 645 0
201 321 65 0
845 589 424 0
950 246 -425 0
-134 614 498 0
902 389 652 0
-610 470 -335 0
565 -840 -767 0
288 -180 -558 0
318 -158 -583 0
141 348 -693 0
-915 -888 -453 0
-834 84 -83 0
-699 568 276 0
576 790 -230 0
-22 984 581 0
-956 -855 -145 0
731 -70 60 0
-878 -312 108 0
-550 467 -700 0
856 833 680 0
-831 300 30 0
668 -452 340 0
701 19 450 0
905 -178 -962 0
426 -882 -869 0
-714 308 -104 0
306 -396 -511 0
715 -294 546 0
285 444 482 0
490 91 -61 0
335 -475 -670 0
891 315 -932 0
-985 150 85 0
368 562 -156 0
375 -126 -469 0
65 793 622 0
-790 -308 -8 0
-263 439 335 0
754 -977 173 0
240 -304 -479 0
-767 284 588 0
407 963 287 0
-478 -666 414 0
340 -169 -989 0
651 352 -477 0
918 -695 -509 0
342 -379 791 0
-929 -171 -102 0
-302 -681 -948 0
190 414 832 0
25 -975 -738 0
99 -711 118 0
-17 13 -332 0
782 -208 171 0
603 480 428 0
208 -248 -490 0
-758 -992 489 0
146 991 -57 0
980 -656 -732 0
-815 583 159 0
-243 812 -225 0
-294 507 55 0
-748 -215 415 0
2 565 633 0
-985 -22 753 0
-324 -411 336 0
116 104 491 0
804 -355 -300 0
218 766 971 0
-549 521 522 0
-642 865 960 0
748 -4 77 0
895 -1 -838 0
-31 -156 -667 0
-980 294 686 0
-190 -534 136 0
-835 249 94 0
-495 -850 -774 0
-22 469 -234 0
-231 492 540 0
837 -947 704 0
467 503 -758 0
-879 -234 362 0
-93 -2 -805 0
665 -831 585 0
433 424 640 0
-703 -684 818 0
-408 -405 -150 0
-602 -774 -998 0
-750 437 310 0
43 502 -624 0
-498 636 594 0
358 197 409 0
-846 -228 307 0
338 -612 -750 0
-387 931 -758 0
-284 8 -606 0
426 343 -722 0
-596 136 870 0
-51 -875 68 0
-133 -772 971 0
-595 837 -314 0
520 -891 -271 0
254 -807 247 0
744 -419 -295 0
-818 -409 -396 0
625 -937 347 0
-973 732 -117 0
800 -338 -130 0
-46 429 -710 0
165 -245 -202 0
319 713 -970 0
-371 995 330 0
766 654 -794 0
83 -439 -108 0
812 -759 -692 0
630 -610 384 0
911 -847 -706 0
790 -830 614 0
2 -467 -674 0
-103 67 -777 0
558 332 -524 0
294 864 414 0
270 489 -876 0
-688 -59 -911 0
193 954 568 0
-264 -312 606 0
-292 -905 -484 0
-731 788 -502 0
-247 317 -268 0
223 -234 -863 0
-315 350 -997 0
-674 -557 -971 0
816 -195 398 0
-110 797 815 0
-915 -705 -322 0
-995 -514 137 0
-669 106 -198 0
-270 618 111 0
-296 -487 -1000 0
-675 215 373 0
184 944 -325 0
-197 -924 284 0
167 107 -792 0
-688 936 -498 0
775 -264 -496 0
699 -276 185 0
458 -678 -141 0
-299 -595 -397 0
-376 -661 447 0
434 993 870 0
334 -160 452 0
-239 638 -370 0
-397 369 382 0
594 -962 740 0
-904 303 993 0
318 -249 632 0
-603 -66 411 0
-295 148 -651 0
959 61 -225 0
580 -948 -944 0
514 -199 -167 0
-505 724 382 0
-399 538 -992 0
441 603 549 0
125 183 -748 0
-453 -327 190 0
657 -237 -659 0
827 -30 457 0
-815 303 -459 0
149 -137 47 0
55 708 -899 0
888 -760 666 0
204 834 -419 0
643 586 201 0
-497 413 -664 0
39 -66 581 0
34 15 238 0
-794 158 670 0
-340 -529 -108 0
747 233 766 0
532 965 981 0
-667 -573 -934 0
-671 -253 553 0
782 808 -243 0
-213 -537 876 0
-304 -556 -694 0
427 -525 63 0
112 -790 -169 0
358 796 -831 0
-925 -201 -177 0
616 -3 575 0
464 736 -191 0
-14 -586 349 0
-758 -69 926 0
717 719 722 0
851 23 478 0
179 373 -746 0
906 229 -212 0
887 -894 -825 0
-423 -766 314 0
-577 -811 -554 0
431 -143 -944 0
-752 -6 278 0
-214 -628 20 0
-807 -834 170 0
-459 812 44 0
432 -190 946 0
-459 835 371 0
97 461 327 0
216 526 -666 0
-130 -291 944 0
-314 -147 -564 0
-302 -443 373 0
-828 443 -31 0
-887 -212 -153 0
-941 431 293 0
-746 -723 -683 0
563 -996 667 0
395 -451 -384 0
161 664 1 0
283 -815 647 0
-324 -692 557 0
-535 251 -263 0
-517 212 149 0
297 80 16 0
-939 -563 55 0
-770 992 -296 0
-286 -42 467 0
-418 -82 317 0
772 -127 739 0
797 338 344 0
-719 454 770 0
-5 -337 -416 0
62 897 221 0
352 -394 -992 0
-587 353 -180 0
-337 -961 -271 0
443 728 -93 0
110 369 -732 0
-919 340 338 0
-163 762 -799 0
403 -586 580 0
979 -662 791 0
-488 141 -998 0
427 63 668 0
-998 -29 -461 0
-288 -77 13 0
645 727 -149 0
-976 -469 -216 0
-736 865 -497 0
927 -730 526 0
-913 641 406 0
436 358 129 0
453 -848 -483 0
272 791 -934 0
675 804 -739 0
-816 -506 -421 0
521 -56 822 0
-618 144 -45 0
124 -219 -373 0
-857 559 -817 0
881 -848 431 0
449 -221 40 0
370 -298 -505 0
-64 335 40 0
745 35 -361 0
12 -610 849 0
-332 -642 -558 0
271 850 42 0
375 484 -281 0
441 -178 -976 0
-567 966 298 0
-65 60 293 0
-340 -881 -165 0
339 -217 -541 0
664 789 -321 0
-187 -425 668 0
697 -482 808 0
-378 541 -792 0
466 482 476 0
937 -266 -101 0
602 -501 547 0
-961 107 101 0
-42 -65 -902 0
906 -958 566 0
-689 362 865 0
-584 -531 -275 0
-617 538 -758 0
-774 -664 -781 0
211 -444 913 0
-25 841 -372 0
126 324 316 0
-784 -555 26 0
-767 487 -657 0
656 378 986 0
370 -208 -126 0
719 156 -893 0
-638 364 667 0
-235 -149 -785 0
-35 -104 -872 0
590 285 258 0
-974 -880 -796 0
-748 765 705 0
-400 252 666 0
-826 -182 -669 0
479 -264 635 0
578 -896 955 0
-68 -973 -919 0
712 699 557 0
-850 913 991 0
-920 576 657 0
-217 -921 -700 0
-412 323 -884 0
15 735 766 0
-443 231 769 0
896 -48 165 0
-522 852 -101 0
892 -992 970 0
-839 -902 760 0
231 -196 874 0
545 242 842 0
79 829 -137 0
201 -48 178 0
-53 -373 734 0
195 -223 501 0
645 944 723 0
-766 -772 215 0
-148 211 391 0
264 -16 468 0
-543 -138 -686 0
-330 918 334 0
34 -193 -398 0
288 -897 -323 0
-343 990 -63 0
-603 -974 503 0
-61 -69 -142 0
-474 -256 918 0
-155 -215 998 0
-237 634 -55 0
-548 -262 -741 0
170 -392 207 0
-192 496 230 0
91 -114 172 0
649 522 -526 0
348 -330 -577 0
-575 911 730 0
563 -945 987 0
458 -150 923 0
791 -546 -699 0
-469 325 -988 0
-789 -120 186 0
-348 212 -809 0
-887 -809 -376 0
618 -398 -660 0
-577 705 -339 0
518 86 852 0
47 578 766 0
-444 847 -195 0
158 341 -990 0
-672 480 569 0
-477 636 950 0
-989 426 -393 0
972 552 376 0
247 531 224 0
467 -227 -119 0
-398 -918 596 0
-673 345 -353 0
561 444 -918 0
-856 352 -201 0
-238 833 -298 0
808 570 370 0
-321 -579 767 0
-458 -877 725 0
751 725 -253 0
