p cnf 100 325
-8 43 1 0
-70 50 38 0
-78 -77 11 0
-92 -22 -26 0
-66 -37 -34 0
-75 -33 14 0
-83 -7 42 0
58 -33 -64 0
-53 98 -15 0
88 39 25 0
-78 -32 -45 0
-99 74 39 0
-44 -81 70 0
60 36 -27 0
1 -69 -37 0
2 5 -25 0
64 41 -74 0
-44 -33 -15 0
51 60 -44 0
-93 43 49 0
-69 91 -47 0
52 -26 -14 0
96 90 -98 0
-24 12 58 0
-37 88 -2 0
-67 36 -48 0
-86 37 24 0
50 -87 -90 0
-41 19 94 0
-98 -40 95 0
-64 41 -61 0
28 34 -50 0
-4 70 60 0
-81 -89 -69 0
-34 48 -44 0
-84 100 -98 0
12 68 -3 0
-35 -13 -94 0
-84 -59 -14 0
46 41 -100 0
71 91 80 0
-74 -54 18 0
11 -64 67 0
38 -64 18 0
89 82 53 0
74 -64 -23 0
53 -21 -1 0
-27 -68 -13 0
-11 -23 32 0
-60 29 -59 0
7 98 -72 0
-23 17 77 0
25 -73 84 0
-64 19 46 0
40 -5 -14 0
-84 -95 88 0
-30 9 6 0
-60 7 36 0
76 -12 -10 0
-47 -26 -21 0
2 54 59 0
-78 81 -7 0
-11 69 -77 0
-61 19 84 0
5 -43 -13 0
-67 -1 71 0
-43 86 -9 0
43 -34 82 0
-17 -86 26 0
56 -16 -42 0
-58 -18 -46 0
89 93 37 0
21 -27 -32 0
98 -83 -73 0
52 66 68 0
24 -16 -5 0
24 36 -83 0
-33 -11 -94 0
-97 -33 -90 0
-74 15 83 0
-89 57 79 0
-86 -95 -83 0
19 -4 36 0
-25 86 -29 0
91 45 -17 0
63 -66 15 0
-47 -87 79 0
-86 19 -80 0
45 83 -60 0
11 50 -24 0
86 20 -26 0
21 44 -80 0
82 -49 18 0
78 37 -54 0
44 -23 7 0
91 -36 63 0
-72 97 38 0
25 -53 -34 0
-67 81 -78 0
-59 -50 -3 0
-87 53 -49 0
77 74 94 0
-32 39 -31 0
15 86 1 0
81 -82 86 0
-64 -51 13 0
29 3 32 0
-76 -94 -95 0
65 -84 -88 0
-49 60 25 0
4 39 -74 0
75 -50 -81 0
86 -73 -84 0
15 -81 -13 0
2 -88 57 0
54 -83 -86 0
12 25 -99 0
29 61 45 0
6 82 92 0
10 87 -55 0
99 80 95 0
-10 -9 91 0
-31 -52 -76 0
78 -65 81 0
-36 -44 -46 0
12 70 67 0
52 -77 -16 0
-18 67 -76 0
15 50 30 0
-17 71 -42 0
-5 -81 15 0
74 77 -33 0
-27 -53 14 0
-48 -11 -93 0
-54 75 23 0
-48 30 -93 0
-22 -95 -17 0
-95 -47 -16 0
-7 -27 -76 0
-61 -51 -68 0
72 34 46 0
95 99 -70 0
-25 72 73 0
-2 5 91 0
95 86 88 0
-29 -75 -54 0
-48 16 5 0
18 92 5 0
4 23 -22 0
-4 39 90 0
10 35 -99 0
10 75 -96 0
-19 -87 -55 0
-11 -54 7 0
61 75 30 0
73 49 69 0
-53 71 -93 0
88 25 39 0
7 -55 -58 0
16 45 -11 0
51 -83 -48 0
-50 44 94 0
-15 -77 -91 0
18 -40 -29 0
-69 -12 -76 0
98 -62 -74 0
-12 97 21 0
-73 -83 -38 0
-53 -19 44 0
-93 -43 46 0
-82 21 -45 0
76 56 -17 0
-97 -59 27 0
-49 -65 -2 0
34 48 -75 0
97 -42 82 0
4 -77 63 0
-20 -45 66 0
69 -77 -30 0
-82 -38 -60 0
-3 61 -36 0
-91 -44 76 0
95 21 -54 0
-79 -40 57 0
-98 19 81 0
18 -22 -82 0
-27 -55 61 0
-91 -33 84 0
-98 -26 -91 0
56 -35 52 0
-95 -17 76 0
65 -95 7 0
-29 23 19 0
-33 -16 81 0
-27 -17 -71 0
-47 -89 -45 0
-46 -33 32 0
92 -10 -81 0
-44 5 29 0
14 -34 -21 0
-73 35 83 0
-77 46 21 0
-59 -89 -5 0
-61 -56 -16 0
52 -93 81 0
-54 -33 -31 0
67 39 -45 0
-31 100 -83 0
-89 39 49 0
-45 -99 -10 0
-14 -98 -52 0
-66 35 -16 0
10 -88 -83 0
11 65 -80 0
16 95 -59 0
25 -76 9 0
92 -6 85 0
69 57 -60 0
-100 -26 54 0
94 -19 -2 0
-51 18 44 0
56 -18 -42 0
-61 -44 84 0
46 94 -65 0
14 -95 73 0
29 -31 -97 0
32 36 -56 0
17 -74 -29 0
-42 22 63 0
71 48 51 0
-73 76 -17 0
8 68 22 0
-60 25 -20 0
9 -74 11 0
34 -74 2 0
-15 -13 23 0
-49 57 54 0
-20 81 -87 0
5 -73 -17 0
-14 -55 -3 0
42 -49 38 0
-100 20 -46 0
6 -59 70 0
-58 -72 28 0
10 19 77 0
79 12 96 0
-42 44 -43 0
-1 10 31 0
76 85 47 0
-67 93 6 0
14 76 77 0
-52 56 79 0
30 2 -52 0
24 79 58 0
-100 -53 22 0
96 -75 -9 0
57 76 -75 0
41 23 12 0
23 -19 -29 0
-16 -24 -34 0
-100 -9 -74 0
-25 59 57 0
89 -97 29 0
-15 74 -25 0
-92 -6 -35 0
-39 84 71 0
-90 -53 -12 0
44 1 36 0
24 92 55 0
-12 -22 74 0
11 37 69 0
30 -1 38 0
-83 89 78 0
-63 45 4 0
78 55 -70 0
61 79 -93 0
-78 90 -62 0
90 14 -97 0
-73 74 83 0
-93 -70 67 0
63 26 97 0
-1 3 -98 0
-88 32 -79 0
80 64 41 0
-11 50 -37 0
94 -20 28 0
-96 -88 -68 0
-40 58 -20 0
28 26 51 0
-69 57 -72 0
-75 93 -90 0
52 6 -32 0
-88 41 62 0
76 4 48 0
-26 -47 76 0
-14 21 -56 0
39 44 89 0
-52 36 100 0
-59 55 -92 0
22 -7 -87 0
-50 -17 29 0
-54 25 40 0
-19 -75 95 0
-10 6 54 0
43 -48 59 0
-40 -53 -98 0
53 46 30 0
-44 34 -87 0
18 29 -82 0
71 50 48 0
-74 -6 45 0
9 4 -29 0
50 99 35 0
86 -61 -36 0
-70 -27 31 0
48 -89 58 0
100 -76 44 0
65 60 -18 0
38 56 72 0
-10 -83 90 0
-49 -89 -23 0
59 29 80 0
30 -27 82 0
83 57 -4 0
-75 -8 -68 0
