p cnf 1000 3900
-861 880 146 0
-256 -269 408 0
272 257 -131 0
-402 717 -162 0
-533 686 -567 0
-792 679 141 0
553 -723 -298 0
874 -913 -427 0
814 284 -230 0
312 -611 -654 0
148 -412 514 0
-500 -209 996 0
-418 -717 -905 0
-460 -1 349 0
-395 -524 -149 0
708 -217 179 0
392 -355 -348 0
-867 -9 212 0
-859 891 597 0
112 -897 -168 0
-441 -222 835 0
210 763 -667 0
89 975 682 0
-807 -71 -858 0
-695 337 -748 0
77 -693 -157 0
484 -300 97 0
157 -47 391 0
927 -285 620 0
-119 390 271 0
-796 -161 427 0
741 -612 -330 0
-585 -407 424 0
713 561 -6 0
334 30 952 0
63 -43 775 0
-719 251 -930 0
-338 -400 -734 0
-47 786 -847 0
-63 631 -324 0
153 -489 -324 0
66 -496 715 0
-131 -432 -837 0
-804 -180 678 0
174 -510 624 0
-664 136 282 0
772 -210 -812 0
893 48 294 0
-928 414 -76 0
-760 600 -233 0
-608 982 662 0
774 -514 -946 0
-325 745 336 0
-431 54 -434 0
967 -806 -429 0
-308 -842 -57 0
850 6 -233 0
577 -842 -984 0
-867 -458 -731 0
206 660 29 0
22 117 970 0
814 477 336 0
587 -846 307 0
-649 -799 -91 0
-863 147 436 0
560 853 -809 0
-528 -968 944 0
-640 -163 -64 0
-206 -870 -702 0
892 -401 554 0
294 1000 493 0
503 143 -369 0
108 -69 -881 0
-117 675 497 0
-199 -737 -397 0
-959 -90 -629 0
-257 689 -222 0
-849 -602 -916 0
713 896 -729 0
-489 -969 -612 0
-266 -603 -51 0
37 671 899 0
-352 -640 86 0
-353 226 382 0
-766 -57 -329 0
-211 101 -86 0
-976 -878 709 0
-251 90 896 0
-662 390 -521 0
17 -830 536 0
1000 -305 835 0
210 -677 521 0
-134 -550 -193 0
-22 -940 -363 0
568 -21 -399 0
557 -346 204 0
251 216 -835 0
873 -317 803 0
921 556 449 0
-732 -184 159 0
396 92 -469 0
-732 -425 -67 0
25 420 -799 0
627 -746 -719 0
35 616 966 0
-788 452 449 0
371 754 -629 0
548 -566 -496 0
-501 451 -388 0
-628 -513 -566 0
919 27 -735 0
106 380 -919 0
-472 -122 -209 0
-713 -195 -464 0
-647 -600 712 0
-721 80 762 0
-802 -208 -633 0
534 -180 524 0
109 397 -49 0
375 -231 -19 0
995 437 583 0
422 898 796 0
-903 610 296 0
241 -358 -475 0
396 -716 -129 0
104 -724 633 0
-840 -760 -332 0
-940 -315 222 0
110 994 27 0
732 679 671 0
-45 612 559 0
283 -584 -179 0
546 402 -376 0
-438 -566 925 0
-151 -614 533 0
426 -249 -453 0
-409 -940 918 0
-896 -127 -369 0
454 673 963 0
-962 -668 738 0
533 -710 -918 0
-120 -48 -433 0
363 549 -193 0
-146 488 -251 0
202 196 191 0
-772 750 841 0
947 39 -392 0
455 -541 -499 0
327 -335 475 0
793 -97 886 0
-845 -520 -246 0
473 -299 335 0
285 -790 578 0
943 512 887 0
117 139 -588 0
-671 -240 919 0
-581 320 -636 0
-1000 621 498 0
-134 -946 -30 0
132 102 -769 0
-705 -31 -655 0
77 523 421 0
-791 -901 -10 0
201 -44 470 0
-428 202 540 0
525 272 -258 0
448 24 -795 0
177 246 254 0
118 113 -611 0
118 812 858 0
375 -737 -123 0
602 440 802 0
-437 -316 -360 0
918 871 -346 0
-167 893 -68 0
870 244 975 0
419 -383 -881 0
-600 -204 438 0
-277 -417 533 0
-30 -808 -980 0
-440 -747 774 0
797 -26 186 0
471 -646 -491 0
169 486 442 0
-556 -331 -330 0
-532 796 -583 0
-744 541 104 0
903 -624 485 0
625 666 274 0
-605 370 159 0
378 -800 -710 0
349 858 726 0
-10 713 -406 0
506 425 -890 0
-799 -95 677 0
924 682 769 0
904 712 -274 0
426 -792 -474 0
-214 -420 886 0
480 -749 123 0
-997 -178 -892 0
-456 210 707 0
739 304 -388 0
861 783 530 0
-189 58 491 0
159 -399 687 0
398 -359 -607 0
583 -484 -430 0
519 362 378 0
259 -878 546 0
-165 528 489 0
948 1000 -924 0
-806 -345 -61 0
-715 -776 -91 0
319 -322 -55 0
339 642 -646 0
844 -953 -663 0
309 86 -239 0
173 893 -149 0
33 -950 828 0
-920 822 955 0
-618 446 349 0
-766 213 -678 0
556 -388 689 0
232 -979 429 0
-664 -782 355 0
-996 -422 -441 0
368 498 936 0
-612 827 607 0
150 841 350 0
-874 -908 -766 0
-750 -875 -221 0
246 -761 876 0
924 -394 -263 0
-529 642 556 0
918 567 813 0
389 -473 22 0
-441 -554 -412 0
-581 3 276 0
-966 181 503 0
-659 -249 68 0
-426 459 -13 0
984 -368 546 0
-984 858 -356 0
-813 -654 4 0
-450 738 742 0
59 943 -616 0
-51 -970 -331 0
-88 -203 -809 0
734 464 -656 0
-664 264 385 0
-465 678 -961 0
-68 -8 273 0
85 -10 979 0
-941 920 -779 0
133 377 -124 0
715 266 781 0
220 748 609 0
-982 612 463 0
-369 634 -875 0
-548 634 -672 0
93 297 867 0
322 996 890 0
-208 -639 -475 0
-517 568 -414 0
725 46 -17 0
-734 -293 -765 0
-895 -714 541 0
706 938 835 0
-181 -232 89 0
-812 -696 -737 0
-534 -240 596 0
427 750 821 0
-789 734 248 0
47 -732 -45 0
-982 276 711 0
166 -532 -296 0
865 -706 812 0
599 -600 -213 0
-747 -417 -313 0
312 -207 446 0
-247 732 -503 0
952 -32 400 0
719 163 -224 0
277 777 258 0
-898 -780 -875 0
-963 -209 -716 0
-73 14 -312 0
-178 -542 211 0
473 831 -36 0
-716 -503 94 0
83 292 -296 0
-792 403 478 0
986 -559 -866 0
-660 471 -506 0
901 -394 530 0
-593 -494 796 0
35 -515 -216 0
-817 254 267 0
-388 -185 572 0
941 -540 29 0
-675 -766 -434 0
-955 -39 164 0
935 909 453 0
-523 -578 -426 0
-182 183 -26 0
158 -10 -736 0
721 177 706 0
-831 203 -655 0
-517 471 405 0
-426 -97 -896 0
-402 429 -606 0
-441 748 -78 0
869 -672 -399 0
817 -816 372 0
269 -667 281 0
-63 931 329 0
261 -995 779 0
-282 -328 -890 0
-749 -967 -953 0
146 854 690 0
95 388 313 0
44 355 -795 0
-400 -508 405 0
618 -923 413 0
967 -494 899 0
-980 520 -36 0
-676 -962 -387 0
941 -929 466 0
-64 -871 484 0
76 983 260 0
-700 968 -161 0
581 926 -891 0
122 -239 158 0
961 -179 -987 0
333 529 97 0
-933 253 118 0
-839 764 -225 0
294 -477 212 0
856 -605 -912 0
-388 -476 -27 0
558 61 128 0
-499 179 152 0
-516 -952 723 0
-583 877 -660 0
-412 -799 -981 0
99 371 -96 0
-949 -222 475 0
-991 -731 349 0
307 -347 434 0
-996 -316 -485 0
-190 -496 -440 0
940 -534 547 0
-444 121 -927 0
-856 -138 -459 0
-807 170 707 0
586 -85 338 0
-324 578 -415 0
-608 -903 209 0
-910 55 889 0
317 -679 240 0
805 926 -224 0
-120 73 -450 0
288 995 81 0
-572 567 -823 0
912 708 -159 0
-95 382 -448 0
767 -547 -598 0
-82 -401 -77 0
863 -543 90 0
-774 680 -580 0
438 -848 -476 0
919 -962 76 0
-790 -398 -383 0
577 -371 -559 0
95 -45 515 0
609 -61 -50 0
-765 -680 119 0
-501 -903 -956 0
713 247 -725 0
484 551 176 0
720 680 207 0
435 505 -716 0
-763 618 170 0
760 -166 159 0
652 -328 -797 0
262 1 396 0
-974 -581 765 0
222 623 116 0
525 -420 68 0
404 -587 33 0
898 -716 -124 0
-851 599 -830 0
-983 554 -82 0
-623 978 -262 0
841 285 815 0
-211 -575 800 0
-688 444 -566 0
580 915 -476 0
-664 765 603 0
644 -264 -454 0
-65 -651 -307 0
732 169 -778 0
974 206 152 0
-354 -155 -367 0
190 170 -334 0
634 -816 477 0
265 16 271 0
-421 798 942 0
-487 -416 -881 0
-572 -172 -767 0
-811 -745 -372 0
224 722 620 0
-820 655 -238 0
259 250 937 0
418 216 413 0
565 -442 -658 0
-490 -931 50 0
400 -208 -835 0
529 -397 -126 0
-697 -212 333 0
497 360 843 0
139 -519 -297 0
-933 503 -829 0
407 -914 -477 0
-17 -652 -519 0
597 -856 930 0
-299 819 -183 0
-572 902 862 0
623 -226 369 0
-42 509 -412 0
-481 62 -875 0
-58 -34 229 0
482 381 -542 0
443 -476 149 0
-894 312 772 0
991 -350 948 0
501 100 -259 0
-321 693 -292 0
42 -767 322 0
-142 -114 182 0
80 -329 -114 0
11 -994 -200 0
-509 390 542 0
-783 91 -773 0
-283 -719 -885 0
-693 -866 724 0
739 256 408 0
553 235 877 0
-383 774 559 0
-767 -119 481 0
-175 455 222 0
544 -330 -179 0
-431 575 887 0
673 -868 742 0
-519 -10 -243 0
-189 -762 860 0
236 931 -303 0
-356 394 -431 0
-704 -97 107 0
-258 235 -300 0
-799 -490 484 0
-825 -867 -335 0
435 638 188 0
166 794 38 0
-867 131 -874 0
493 656 746 0
-708 916 -978 0
828 195 663 0
304 985 534 0
-25 -906 317 0
-128 -406 66 0
-294 -255 -974 0
750 -186 722 0
246 -185 -809 0
-66 -648 -975 0
-462 76 -437 0
859 -687 -975 0
-119 -902 -801 0
-447 -285 423 0
577 -332 -334 0
782 902 -659 0
-84 73 -745 0
-440 -987 397 0
460 725 -982 0
-881 174 703 0
558 966 264 0
341 -953 69 0
-448 365 516 0
273 -741 893 0
-744 -233 -90 0
582 953 806 0
-900 957 325 0
-940 715 -57 0
-423 828 -602 0
-457 -884 975 0
553 358 -24 0
-348 -820 45 0
-594 -397 -983 0
484 964 -303 0
-855 742 -349 0
248 -143 837 0
756 26 684 0
-300 -369 -994 0
800 -139 -221 0
56 -391 902 0
206 -497 784 0
5 982 -80 0
-168 -385 -435 0
38 -845 26 0
916 -946 622 0
-519 -208 925 0
298 -186 -111 0
-197 996 320 0
260 763 -691 0
698 -664 345 0
-797 -961 -311 0
-351 98 457 0
-201 -508 647 0
-114 -752 -247 0
-862 330 100 0
-303 -304 -905 0
-180 877 -855 0
72 78 461 0
37 -524 -100 0
-778 -650 595 0
-747 427 -933 0
174 -59 -652 0
74 -597 969 0
406 -234 856 0
677 289 -201 0
308 -187 -247 0
723 -521 -142 0
-35 -343 -12 0
-755 -686 -574 0
881 -769 181 0
-625 426 142 0
311 -97 -84 0
182 -476 348 0
755 -530 -363 0
296 691 -479 0
356 -947 398 0
227 -807 -993 0
803 498 -997 0
962 529 -950 0
239 910 186 0
975 -930 -807 0
251 854 645 0
594 934 -34 0
-179 -47 569 0
640 553 438 0
423 -16 -100 0
-377 -508 -12 0
910 44 240 0
-486 583 856 0
592 551 -568 0
719 756 407 0
-38 -246 -411 0
603 -859 -953 0
-873 -762 751 0
-984 411 661 0
-689 -655 -146 0
664 602 -267 0
776 357 -858 0
406 -150 -415 0
-337 791 -558 0
-975 -970 -789 0
-714 384 -218 0
381 522 -916 0
-191 -873 -239 0
446 -856 -947 0
100 247 -872 0
201 -379 600 0
-439 -482 738 0
-85 501 -374 0
556 639 659 0
488 -222 -121 0
503 697 461 0
840 266 -779 0
-710 -949 -113 0
296 -128 404 0
-841 203 728 0
-673 -305 107 0
-706 -586 654 0
825 -253 -573 0
-664 538 870 0
-250 474 192 0
-104 -183 582 0
-863 96 32 0
39 -668 -911 0
841 -55 398 0
249 -682 -32 0
-960 816 -446 0
669 -315 710 0
903 -994 -636 0
982 52 -370 0
201 -314 -660 0
-704 625 18 0
684 -514 -450 0
223 -593 -614 0
-659 -516 -950 0
897 -889 -332 0
-917 -779 369 0
384 -577 -371 0
182 616 507 0
-137 -428 -851 0
-727 880 -522 0
994 97 523 0
281 -454 39 0
910 229 -180 0
-890 468 456 0
211 -242 31 0
394 -79 723 0
16 -71 -593 0
-449 -876 711 0
131 482 -70 0
997 782 350 0
-775 882 723 0
993 -399 -130 0
-556 -325 -316 0
448 649 -805 0
-474 -116 -515 0
831 292 -358 0
-648 865 815 0
791 -806 794 0
102 -485 -345 0
-780 -405 12 0
206 947 -506 0
-174 -641 306 0
-459 747 451 0
-704 977 170 0
-692 515 971 0
-752 346 -999 0
827 488 40 0
-483 897 38 0
782 202 -747 0
775 765 521 0
-245 -321 -17 0
-414 -924 -814 0
196 340 92 0
-546 -353 177 0
391 -410 576 0
-946 722 -291 0
462 319 -731 0
528 -220 -395 0
875 -683 686 0
564 -321 -731 0
510 458 -29 0
-97 709 -844 0
-279 750 -903 0
-481 -138 -995 0
-10 -131 -297 0
372 797 58 0
82 -311 214 0
-972 -810 -830 0
113 277 140 0
-167 203 -836 0
-10 -219 819 0
-858 820 -687 0
-8 -950 729 0
-370 -689 49 0
-142 318 396 0
175 -46 546 0
-486 390 871 0
192 26 -180 0
748 -776 -952 0
-173 21 -605 0
780 -610 891 0
-405 -392 -385 0
-184 131 684 0
701 588 -521 0
-517 481 -527 0
330 -580 270 0
312 198 -179 0
-930 962 440 0
900 134 698 0
772 -161 51 0
398 417 -547 0
-162 341 -726 0
-699 674 425 0
-496 -33 576 0
-453 -670 -601 0
776 -371 -921 0
-739 -741 150 0
-98 658 422 0
871 811 923 0
464 278 -845 0
168 444 -665 0
793 -973 -989 0
-865 420 563 0
-902 -837 -487 0
-213 -208 -839 0
135 9 -418 0
-480 749 859 0
-584 -665 248 0
973 327 -932 0
447 -130 459 0
-873 -347 801 0
-241 18 256 0
-889 -424 609 0
-261 -626 -681 0
-234 963 571 0
-882 572 -858 0
-209 -855 110 0
749 -340 -774 0
13 -561 192 0
419 -202 -229 0
-674 95 790 0
-674 995 615 0
303 -852 -387 0
689 -795 -454 0
-772 202 673 0
-297 875 -505 0
-369 -342 274 0
-438 583 295 0
562 -874 520 0
-499 15 -64 0
664 874 837 0
67 714 -314 0
-457 -502 376 0
334 980 617 0
-21 154 337 0
-117 217 -482 0
-140 936 572 0
738 -692 -460 0
807 -336 -860 0
-156 -990 722 0
-139 942 -623 0
-95 -763 -100 0
-943 -425 442 0
275 -170 772 0
-347 -835 933 0
732 122 -470 0
-554 769 -640 0
-526 -306 -833 0
-787 -826 406 0
644 -88 339 0
858 980 768 0
25 -471 -189 0
748 34 635 0
330 724 736 0
-977 -990 3 0
-659 563 -962 0
95 733 -209 0
183 -144 1 0
522 -578 397 0
-20 -365 353 0
-232 -975 -131 0
-323 752 38 0
-166 -232 -418 0
-467 319 -741 0
-867 -773 777 0
-126 805 -347 0
-464 410 -514 0
148 -317 -996 0
-289 496 -363 0
441 63 -439 0
-760 274 -818 0
-262 582 -78 0
-556 823 584 0
728 646 592 0
-473 -41 -604 0
-853 132 39 0
-459 39 621 0
42 792 794 0
-387 674 275 0
-503 409 -383 0
-85 759 -93 0
-144 546 294 0
964 -509 584 0
-489 -635 85 0
-281 967 522 0
-660 636 832 0
738 687 -906 0
972 -708 -469 0
-47 -870 721 0
-15 -195 -840 0
-642 630 187 0
-729 345 442 0
-873 383 -274 0
256 -495 740 0
44 -579 -200 0
129 879 -221 0
-311 -407 -146 0
934 192 -946 0
945 928 -890 0
988 784 -95 0
-196 798 -306 0
819 321 -43 0
680 654 481 0
149 194 -181 0
831 738 -551 0
155 156 -627 0
651 191 895 0
-922 -730 772 0
-697 773 -870 0
-373 157 -136 0
483 340 -417 0
410 655 -452 0
303 -183 838 0
706 411 31 0
-570 510 -140 0
871 146 560 0
-146 -307 -369 0
152 405 -221 0
-508 242 212 0
-419 535 50 0
387 369 931 0
-367 -286 8 0
943 351 842 0
-480 -731 -325 0
-625 197 -377 0
-167 49 -874 0
-546 -642 703 0
-929 890 -127 0
877 915 130 0
560 116 -285 0
706 -15 114 0
-86 -476 -97 0
-1 757 -61 0
422 190 355 0
738 649 -748 0
520 43 911 0
-896 -189 497 0
-696 -21 -783 0
-448 -427 705 0
105 -333 663 0
135 -58 410 0
-48 395 221 0
-281 513 384 0
786 681 -550 0
-616 -662 197 0
-61 81 452 0
136 522 691 0
-34 847 -894 0
-581 345 -186 0
558 406 -777 0
953 895 323 0
-703 -644 844 0
280 -591 -997 0
-964 -798 -549 0
724 473 -714 0
-981 927 -919 0
-201 432 995 0
279 -942 587 0
924 -518 -111 0
-467 -494 250 0
-451 -950 -201 0
168 -692 413 0
-447 621 263 0
876 544 -715 0
326 -101 545 0
-263 29 945 0
590 -367 699 0
59 4 -544 0
115 388 -385 0
121 844 -353 0
-221 303 19 0
-487 658 -652 0
-884 18 -864 0
405 876 -301 0
904 -121 738 0
-660 474 355 0
531 904 878 0
443 307 363 0
-571 972 -775 0
516 -816 113 0
-183 -951 -739 0
-320 385 483 0
96 192 -830 0
-704 -982 225 0
900 -204 293 0
-153 -681 820 0
-392 616 460 0
-702 466 -495 0
-441 -172 -574 0
-237 -350 748 0
49 -838 898 0
645 -904 -918 0
984 76 857 0
900 743 209 0
351 -722 970 0
-375 -72 -666 0
-97 -645 341 0
-852 -82 35 0
492 -614 -584 0
-661 330 -929 0
281 443 849 0
44 -502 869 0
582 -489 338 0
918 234 899 0
734 -738 -941 0
805 -8 -76 0
875 134 -860 0
151 -361 -741 0
638 -465 426 0
17 91 575 0
11 889 26 0
381 635 -596 0
751 -972 259 0
623 620 642 0
695 -390 -980 0
227 52 -508 0
163 -954 179 0
549 834 -229 0
-308 432 9 0
-377 -864 132 0
-768 895 362 0
841 300 -423 0
-906 -733 -869 0
-11 -774 -724 0
317 217 881 0
-235 -809 451 0
590 860 -426 0
-81 981 -617 0
-41 653 749 0
-642 707 978 0
794 -378 733 0
709 -847 506 0
-6 -85 -202 0
801 120 636 0
647 941 880 0
21 -820 -481 0
-253 -965 -49 0
-653 -918 -654 0
233 -759 -236 0
295 -500 135 0
-234 113 -980 0
-359 718 -503 0
-89 897 744 0
14 -489 279 0
-995 610 -341 0
983 -782 319 0
169 -57 -798 0
999 -155 475 0
899 483 529 0
-810 46 -2 0
511 -867 -778 0
817 346 316 0
959 -861 475 0
484 -692 551 0
-138 627 -801 0
536 184 356 0
-190 438 343 0
101 692 534 0
-71 -897 368 0
-915 -496 830 0
-905 -551 -833 0
905 638 723 0
433 -67 585 0
-364 737 629 0
-763 710 454 0
680 100 780 0
-167 -179 -769 0
-659 -385 -19 0
-990 514 -242 0
855 448 -369 0
-212 -303 -796 0
121 470 642 0
799 764 -743 0
121 335 -832 0
-681 -213 53 0
-607 -710 -614 0
-818 -14 -891 0
-748 -193 358 0
15 -692 721 0
361 -543 -495 0
687 -755 -422 0
-307 -238 -430 0
-428 -253 560 0
964 940 348 0
843 -71 273 0
44 472 -230 0
-595 948 -124 0
956 -595 839 0
95 220 396 0
690 -239 775 0
-540 -603 -148 0
-195 -716 -307 0
726 -947 -111 0
-404 391 -810 0
443 -496 730 0
-156 -140 -578 0
-13 -634 -19 0
854 801 206 0
-393 37 -768 0
-367 302 282 0
484 -519 -991 0
445 -246 59 0
-572 926 -747 0
576 398 137 0
-866 226 -994 0
916 -344 -535 0
599 874 -4 0
-200 520 830 0
-639 954 895 0
-879 -843 -331 0
-507 -778 -975 0
-69 -767 -455 0
606 638 -622 0
-606 -547 -791 0
-271 -653 594 0
-733 916 -991 0
82 602 551 0
-369 544 -244 0
-399 -430 285 0
288 -97 -604 0
-985 -414 828 0
-366 -899 683 0
836 -13 -613 0
946 632 -221 0
151 40 -959 0
-142 -299 196 0
-430 -177 296 0
-95 844 -964 0
-643 -628 -613 0
19 701 -836 0
-441 -127 -524 0
-172 968 -167 0
189 616 42 0
-264 594 -516 0
831 -271 951 0
121 247 316 0
478 865 875 0
846 248 -570 0
793 204 -450 0
37 -123 -931 0
931 -112 501 0
-571 -905 -24 0
640 -943 832 0
770 328 745 0
452 969 -797 0
754 -3 646 0
887 160 447 0
-735 930 -180 0
735 154 192 0
647 -858 142 0
-964 -764 18 0
997 239 -470 0
-576 179 -242 0
-774 198 -417 0
-470 859 519 0
-953 915 -70 0
431 963 925 0
904 -212 277 0
115 825 758 0
814 961 -955 0
-278 788 -139 0
879 727 45 0
28 140 118 0
-63 270 -586 0
-681 745 -721 0
475 -211 -581 0
-80 894 -15 0
-596 312 -597 0
-952 -171 -498 0
359 -847 266 0
-459 -474 666 0
743 -52 642 0
-372 -455 214 0
431 104 779 0
689 -360 -121 0
-402 843 -415 0
771 855 176 0
-153 24 -483 0
-418 -121 603 0
-438 -844 -928 0
314 581 -354 0
775 436 -999 0
-460 502 -529 0
822 365 69 0
-908 773 95 0
442 240 453 0
133 750 -706 0
362 -811 -38 0
521 463 892 0
714 -451 637 0
-700 736 -220 0
785 -174 572 0
-31 812 884 0
-660 -864 -644 0
-522 424 -544 0
-162 354 -88 0
-790 270 -859 0
-714 -650 911 0
567 770 255 0
620 -757 -624 0
-264 -683 209 0
-193 672 913 0
417 415 -443 0
860 777 698 0
-185 285 980 0
751 -535 989 0
-539 -215 865 0
508 -192 -548 0
130 -60 -699 0
699 -909 -173 0
395 805 -540 0
-70 844 317 0
-174 287 215 0
-918 563 -859 0
-498 688 6 0
-235 -144 471 0
264 -64 499 0
602 -549 161 0
-790 756 161 0
500 735 491 0
690 -662 58 0
161 -611 -473 0
-602 -926 -85 0
530 -208 688 0
-835 -857 -807 0
303 -406 -541 0
-822 50 672 0
-693 -359 -898 0
970 -643 701 0
-222 771 -19 0
-561 -153 718 0
-79 -809 205 0
732 -532 682 0
-494 -518 -704 0
-53 -410 13 0
-490 -512 -564 0
-771 -268 780 0
342 832 -99 0
149 -181 -791 0
-484 590 -32 0
326 781 396 0
-813 616 -978 0
373 78 622 0
168 474 -372 0
140 77 -852 0
-239 -778 322 0
747 -141 -495 0
-313 -35 -363 0
-780 996 348 0
438 174 -105 0
-308 268 -414 0
273 734 230 0
-319 -992 -745 0
977 664 -675 0
-188 -613 -68 0
172 -852 -260 0
-424 82 -158 0
812 -773 -858 0
195 -469 -928 0
-412 -611 -620 0
-658 122 834 0
-673 452 -957 0
-320 -988 -763 0
-434 889 583 0
469 563 -128 0
-926 -815 688 0
638 203 -295 0
305 351 990 0
628 -855 403 0
-117 -415 838 0
-724 509 13 0
-284 -203 657 0
-154 138 -372 0
237 -69 -544 0
488 279 338 0
-435 464 -33 0
-352 -338 497 0
249 548 21 0
-11 355 -925 0
164 -123 732 0
-950 -552 -54 0
198 762 -41 0
-730 -550 -206 0
-643 705 -341 0
832 192 -376 0
-531 -387 -383 0
-779 -87 -565 0
774 -816 -810 0
76 -886 25 0
-847 -766 463 0
-689 -62 22 0
-525 555 605 0
570 -95 658 0
857 -495 -827 0
-388 -2 580 0
-843 -200 149 0
-425 -319 -159 0
501 -81 -756 0
-112 436 -498 0
-993 -916 -11 0
-332 209 -324 0
932 543 217 0
-475 344 696 0
-974 -832 370 0
204 571 229 0
-255 -35 937 0
26 -74 -731 0
-258 -449 506 0
128 -25 -632 0
-895 -819 827 0
-50 -403 960 0
501 -877 880 0
-326 618 -318 0
928 -730 494 0
848 -376 -477 0
932 785 -741 0
-732 -140 886 0
907 28 -43 0
38 -253 -110 0
100 -767 -459 0
-577 1 -6 0
530 -462 977 0
550 725 -4 0
811 460 -95 0
943 225 446 0
326 525 422 0
488 219 -935 0
726 631 424 0
-221 449 260 0
-133 -393 648 0
-857 -286 23 0
-376 331 904 0
-920 -602 -577 0
-264 -598 -992 0
134 893 -15 0
796 224 -991 0
-609 84 -617 0
-438 311 -169 0
793 -959 4 0
-292 26 -162 0
-270 181 -102 0
813 -130 235 0
402 -865 64 0
-946 -1000 952 0
331 599 -246 0
322 -41 -63 0
-874 -472 714 0
457 -521 -205 0
802 -500 821 0
213 307 985 0
963 -62 -469 0
205 470 417 0
323 -230 -96 0
2 -280 277 0
464 550 -625 0
-676 39 -44 0
-47 -511 -62 0
-929 -942 -114 0
-209 840 -389 0
-848 816 -315 0
-15 -525 -917 0
-448 -200 -754 0
923 986 195 0
-96 232 869 0
962 -669 -377 0
679 333 418 0
-843 354 -794 0
-692 56 806 0
-870 -223 529 0
86 778 -942 0
933 508 -222 0
-715 -821 413 0
-179 299 -779 0
-912 484 -824 0
213 -792 -237 0
879 171 -297 0
396 343 -801 0
-682 -338 -856 0
-607 -196 17 0
186 -718 550 0
-326 727 652 0
-860 -914 883 0
511 160 -651 0
-455 -103 612 0
-649 -70 -501 0
-19 955 214 0
-122 -207 -383 0
-51 -295 -398 0
-65 957 -208 0
237 799 -945 0
-389 267 -380 0
-205 724 -620 0
-920 292 -357 0
-642 -724 194 0
382 859 775 0
624 188 -679 0
420 259 -614 0
899 -80 538 0
122 97 70 0
865 257 963 0
-369 718 583 0
-914 184 975 0
-482 -87 -189 0
-872 -121 681 0
161 460 807 0
901 -742 -861 0
86 741 621 0
230 -401 920 0
-126 148 333 0
473 -671 822 0
-574 909 -203 0
-643 -433 309 0
27 174 -862 0
811 352 -115 0
144 329 -470 0
551 -986 -367 0
372 865 426 0
-176 -694 -911 0
-447 -822 990 0
632 -134 182 0
293 972 145 0
92 704 -177 0
857 -792 407 0
831 126 674 0
922 -334 351 0
-552 87 -475 0
-314 703 -152 0
322 -251 162 0
867 328 -82 0
983 -198 -816 0
-952 -512 -350 0
-887 313 -327 0
442 -205 -460 0
285 379 -783 0
714 -137 -562 0
96 -172 -926 0
934 -949 -198 0
-405 -834 -422 0
79 -925 220 0
59 310 440 0
-826 -48 640 0
-317 843 -353 0
165 -6 848 0
-862 -466 368 0
787 761 -968 0
-46 -886 633 0
541 -826 250 0
53 -456 -769 0
547 597 -645 0
-471 -60 328 0
547 477 -29 0
-136 727 582 0
-240 -793 -638 0
353 125 -100 0
-476 753 -879 0
561 -339 -42 0
862 -912 -845 0
489 49 370 0
-905 -603 429 0
714 868 -253 0
-326 -386 -459 0
-272 -257 275 0
132 -420 -192 0
-575 -239 836 0
-52 -883 177 0
-234 473 -884 0
267 226 -140 0
424 -759 218 0
-435 -34 244 0
-939 -39 -847 0
-603 -390 -711 0
366 424 -473 0
943 840 773 0
-680 -546 950 0
-700 -45 201 0
-55 485 757 0
-621 982 -682 0
817 457 -484 0
556 -152 -474 0
98 350 -272 0
366 -663 469 0
-300 133 869 0
-775 484 594 0
102 -296 47 0
-264 669 -479 0
24 214 312 0
26 589 928 0
-275 -845 352 0
-999 -731 91 0
-205 546 -116 0
779 -324 636 0
-921 954 944 0
852 423 -165 0
-249 604 -524 0
283 -672 330 0
13 33 478 0
-846 566 623 0
156 71 814 0
-295 470 -508 0
-398 -296 -102 0
-289 -246 69 0
-373 -999 70 0
577 -794 -629 0
743 -924 -465 0
-893 -851 -515 0
-22 -786 166 0
-268 904 86 0
370 -311 15 0
411 124 -524 0
469 -118 -579 0
367 -405 334 0
24 -643 -846 0
129 -939 -720 0
628 -185 949 0
484 153 315 0
-849 -238 -913 0
-47 -807 347 0
434 997 -477 0
908 549 -423 0
396 -243 779 0
812 733 679 0
668 327 423 0
-874 696 316 0
394 -373 894 0
-365 408 -399 0
-830 207 939 0
271 440 263 0
206 -500 443 0
-559 967 990 0
660 123 918 0
719 549 -795 0
-144 470 981 0
-143 -943 106 0
247 -240 -764 0
408 -258 626 0
182 -509 515 0
-632 438 -164 0
681 507 405 0
740 -782 -300 0
-115 -928 25 0
631 -787 -901 0
74 640 -355 0
-926 25 798 0
-421 -406 -339 0
-14 644 718 0
813 -604 217 0
-275 1 -27 0
-535 -599 445 0
-287 655 -492 0
-32 267 235 0
390 -800 6 0
-72 703 922 0
-554 -835 244 0
738 -868 756 0
608 164 678 0
547 89 792 0
-191 -824 -92 0
132 263 374 0
4 -289 79 0
-281 608 103 0
671 -252 -253 0
-26 896 503 0
687 -853 -932 0
-722 -479 112 0
699 -136 228 0
-576 -41 -919 0
-504 915 26 0
-949 -535 -629 0
-76 447 11 0
912 -74 989 0
-189 -24 -636 0
-669 -195 802 0
343 16 -871 0
-449 -550 -257 0
-111 325 413 0
-472 884 -743 0
748 897 -736 0
38 -99 740 0
-63 584 -370 0
-906 326 907 0
-981 488 208 0
96 -895 -279 0
489 20 757 0
-991 450 651 0
85 -902 132 0
355 989 974 0
-444 -84 -360 0
379 31 686 0
780 974 857 0
-637 -102 48 0
899 -49 -762 0
765 -43 -159 0
703 -418 182 0
583 498 -661 0
-183 258 160 0
-52 716 208 0
984 961 -1 0
989 -342 -600 0
-604 836 13 0
-80 -804 -763 0
-938 861 717 0
-971 202 -189 0
385 -480 -123 0
-786 413 469 0
-343 -9 429 0
-526 401 -255 0
-750 -103 432 0
632 -962 774 0
298 591 619 0
842 139 898 0
-415 -918 88 0
-418 -317 -727 0
224 266 -112 0
551 -853 -502 0
-799 -879 -225 0
-523 -428 -788 0
-283 -939 462 0
160 633 176 0
586 -57 838 0
-278 500 -68 0
502 717 572 0
-944 805 313 0
155 148 -25 0
-815 836 741 0
307 578 -417 0
-766 494 -446 0
-527 794 90 0
750 349 -589 0
-64 -498 260 0
205 -716 227 0
543 445 830 0
-608 609 42 0
-599 -946 -458 0
-555 359 -437 0
-744 -949 810 0
636 -486 756 0
-870 788 -28 0
-105 -728 139 0
-788 -196 351 0
-950 -850 368 0
-946 586 -73 0
-991 -161 -592 0
693 630 235 0
794 -123 706 0
-429 -392 -298 0
-625 265 885 0
-227 354 -348 0
441 434 -349 0
52 -510 -94 0
261 -381 -181 0
-800 101 -481 0
-235 493 -101 0
-680 -812 651 0
178 -986 436 0
-594 914 938 0
429 765 -874 0
-868 892 838 0
932 -361 224 0
-197 239 -647 0
-64 -25 147 0
-621 549 -419 0
402 152 -467 0
-524 -898 -834 0
332 -407 351 0
-417 -14 -850 0
-607 -196 226 0
488 -111 -411 0
-383 902 84 0
-253 675 260 0
488 -778 -893 0
328 -792 959 0
297 440 -466 0
603 32 695 0
-61 273 413 0
-534 -958 547 0
-134 569 270 0
-904 -649 -311 0
529 -646 -144 0
-507 852 596 0
393 -108 -613 0
-790 -726 -411 0
-53 -12 -146 0
-661 -273 927 0
-725 973 -596 0
184 -22 -225 0
175 92 201 0
-457 -244 843 0
59 668 -88 0
271 94 -213 0
629 -818 -456 0
328 745 -197 0
-947 -296 -395 0
474 963 987 0
-153 204 578 0
-939 856 -602 0
-882 -967 -573 0
110 -382 158 0
916 -758 -958 0
-955 -885 -473 0
912 416 285 0
-450 -129 169 0
-153 -128 563 0
-835 167 -147 0
-152 -711 -341 0
-691 472 -57 0
-543 -946 28 0
-784 -969 51 0
696 959 273 0
-975 -254 374 0
544 -883 -266 0
-991 -928 -855 0
107 -6 -664 0
-341 -982 393 0
682 -232 -337 0
912 493 688 0
363 -444 219 0
295 918 -538 0
354 486 -726 0
545 134 317 0
924 104 535 0
505 672 513 0
-230 -297 -673 0
-515 510 607 0
-697 478 -125 0
988 119 -707 0
894 -611 -895 0
-387 -263 754 0
894 90 -29 0
-118 -607 769 0
494 708 -243 0
492 500 79 0
-207 -751 765 0
345 68 -754 0
437 -352 86 0
394 -815 831 0
-403 292 -311 0
122 568 -836 0
-369 390 -363 0
-470 -205 448 0
-490 181 142 0
-657 12 738 0
-50 908 773 0
198 -58 -678 0
667 183 950 0
-883 -241 -792 0
234 -535 620 0
883 521 918 0
401 -60 -902 0
-758 254 954 0
722 -215 372 0
402 -256 332 0
379 -114 -48 0
-493 913 475 0
162 534 -65 0
-252 -519 239 0
-459 920 -425 0
904 706 -710 0
728 202 420 0
-66 736 -972 0
-431 -570 421 0
-767 686 69 0
-106 413 316 0
4 -186 493 0
654 927 -323 0
221 765 290 0
-624 -809 -90 0
-425 958 -395 0
43 -976 284 0
-835 241 494 0
706 -394 -260 0
805 616 -469 0
-441 -56 -703 0
710 17 537 0
47 9 -266 0
-850 -866 -207 0
98 -609 678 0
579 -663 -14 0
974 333 876 0
-903 -723 -172 0
-294 -270 -536 0
-941 367 -130 0
120 357 -419 0
549 702 -474 0
-202 -780 -864 0
-428 -425 -169 0
324 -992 253 0
139 -606 -288 0
-346 121 751 0
-921 -998 205 0
588 -2 526 0
113 792 801 0
261 -61 -96 0
-973 -783 669 0
495 629 588 0
-977 -447 60 0
-419 -226 -141 0
-196 114 -754 0
651 135 -52 0
556 -865 -563 0
-885 -339 140 0
590 85 -885 0
-362 584 -62 0
68 -405 352 0
554 -364 -613 0
-39 277 -361 0
561 124 -219 0
870 -413 304 0
765 669 216 0
44 445 464 0
438 -750 146 0
-163 -699 -313 0
-518 252 -10 0
-805 734 559 0
-537 799 -130 0
-910 527 677 0
503 -979 531 0
18 313 188 0
151 -565 616 0
-338 -502 89 0
-578 17 -531 0
-561 -950 25 0
362 -579 97 0
510 -12 -88 0
561 526 10 0
-950 -935 -14 0
-733 -609 539 0
-95 -560 -137 0
-414 93 853 0
-754 -610 -523 0
-490 687 219 0
707 -680 367 0
813 -481 539 0
772 -759 892 0
-741 328 304 0
-700 -49 -463 0
348 461 -906 0
-654 689 998 0
521 53 -738 0
-145 539 -26 0
833 834 255 0
403 790 -13 0
329 -261 961 0
-629 -747 820 0
916 -878 -14 0
738 764 -489 0
126 687 408 0
266 52 116 0
-583 -893 689 0
-458 -39 -630 0
-636 630 682 0
837 -17 385 0
-177 -941 -636 0
143 -359 79 0
367 -681 -948 0
372 -155 -435 0
427 371 -73 0
124 742 619 0
849 102 -386 0
-56 -912 -334 0
539 887 -550 0
583 -700 -831 0
-84 -572 67 0
-236 -372 220 0
747 -707 102 0
-547 -227 732 0
-664 750 -81 0
-325 -938 755 0
-763 955 41 0
-383 108 -351 0
-609 109 75 0
-926 -138 229 0
397 -829 -161 0
868 104 766 0
-165 661 67 0
505 596 406 0
599 97 678 0
-14 -883 -140 0
790 -409 9 0
-771 -955 -754 0
724 -719 -611 0
-918 334 -116 0
454 745 -308 0
-542 -926 368 0
105 -104 511 0
-458 -866 -932 0
116 118 -888 0
-784 -588 755 0
904 -206 378 0
249 -474 -497 0
293 -226 -134 0
594 938 -277 0
-110 -757 -519 0
-617 810 -949 0
-281 587 -346 0
828 773 -33 0
287 238 -258 0
-45 -824 -697 0
286 351 -672 0
743 492 511 0
43 -960 987 0
792 750 394 0
250 325 -841 0
405 -357 -440 0
153 -559 780 0
41 -294 -743 0
-884 203 -505 0
-245 -135 -415 0
912 -765 -448 0
-609 -557 787 0
-408 -971 -57 0
111 95 -883 0
98 805 589 0
-680 231 944 0
-616 -685 340 0
806 131 856 0
553 -573 416 0
-446 743 -669 0
-562 421 -408 0
988 -533 636 0
-435 503 186 0
-675 -616 363 0
343 341 -203 0
-74 -940 -429 0
-947 -912 -79 0
-724 198 349 0
-676 265 491 0
111 823 368 0
-370 -140 586 0
262 -942 988 0
-965 -733 20 0
168 347 -425 0
-37 815 552 0
106 -73 82 0
138 571 -637 0
637 -256 18 0
755 -967 178 0
-358 379 457 0
-192 -639 570 0
547 -284 709 0
-726 -822 -903 0
-407 137 108 0
-422 954 825 0
922 -581 114 0
959 340 199 0
517 996 -395 0
578 684 250 0
-398 -253 -172 0
493 -850 509 0
163 -75 77 0
332 887 -329 0
-155 -945 694 0
-594 111 730 0
-124 -539 238 0
-824 -783 -859 0
-74 67 336 0
-784 -927 644 0
-81 42 -645 0
-555 666 -994 0
79 -15 -357 0
-151 -411 582 0
26 889 191 0
689 -9 -139 0
837 -500 357 0
812 -831 -365 0
-585 962 -564 0
833 -145 791 0
237 72 374 0
132 -920 345 0
-142 -371 776 0
67 -954 -483 0
969 -757 -359 0
-227 -502 876 0
354 371 -335 0
577 427 820 0
609 -577 863 0
-197 976 -582 0
521 914 -932 0
31 -46 -915 0
-919 53 -159 0
861 179 900 0
327 359 809 0
-425 -199 181 0
-121 -476 -919 0
-283 -327 852 0
867 -961 -669 0
-936 537 295 0
243 741 847 0
423 345 -745 0
-847 -143 65 0
781 -198 851 0
19 310 103 0
35 -497 942 0
-99 714 200 0
-256 515 562 0
-293 -495 -305 0
-166 -176 -932 0
340 -226 577 0
-585 -379 299 0
-377 -762 -192 0
513 507 -53 0
-843 -613 656 0
592 816 15 0
-833 -570 -750 0
364 -962 366 0
-189 190 617 0
302 35 -971 0
-349 -562 105 0
805 -271 -137 0
945 -443 -863 0
132 924 652 0
11 -357 498 0
-29 -789 -833 0
638 -168 100 0
170 322 518 0
596 -472 -10 0
-255 504 -100 0
-943 -648 -999 0
223 673 -698 0
-57 -998 320 0
-215 518 723 0
694 -280 -814 0
-373 236 -796 0
-52 -34 -494 0
512 676 289 0
152 -106 890 0
659 329 -289 0
670 429 -769 0
76 331 313 0
673 -28 -653 0
-30 -96 669 0
-309 884 518 0
-91 869 -936 0
-270 821 747 0
-661 -311 -200 0
-447 753 961 0
758 -368 -147 0
-824 179 790 0
-708 -656 -636 0
-492 -451 891 0
-728 -428 -851 0
-814 -158 -241 0
-551 -986 531 0
-517 -998 -407 0
-784 -693 333 0
-348 -448 -300 0
-289 122 260 0
-962 -268 -79 0
200 678 311 0
423 -406 535 0
-147 603 213 0
405 567 460 0
804 -555 -224 0
-712 -76 456 0
908 -209 -131 0
-108 134 282 0
-943 674 817 0
-46 617 -397 0
267 -149 74 0
625 302 -165 0
839 -964 -337 0
852 373 -100 0
-284 -914 666 0
713 -747 -445 0
-59 312 -15 0
-695 -481 -898 0
608 881 775 0
-646 -55 623 0
524 -474 -449 0
-986 -890 -560 0
806 246 -745 0
-940 130 -985 0
451 232 -447 0
-292 -521 -934 0
313 403 677 0
-504 -371 597 0
42 -231 108 0
131 866 -960 0
-81 -814 434 0
954 522 744 0
57 -648 -813 0
-34 -245 195 0
-930 -908 369 0
368 518 70 0
43 665 -236 0
-317 -208 907 0
451 -967 268 0
-43 167 -47 0
-965 -903 -331 0
987 -843 -792 0
220 90 745 0
-608 70 612 0
-474 -773 134 0
125 354 -990 0
-204 357 300 0
-320 -496 -901 0
-463 -132 -501 0
-369 301 -927 0
-263 985 -718 0
250 -283 29 0
405 -881 727 0
564 -91 -708 0
898 380 -202 0
959 619 253 0
-842 -996 391 0
-549 102 997 0
324 283 410 0
554 979 -726 0
-40 -991 -340 0
-590 -935 138 0
-715 -344 656 0
432 -74 -182 0
-15 337 651 0
332 15 -10 0
-715 663 -568 0
705 -566 -671 0
-544 112 252 0
267 829 -86 0
293 41 318 0
303 369 -127 0
-333 266 -214 0
811 -935 -148 0
541 -401 220 0
120 -331 -383 0
16 -191 1 0
-861 842 -686 0
857 -21 236 0
-621 9 50 0
382 793 954 0
414 424 290 0
862 -728 361 0
-213 68 55 0
-652 96 -539 0
679 -709 -118 0
905 -304 -671 0
364 289 361 0
1 139 918 0
611 720 112 0
-180 984 154 0
-585 17 84 0
-760 -551 -147 0
-105 -449 -1000 0
377 -532 -667 0
-165 -689 190 0
940 878 -231 0
954 -723 275 0
33 -159 270 0
73 260 280 0
-224 -420 480 0
-147 486 585 0
279 488 -501 0
-670 473 312 0
-479 507 -542 0
-31 446 89 0
-433 -398 -395 0
-21 680 -403 0
302 -533 -805 0
-78 -413 825 0
-314 269 -403 0
252 -958 298 0
-55 33 439 0
-878 -180 -961 0
369 833 830 0
319 -728 -545 0
-251 705 -932 0
794 -229 379 0
132 50 886 0
-172 97 678 0
-513 -177 41 0
450 -514 -78 0
16 -298 -664 0
-889 -917 627 0
963 -315 835 0
959 657 62 0
-701 774 101 0
-73 221 875 0
-978 208 794 0
22 -855 407 0
248 -192 -636 0
-57 441 -457 0
-819 901 105 0
613 -534 -739 0
-44 583 462 0
-329 960 -120 0
-250 -658 30 0
-138 -578 -705 0
546 -43 277 0
742 530 549 0
-587 189 477 0
137 616 273 0
316 -786 215 0
-4 -192 264 0
-45 -441 326 0
-96 248 -615 0
-535 -197 -74 0
-894 415 -734 0
-803 -172 811 0
162 -532 -296 0
923 -848 63 0
-510 -945 -71 0
640 877 87 0
50 -403 732 0
-306 -715 517 0
482 144 444 0
-650 -679 13 0
754 -593 286 0
596 -436 -600 0
885 -320 497 0
999 -212 -60 0
-957 103 732 0
-848 -917 149 0
-211 -164 764 0
-348 416 417 0
-391 -281 -912 0
-402 39 160 0
-893 775 846 0
814 622 153 0
742 -217 -45 0
700 -336 797 0
-911 485 -139 0
728 20 232 0
-883 -469 605 0
-437 745 -747 0
-753 365 -224 0
-893 -419 861 0
9 -410 752 0
-78 92 -814 0
-765 -424 -885 0
859 -533 150 0
-456 -887 498 0
21 699 749 0
46 -292 703 0
89 378 -851 0
-375 382 365 0
-538 639 -73 0
-937 565 -716 0
684 562 53 0
-553 673 -106 0
-393 -874 -22 0
-364 507 -534 0
623 -598 -127 0
-139 -837 701 0
-674 -749 273 0
92 -651 803 0
-747 339 -759 0
317 544 632 0
-805 201 -538 0
360 805 -598 0
140 -806 685 0
-283 -665 67 0
-660 608 -319 0
-728 699 912 0
59 573 -572 0
426 622 -110 0
-571 -416 315 0
331 -776 -420 0
66 470 168 0
-139 502 135 0
638 -894 -655 0
-321 -372 258 0
197 -542 71 0
797 985 381 0
-522 -589 -253 0
-764 109 213 0
-468 -334 -691 0
-607 -470 -801 0
584 156 349 0
83 -795 592 0
576 -339 106 0
828 -840 -452 0
-142 -104 -317 0
-341 328 -190 0
-361 287 321 0
487 -5 -876 0
-340 10 -194 0
124 103 -578 0
-928 -503 800 0
620 -478 859 0
912 387 -211 0
806 298 257 0
-839 -10 120 0
29 -407 -648 0
494 -519 -36 0
590 -824 227 0
10 523 -245 0
-605 -345 707 0
332 264 81 0
-999 831 808 0
886 -251 581 0
511 36 856 0
62 561 504 0
687 -416 465 0
-641 -643 96 0
-735 709 -505 0
-104 440 -16 0
-496 874 -927 0
-160 175 -223 0
416 242 -167 0
653 -989 87 0
-665 -679 43 0
270 -772 -728 0
216 790 -979 0
-15 -184 266 0
-727 918 926 0
239 -52 -868 0
-469 -889 377 0
-290 -209 -782 0
623 -967 348 0
-869 790 -724 0
-657 761 256 0
308 114 -995 0
801 -501 850 0
624 -438 -867 0
-200 259 596 0
-67 -221 451 0
-627 156 693 0
-461 483 478 0
917 -226 -968 0
359 526 -844 0
941 241 -832 0
-733 442 947 0
272 153 -295 0
-167 640 -3 0
721 -188 667 0
342 -256 -24 0
-243 -183 334 0
907 -89 135 0
-161 -687 787 0
-137 8 646 0
887 46 -791 0
-421 -840 -213 0
385 -357 148 0
-461 559 -358 0
-504 -276 987 0
42 955 -704 0
908 396 -896 0
620 86 -57 0
594 -34 -643 0
-326 461 538 0
512 -612 -233 0
-714 -296 778 0
843 -517 191 0
142 920 -879 0
366 -159 270 0
391 929 -479 0
35 358 -822 0
683 218 938 0
-821 414 -176 0
63 52 -956 0
-224 -638 80 0
43 496 266 0
560 168 550 0
945 -931 75 0
582 -673 -534 0
892 -40 135 0
813 -193 644 0
-743 -658 939 0
-865 209 -585 0
-758 -229 582 0
-330 393 996 0
198 56 -731 0
-501 559 822 0
942 486 582 0
486 591 302 0
-187 500 -647 0
597 -236 -699 0
-147 248 676 0
341 -99 -931 0
737 893 897 0
856 713 -369 0
968 875 -636 0
-918 756 447 0
-673 909 433 0
203 895 -219 0
820 -254 -760 0
-421 -455 282 0
652 765 -10 0
-641 663 -309 0
377 319 -705 0
486 328 -922 0
864 -60 -616 0
-928 -952 -804 0
-162 10 -531 0
-438 -191 271 0
-333 -805 -678 0
-117 -317 -692 0
-796 184 867 0
-592 185 -402 0
248 71 581 0
830 51 856 0
184 344 -406 0
-129 -941 -928 0
481 -25 801 0
-481 -58 -512 0
27 -172 -472 0
903 301 -860 0
-469 -999 -667 0
-903 -691 -909 0
-162 -266 352 0
525 -67 728 0
21 255 314 0
776 -944 707 0
-864 -75 944 0
-310 -506 649 0
-130 691 -381 0
-56 881 987 0
-562 -535 -792 0
-241 -853 -91 0
958 268 -982 0
-323 863 -676 0
238 -420 -298 0
281 82 -599 0
66 -946 -84 0
672 317 45 0
-219 381 580 0
-487 -366 960 0
-973 538 -776 0
-159 165 -481 0
80 -159 -996 0
878 827 567 0
-497 -369 -947 0
-310 -525 8 0
332 973 -462 0
7 962 393 0
-784 272 -742 0
570 872 -431 0
-804 681 912 0
-177 186 290 0
-148 -101 268 0
-715 930 993 0
377 -630 -350 0
-301 145 -188 0
-734 -657 -632 0
705 243 425 0
893 -644 919 0
-316 793 -181 0
-595 -344 -217 0
-129 814 533 0
-521 823 -284 0
519 264 630 0
866 -930 -559 0
-612 469 585 0
-883 301 725 0
391 -34 150 0
-233 660 -622 0
-994 10 964 0
-472 242 -517 0
-133 -704 -533 0
-897 -179 274 0
664 788 612 0
-337 -801 -788 0
-958 -431 493 0
672 -28 16 0
-274 -900 265 0
-463 447 -51 0
894 -716 -243 0
21 220 30 0
936 -724 -243 0
-675 872 822 0
123 873 6 0
-157 -331 -103 0
-602 56 679 0
539 -222 -271 0
-388 -885 756 0
-640 -929 -3 0
-143 -500 -551 0
-841 456 -717 0
-914 871 -721 0
831 -681 254 0
-852 578 -538 0
-549 241 -57 0
-306 557 -454 0
921 409 -608 0
-808 -825 867 0
996 -55 226 0
-335 265 972 0
452 -336 -811 0
942 868 -945 0
321 689 -951 0
157 583 209 0
400 849 194 0
-606 611 124 0
-984 4 -130 0
211 616 -894 0
146 675 -617 0
656 -710 80 0
492 593 -410 0
817 -124 244 0
-998 -893 -374 0
-240 420 -680 0
795 738 758 0
844 191 97 0
-435 24 -324 0
-753 -169 -878 0
-192 -242 666 0
543 -813 -243 0
148 -816 718 0
-752 938 16 0
195 -716 864 0
433 -965 251 0
874 -603 -843 0
-408 202 -633 0
-926 376 -356 0
-635 -291 -384 0
-658 864 513 0
-241 -147 -805 0
-641 288 234 0
480 -782 -689 0
212 210 -40 0
806 -189 -659 0
8 -347 929 0
-656 -148 -606 0
-835 576 1000 0
35 630 -533 0
-606 451 -960 0
57 130 373 0
-393 -790 -747 0
-380 82 -208 0
920 -223 -919 0
-150 563 763 0
-951 364 849 0
864 881 -791 0
-197 -231 865 0
-942 -710 696 0
-945 -718 798 0
370 94 -941 0
-972 -205 512 0
-216 -691 -512 0
-157 -359 26 0
150 936 -737 0
567 -583 -75 0
752 491 87 0
-230 -867 312 0
-823 503 -419 0
833 -787 457 0
-828 -151 318 0
-509 -72 -341 0
596 601 795 0
276 451 181 0
-325 -135 -773 0
19 -471 778 0
416 -182 697 0
-938 -703 -322 0
731 217 -626 0
887 -453 98 0
318 -67 258 0
-490 -149 112 0
886 867 -328 0
-609 -561 700 0
-758 -117 754 0
-362 -776 -337 0
-89 496 -93 0
-606 468 -222 0
689 317 -448 0
802 -123 -706 0
863 -598 490 0
587 -175 146 0
-329 291 831 0
-521 413 -737 0
875 817 971 0
693 -788 495 0
623 -960 -787 0
-936 -368 350 0
208 -965 315 0
-129 427 -890 0
-919 904 180 0
-692 -641 -223 0
465 -73 -955 0
168 793 -368 0
-20 -195 -156 0
-485 -237 -282 0
-179 588 -810 0
926 -603 934 0
585 111 -755 0
817 264 327 0
-258 97 -600 0
512 422 -973 0
-450 347 -56 0
352 948 621 0
88 -623 251 0
931 -301 46 0
-902 -913 985 0
461 984 -332 0
-336 615 -221 0
-635 -956 291 0
-162 -236 600 0
694 716 -532 0
-902 584 -637 0
-432 -47 83 0
14 -404 479 0
-173 -120 472 0
754 -984 425 0
463 -611 418 0
455 -564 133 0
582 -130 751 0
-732 -478 -997 0
-565 -960 -417 0
152 -802 -519 0
955 17 -510 0
-573 768 459 0
572 -216 -318 0
-155 -777 -641 0
-662 -396 59 0
688 916 -615 0
-766 808 614 0
196 -386 244 0
326 308 799 0
966 235 509 0
727 -198 -94 0
-910 549 684 0
996 -495 663 0
920 -283 214 0
260 391 542 0
-601 802 -962 0
300 611 -126 0
-499 316 362 0
963 722 -161 0
267 -748 794 0
-866 -851 597 0
-44 -426 973 0
994 -417 971 0
262 -497 394 0
-384 301 10 0
426 -776 -148 0
-223 611 416 0
200 -673 -27 0
927 910 -688 0
267 -656 -976 0
704 75 -37 0
474 -728 -862 0
-279 443 320 0
-161 -517 273 0
-404 470 254 0
-734 836 835 0
-2 842 -835 0
-11 679 -262 0
-49 343 655 0
202 471 330 0
-127 -893 -607 0
-524 -560 -118 0
-861 -654 -610 0
-651 -680 11 0
-64 299 792 0
168 597 618 0
452 -889 -709 0
-186 -144 -196 0
-263 513 841 0
118 -806 934 0
680 810 -123 0
-270 389 -222 0
-619 796 702 0
-213 817 18 0
346 -556 530 0
-437 -965 16 0
-980 -186 -471 0
604 -445 177 0
-647 187 -903 0
304 647 508 0
707 -758 345 0
745 -485 -540 0
-820 897 -212 0
369 -914 829 0
830 -791 862 0
-41 -920 336 0
-169 -673 -757 0
972 -524 841 0
-785 -753 298 0
-802 -271 -148 0
27 -984 456 0
-889 -473 -650 0
62 648 160 0
-498 434 921 0
-479 280 811 0
863 420 -707 0
-548 469 268 0
211 -512 410 0
380 -989 -774 0
693 -996 -904 0
404 -222 -654 0
687 -121 -768 0
-195 809 -938 0
928 108 -931 0
-687 -980 -819 0
145 51 480 0
665 789 358 0
950 -131 -975 0
751 899 -659 0
-772 -198 626 0
53 976 -175 0
267 420 -495 0
-539 762 181 0
-661 -531 716 0
-110 -327 -168 0
47 42 991 0
-675 -521 281 0
-496 996 309 0
59 -952 113 0
782 859 -742 0
-378 -50 -340 0
1000 627 -790 0
-95 942 159 0
-63 -532 907 0
762 616 -693 0
400 -22 691 0
-399 -661 -647 0
-733 -70 -339 0
-547 85 693 0
-711 -950 515 0
-670 421 -401 0
-542 385 -836 0
-867 -53 -29 0
-162 -249 -879 0
-17 238 -695 0
-493 744 -187 0
922 -336 -852 0
551 -789 -875 0
451 234 -824 0
-718 -543 237 0
655 -824 430 0
960 -623 -608 0
68 469 783 0
238 -291 759 0
264 912 51 0
-554 277 48 0
-369 -933 507 0
-509 38 -377 0
-104 841 466 0
356 -983 791 0
-578 568 -351 0
887 889 471 0
-108 -222 775 0
-145 -799 958 0
352 534 330 0
-278 218 -864 0
-518 88 -425 0
889 61 -47 0
684 -237 342 0
740 -908 225 0
156 -857 -788 0
-299 691 -61 0
-854 -79 -630 0
290 -32 -907 0
-290 591 506 0
-235 -985 -963 0
-297 910 758 0
653 746 238 0
-148 -969 290 0
64 -666 579 0
-344 470 248 0
-6 -169 454 0
381 898 698 0
448 953 340 0
-629 -831 -355 0
-314 189 13 0
988 -167 -187 0
-522 59 75 0
-37 -148 731 0
969 861 124 0
404 -831 -339 0
-203 843 -10 0
-976 -427 -907 0
933 -84 -288 0
71 -618 160 0
-700 -754 168 0
-824 -291 260 0
753 270 -948 0
654 -910 171 0
888 -683 872 0
-565 -910 -418 0
-845 -149 321 0
-665 308 -732 0
266 -670 122 0
293 -666 325 0
-725 -225 993 0
205 7 95 0
561 572 -828 0
-183 -729 -559 0
539 914 319 0
315 649 -295 0
232 -994 68 0
89 109 -956 0
374 -681 -775 0
883 -29 -785 0
488 517 -603 0
664 152 439 0
607 714 473 0
-721 68 381 0
685 -539 359 0
648 -704 885 0
-760 -140 -424 0
-846 -233 -650 0
-357 -428 956 0
530 907 83 0
-893 379 830 0
-979 957 952 0
114 273 797 0
-552 603 -711 0
578 575 -396 0
-92 -908 -366 0
197 309 -709 0
-21 -225 -944 0
-625 255 -266 0
-280 568 878 0
832 -541 -792 0
-604 958 615 0
360 756 -843 0
-915 -898 236 0
339 -20 732 0
-309 -851 -318 0
-956 -432 548 0
691 -622 173 0
317 -830 548 0
-956 898 -701 0
-341 877 -983 0
601 618 -727 0
267 -373 643 0
529 -478 -38 0
-919 -864 -824 0
37 -598 624 0
769 -182 -804 0
107 323 -642 0
389 -692 -903 0
271 -446 -108 0
-774 -12 372 0
487 -168 -57 0
-829 -959 884 0
-420 -225 -578 0
142 -345 -937 0
-729 629 728 0
-474 904 621 0
188 -794 -3 0
-591 952 611 0
-154 526 522 0
-646 338 -19 0
-785 -399 -761 0
-925 -883 -177 0
-716 623 201 0
967 254 629 0
266 558 -632 0
599 -916 892 0
-290 -931 44 0
724 -782 889 0
-687 986 364 0
-730 990 637 0
-298 -150 -871 0
92 -619 315 0
509 132 483 0
874 -553 -858 0
346 616 932 0
830 -553 189 0
295 826 -900 0
419 -188 -665 0
-263 -227 -870 0
404 -648 -165 0
-979 -284 -343 0
-659 406 -532 0
635 -240 -980 0
620 -835 343 0
-600 -160 72 0
321 423 997 0
811 -991 233 0
764 323 356 0
669 99 118 0
-113 893 82 0
-329 928 740 0
155 105 -22 0
619 537 411 0
377 731 -883 0
-978 -510 -985 0
879 30 246 0
24 528 823 0
-229 473 -349 0
459 -711 798 0
-233 -199 -850 0
-627 -182 801 0
-287 -701 462 0
589 128 -746 0
638 411 478 0
803 -742 40 0
934 687 590 0
786 367 -791 0
-590 -924 -936 0
-651 120 -123 0
-237 -100 598 0
375 779 659 0
-268 -462 -133 0
-62 493 395 0
-428 384 -179 0
-837 -688 971 0
-79 271 747 0
-548 50 -771 0
448 -349 619 0
-259 -241 39 0
406 -189 -675 0
-317 -171 767 0
514 607 -155 0
-383 226 647 0
179 -615 -886 0
-322 141 -963 0
287 -382 -680 0
48 -575 -278 0
-790 -735 -542 0
-897 -769 372 0
285 558 -876 0
-346 231 230 0
677 -281 184 0
-951 336 812 0
243 -547 -880 0
682 -256 833 0
471 -636 339 0
-403 -601 -464 0
-391 842 829 0
-671 289 106 0
-209 -274 -393 0
813 -357 -383 0
823 771 881 0
-392 784 368 0
-8 961 790 0
497 736 112 0
-838 -720 -99 0
-540 -500 -838 0
319 -1000 181 0
-421 506 716 0
-395 -311 168 0
871 52 532 0
358 -309 -227 0
728 -648 -22 0
573 -799 -52 0
308 544 -394 0
-471 -615 425 0
484 -894 876 0
958 908 292 0
251 -764 -154 0
78 80 671 0
-576 324 457 0
764 522 437 0
780 -948 345 0
264 879 -426 0
-733 510 455 0
-259 -797 831 0
990 -369 707 0
363 -361 240 0
961 -348 985 0
645 902 -3 0
-170 -529 -692 0
-405 208 -409 0
625 859 -125 0
434 -839 590 0
986 281 566 0
-12 -800 292 0
-966 -702 111 0
-482 -518 -396 0
-648 -672 661 0
-891 -798 -403 0
-183 703 30 0
-641 -692 -863 0
-707 943 -391 0
-914 -442 575 0
213 -422 -537 0
-872 -801 -365 0
859 842 -805 0
-746 -589 12 0
912 498 -15 0
-889 312 -552 0
48 -327 779 0
948 190 534 0
-123 -207 540 0
-844 396 -617 0
701 -846 -338 0
-551 372 595 0
-940 -897 -531 0
-443 -554 -911 0
615 -635 821 0
-336 -812 828 0
-353 135 -251 0
171 556 604 0
101 -187 -52 0
524 383 74 0
-277 231 -78 0
431 330 728 0
227 -863 -816 0
-523 760 -691 0
-349 -697 -479 0
-990 -334 277 0
-695 -103 -124 0
298 439 -395 0
373 385 -824 0
667 -381 983 0
-567 -415 -773 0
992 -89 -803 0
-224 -693 946 0
-277 792 -126 0
574 -762 -670 0
645 -101 -199 0
-977 902 -145 0
-286 -964 -553 0
-245 772 367 0
501 -695 713 0
802 -827 329 0
-114 457 -650 0
272 -661 -792 0
-658 494 -813 0
222 -155 209 0
-389 -322 -786 0
519 724 782 0
-882 633 554 0
466 546 591 0
-369 -994 -772 0
-974 371 -995 0
-802 442 561 0
-498 -369 -83 0
339 529 -807 0
-734 800 -976 0
864 -61 -92 0
-854 -706 203 0
-857 713 -893 0
115 33 6 0
-643 -158 -573 0
923 -477 -789 0
-744 -231 -549 0
-152 -851 -902 0
-719 821 -859 0
656 79 717 0
567 131 -423 0
54 956 -100 0
738 -760 -776 0
-630 245 282 0
-335 -462 -67 0
646 -989 513 0
261 -993 771 0
-78 -176 -595 0
-249 411 -659 0
-605 -172 -304 0
867 -721 -776 0
675 -141 96 0
-376 454 192 0
-955 -87 231 0
-239 264 -236 0
890 -960 -481 0
-622 926 -563 0
983 179 998 0
101 -467 353 0
-223 -892 192 0
146 -95 106 0
517 -533 -873 0
-71 187 403 0
-662 211 -106 0
-195 -448 -606 0
-225 -618 -159 0
-284 771 -393 0
930 -603 8 0
614 268 -394 0
-431 -739 608 0
556 276 -88 0
-33 199 -161 0
-749 509 -629 0
793 32 445 0
628 394 -399 0
-677 -207 -542 0
551 431 -452 0
416 -712 -366 0
-31 481 -733 0
713 961 -995 0
244 -237 -186 0
-374 -198 616 0
371 -643 29 0
20 -69 374 0
949 -521 215 0
967 501 984 0
-775 -358 563 0
-330 109 -520 0
-816 -778 -776 0
-225 -960 -367 0
-525 -214 -413 0
200 560 -698 0
710 -202 34 0
-168 -68 -58 0
462 486 688 0
-136 -620 -634 0
-413 286 -381 0
259 331 791 0
809 -637 863 0
645 963 285 0
181 237 -241 0
-120 -35 -670 0
583 710 986 0
-741 -518 -907 0
-708 532 -997 0
-492 -446 949 0
-474 -753 77 0
612 -615 -443 0
-772 322 866 0
892 145 818 0
-13 -693 933 0
-836 321 -984 0
-764 -10 929 0
-78 785 459 0
-751 -104 226 0
-688 364 -614 0
877 -499 -920 0
-756 794 884 0
762 792 934 0
336 -197 -83 0
469 -437 -414 0
-474 153 -305 0
622 -540 552 0
-174 -230 -853 0
-824 -359 481 0
-176 324 25 0
-6 257 37 0
-345 -647 90 0
981 674 975 0
786 725 -72 0
-772 223 -89 0
557 -635 -192 0
843 428 217 0
-830 -980 -908 0
-335 923 -384 0
516 957 157 0
89 -424 -574 0
247 375 -449 0
-961 756 -716 0
-97 484 34 0
-853 -448 -423 0
-50 206 512 0
-75 824 -385 0
134 535 382 0
-41 -735 109 0
150 426 415 0
1 -491 772 0
447 539 -606 0
-81 -642 -624 0
164 -405 -802 0
-294 -510 900 0
-862 237 -190 0
132 -702 -606 0
-401 -227 -237 0
134 56 205 0
703 716 188 0
936 -856 -444 0
-218 -648 -162 0
340 183 468 0
-870 246 -93 0
-880 586 -404 0
-262 -776 355 0
568 -128 -60 0
291 -516 674 0
283 430 -461 0
-762 104 -95 0
737 -309 375 0
618 284 -530 0
746 -605 905 0
-482 510 720 0
-616 94 981 0
168 -788 758 0
75 643 -408 0
477 939 964 0
398 594 -454 0
-352 -647 590 0
424 -576 -908 0
975 95 -668 0
997 998 872 0
-738 -605 332 0
84 -212 -431 0
-656 132 -275 0
-886 228 -207 0
915 -806 -335 0
-813 841 -110 0
-174 -939 740 0
-428 365 368 0
634 482 -876 0
-67 819 465 0
-864 717 -65 0
954 -359 -184 0
-847 659 839 0
-920 310 -934 0
110 -340 218 0
-381 -44 -260 0
-831 567 862 0
482 -631 148 0
291 -153 -74 0
877 706 -170 0
-702 -226 -614 0
-231 651 -567 0
757 -873 -721 0
586 464 690 0
423 -73 -252 0
-18 65 136 0
842 589 272 0
47 -92 -575 0
483 557 269 0
-755 -545 12 0
-83 -139 246 0
716 -812 87 0
295 -813 817 0
805 331 888 0
-910 -721 -507 0
-978 -365 278 0
119 202 462 0
570 13 118 0
-89 -905 929 0
-955 142 -570 0
-992 276 -595 0
564 -525 428 0
-873 737 -131 0
-727 -260 -369 0
311 -690 866 0
-614 -693 -824 0
554 -207 110 0
758 -712 504 0
-989 -136 203 0
446 -398 -302 0
-221 246 -666 0
107 -625 -14 0
-959 -399 593 0
70 -290 408 0
572 385 -269 0
354 -100 631 0
-87 -587 -963 0
628 -509 -428 0
-159 122 974 0
285 -750 -442 0
45 760 -943 0
-268 -900 -611 0
-989 -98 127 0
71 -638 -744 0
487 -464 -905 0
468 376 -721 0
397 -276 -990 0
-552 -685 -508 0
570 348 827 0
-251 -573 -366 0
26 -464 688 0
-465 557 690 0
-535 565 219 0
-940 893 790 0
-889 -793 155 0
-175 529 -271 0
-201 -73 -732 0
-271 -778 966 0
-200 724 -257 0
942 150 -851 0
-536 -495 -803 0
867 741 358 0
-222 -757 -488 0
-775 -627 -35 0
990 645 618 0
949 286 -997 0
-713 228 886 0
-594 988 867 0
-627 574 315 0
421 -232 134 0
582 94 -427 0
-716 -933 -967 0
263 -312 -248 0
-959 -67 412 0
-710 997 -730 0
-48 -176 924 0
-385 510 537 0
209 881 904 0
-981 -976 -992 0
554 -428 -523 0
-635 -966 -789 0
-355 -525 -607 0
495 -140 352 0
212 758 412 0
477 152 -526 0
732 798 -105 0
-948 -24 963 0
-331 583 436 0
235 534 -796 0
512 -126 -916 0
-306 109 -775 0
773 978 -811 0
-877 -158 191 0
164 617 534 0
785 -415 -14 0
195 20 -396 0
841 -668 -276 0
-117 -773 375 0
-957 437 91 0
-577 -745 210 0
33 -715 124 0
18 -57 -827 0
-867 874 60 0
987 83 -841 0
-318 442 139 0
-479 335 305 0
-758 182 -521 0
183 894 -279 0
419 -792 731 0
482 105 -961 0
710 779 539 0
-148 -185 -137 0
921 -73 318 0
-898 872 -207 0
-272 -224 -818 0
-343 370 -362 0
-670 -781 -207 0
-44 718 -483 0
-983 -225 629 0
-433 -998 -104 0
41 849 -179 0
937 -588 -809 0
737 -655 483 0
214 67 -869 0
353 -48 201 0
652 -720 -65 0
-87 -758 -567 0
-113 128 383 0
-138 135 742 0
-902 397 -801 0
584 722 775 0
115 -52 -497 0
-640 715 -840 0
63 409 -673 0
645 -833 -590 0
945 321 -570 0
-90 -177 -313 0
546 -26 -149 0
552 -42 629 0
-578 992 -119 0
141 516 -691 0
46 -482 -908 0
-431 -76 790 0
-330 -95 140 0
625 -473 -900 0
48 -673 157 0
305 -134 -219 0
-503 262 493 0
569 949 -248 0
-950 -601 -765 0
196 -598 243 0
724 905 -128 0
-769 -947 520 0
-800 287 -778 0
-304 -851 -30 0
-205 -396 380 0
-412 -339 744 0
-661 -822 -601 0
-986 -159 -572 0
-229 681 234 0
-642 -103 756 0
-261 -888 -455 0
-309 -148 -427 0
482 -471 -59 0
-353 -675 -425 0
938 905 -391 0
555 705 -487 0
938 -82 797 0
-962 764 -974 0
-260 -855 -751 0
227 -780 -547 0
-969 416 694 0
-124 -735 -931 0
864 -17 224 0
822 -30 -797 0
243 41 -939 0
-764 126 -632 0
-339 802 -241 0
604 47 537 0
-165 -436 -344 0
-182 632 -845 0
-22 330 621 0
147 968 23 0
624 279 714 0
-516 152 -531 0
646 -455 755 0
836 419 40 0
-590 652 -432 0
298 -430 -774 0
-169 70 961 0
-467 -473 947 0
-321 99 -840 0
-336 -777 393 0
-753 1 706 0
877 -100 555 0
-495 -257 475 0
317 252 -206 0
-760 -12 220 0
-374 937 -23 0
215 -500 433 0
-915 -349 -812 0
129 -318 -378 0
-604 33 131 0
648 608 258 0
971 -507 -287 0
-851 952 -635 0
-395 652 -825 0
-600 -14 162 0
710 -815 -849 0
-86 783 669 0
993 -537 614 0
-212 339 264 0
883 -294 -740 0
130 425 -567 0
3 43 -360 0
839 978 426 0
-645 543 -18 0
-621 -15 -228 0
793 219 804 0
350 -48 -534 0
-100 250 -930 0
572 524 62 0
-773 -247 775 0
-70 -841 447 0
-566 -30 238 0
14 469 237 0
544 -555 741 0
889 177 615 0
-758 905 169 0
59 430 42 0
744 -980 571 0
3 -304 300 0
1000 184 -871 0
-551 -175 951 0
-257 -784 -245 0
438 197 353 0
-68 -898 729 0
20 483 878 0
-622 -873 -414 0
-459 -69 503 0
-557 870 143 0
119 334 -581 0
-91 -887 -615 0
969 209 -581 0
436 415 586 0
648 -8 -252 0
240 -790 -363 0
-649 224 153 0
190 865 526 0
801 338 -584 0
-224 -882 -770 0
-834 -260 937 0
600 213 489 0
-314 -737 603 0
884 955 -652 0
-231 173 439 0
793 -491 838 0
-612 -717 211 0
387 959 -21 0
-441 353 897 0
183 -168 524 0
-29 377 -129 0
-202 -101 398 0
682 -777 1000 0
326 -242 143 0
82 696 479 0
936 163 -450 0
581 -928 -623 0
342 -998 -973 0
-573 676 -266 0
769 810 -544 0
-295 676 -864 0
-559 393 836 0
885 -197 -746 0
-246 386 411 0
720 743 -885 0
-96 -657 679 0
-714 -933 548 0
-498 621 -72 0
-369 321 386 0
762 -499 570 0
428 118 592 0
28 878 675 0
-55 385 220 0
344 329 515 0
-55 -419 956 0
-903 333 498 0
503 -824 93 0
-666 -426 885 0
-44 960 966 0
-808 726 -288 0
115 122 -84 0
-458 -992 574 0
23 426 215 0
-667 320 -101 0
281 454 -399 0
-21 538 762 0
-601 242 -511 0
-693 -471 938 0
-166 -878 295 0
670 -744 334 0
645 -101 -332 0
-83 -580 950 0
282 940 -292 0
926 -773 -682 0
605 -845 750 0
497 914 -657 0
-496 -930 -993 0
-653 -27 697 0
502 88 529 0
819 271 846 0
206 256 792 0
-138 789 23 0
231 207 -489 0
622 -207 365 0
-511 -601 -680 0
926 -293 -592 0
807 538 -789 0
819 600 316 0
818 851 -362 0
-615 121 54 0
1000 280 -975 0
340 -176 -713 0
-700 726 351 0
-534 341 -712 0
328 352 -242 0
-421 -46 -814 0
-266 -495 191 0
497 -634 436 0
-134 472 -261 0
-611 84 78 0
885 200 475 0
892 -278 226 0
-314 -957 953 0
455 -751 340 0
489 634 -81 0
-30 -314 522 0
224 -332 -552 0
-438 195 -68 0
-35 -982 -749 0
-367 -628 -701 0
485 -161 217 0
272 636 256 0
593 819 -534 0
-359 -202 957 0
-43 943 758 0
95 -776 976 0
90 87 759 0
669 -353 -410 0
208 -183 350 0
95 696 211 0
863 522 865 0
413 -674 936 0
-485 313 -325 0
-312 -732 -651 0
229 63 -677 0
889 56 -128 0
908 632 785 0
58 -385 -674 0
520 -9 981 0
-274 -686 619 0
235 -905 58 0
-959 388 751 0
372 272 -852 0
30 -623 -308 0
210 515 -428 0
-541 784 -817 0
-180 527 610 0
-447 -967 966 0
-319 583 -563 0
-123 -765 207 0
-364 801 47 0
-664 716 -249 0
-822 898 -478 0
-927 -797 -876 0
-301 -547 -422 0
734 -143 208 0
-195 -676 -48 0
-188 432 191 0
-398 931 29 0
-953 -116 959 0
333 -611 44 0
152 -449 470 0
-141 548 -555 0
878 306 -483 0
406 392 736 0
-530 -4 919 0
731 21 -761 0
980 411 675 0
-250 -499 -692 0
-346 -665 -45 0
-524 367 840 0
38 197 652 0
822 -528 106 0
336 -966 -938 0
361 -276 142 0
133 -790 -661 0
489 366 495 0
910 -873 -897 0
254 728 431 0
223 -50 973 0
545 -136 -729 0
331 -34 695 0
675 -35 -511 0
-350 -644 449 0
-534 306 -304 0
-525 689 -220 0
798 -357 -480 0
-865 765 397 0
121 4 -796 0
425 -186 741 0
970 -855 127 0
-977 -464 880 0
76 -746 407 0
-955 -477 406 0
477 984 -775 0
-854 -56 956 0
-941 -714 523 0
356 290 -918 0
413 865 -908 0
-134 -984 -944 0
-29 -41 737 0
-29 -346 -558 0
18 -180 -641 0
-948 -27 -360 0
260 722 176 0
169 697 134 0
547 -747 -514 0
56 -170 -717 0
-932 -510 -725 0
-426 -319 -620 0
20 -63 -754 0
-786 -615 -579 0
-746 -308 -425 0
32 -169 89 0
-722 219 146 0
-9 -88 -661 0
959 547 -846 0
-607 -33 -603 0
816 73 -669 0
-124 -377 10 0
-615 -892 -452 0
-203 771 738 0
860 656 973 0
543 -202 -851 0
-190 44 -771 0
-215 267 -153 0
-196 -703 -92 0
-593 -451 -329 0
-56 -782 -428 0
847 139 242 0
-577 692 367 0
-716 -278 -968 0
-800 148 754 0
288 184 -521 0
799 -62 747 0
-295 -535 -707 0
-182 242 703 0
-628 -877 113 0
-837 172 -27 0
-552 945 574 0
-581 660 -165 0
479 734 -384 0
921 262 25 0
-426 -434 140 0
585 -460 -206 0
-722 -945 -450 0
-312 53 -947 0
-681 -480 794 0
-753 452 264 0
-37 750 157 0
152 308 620 0
428 -135 127 0
164 223 261 0
-492 703 816 0
9 -565 -125 0
124 6 -624 0
-361 553 -816 0
-482 205 323 0
-293 -821 -244 0
-15 -181 -742 0
483 -833 -484 0
301 -662 -268 0
748 -337 -91 0
-328 711 -811 0
-743 28 -839 0
-259 806 -287 0
47 -749 -447 0
-955 301 -189 0
-647 302 482 0
-516 -322 -665 0
-213 -300 -381 0
505 -497 -735 0
-170 154 -381 0
285 -453 -518 0
-453 249 147 0
385 478 -491 0
729 -858 707 0
-516 333 -649 0
-305 -174 479 0
779 -837 245 0
-813 588 -562 0
-201 453 113 0
232 370 729 0
73 -999 664 0
63 -157 -212 0
547 925 180 0
558 272 342 0
53 416 21 0
579 -589 642 0
-72 167 936 0
-536 895 -384 0
-996 926 827 0
-483 174 339 0
-558 -948 961 0
783 -8 384 0
125 -82 491 0
384 261 157 0
-151 915 -767 0
-932 685 7 0
638 964 72 0
-909 -619 571 0
220 75 624 0
-966 638 -272 0
-832 -830 712 0
-878 397 -792 0
618 -914 -571 0
742 624 632 0
-526 -807 -796 0
-438 -854 -250 0
4 152 -995 0
138 643 -37 0
416 531 368 0
-527 -294 -438 0
367 990 -848 0
-612 -624 110 0
733 598 423 0
609 -931 299 0
726 -254 983 0
-173 -955 -967 0
945 544 -46 0
799 -558 523 0
312 -255 -464 0
127 424 909 0
104 -899 -385 0
-706 22 226 0
-523 783 -121 0
166 -535 -11 0
-701 16 -959 0
619 66 724 0
953 529 209 0
598 691 447 0
690 616 -864 0
-961 586 -976 0
-120 233 379 0
616 260 -846 0
-680 -133 -745 0
346 343 -929 0
-288 -640 352 0
456 -413 201 0
62 -834 -771 0
-408 -959 496 0
48 -549 -113 0
-937 496 -884 0
-514 -888 -560 0
169 -732 232 0
939 -277 223 0
664 -917 825 0
-840 926 322 0
475 -906 983 0
-603 48 94 0
80 929 -959 0
-272 622 582 0
905 -12 833 0
47 -500 554 0
119 -325 741 0
-655 631 -342 0
72 -675 -113 0
753 -447 -759 0
-496 466 714 0
-98 590 -791 0
-489 837 -610 0
-251 57 698 0
-785 -965 987 0
-327 -110 737 0
-341 -732 26 0
537 -190 -246 0
567 929 -249 0
726 -494 -977 0
903 368 246 0
622 262 -961 0
907 -129 421 0
762 59 -513 0
-806 356 -381 0
-864 -508 -855 0
-625 663 -227 0
468 93 -710 0
835 -891 351 0
807 793 -322 0
464 990 670 0
343 527 565 0
-325 -513 162 0
-911 -650 278 0
21 -889 702 0
-663 -374 81 0
467 717 -902 0
893 937 -959 0
-731 815 -384 0
720 -12 -178 0
481 768 -194 0
612 66 233 0
-638 366 402 0
-239 886 852 0
413 -231 -394 0
-309 463 -798 0
393 -560 438 0
856 -85 237 0
-622 802 879 0
590 68 -262 0
487 -873 -724 0
162 769 -763 0
273 -546 -957 0
497 -976 -732 0
724 912 -652 0
-367 454 -71 0
-505 858 866 0
556 686 -573 0
-825 -251 -297 0
384 477 357 0
824 -668 273 0
427 899 540 0
-672 623 313 0
255 624 985 0
-306 428 701 0
14 -916 366 0
403 168 -812 0
-354 -853 -706 0
542 -734 549 0
-139 917 -34 0
498 855 17 0
-471 -230 -953 0
420 -439 653 0
-634 -466 -788 0
-893 -489 937 0
936 -374 -6 0
-940 -737 -53 0
93 709 -941 0
-947 -298 -455 0
-422 616 90 0
814 -16 -169 0
471 532 653 0
-259 -447 -57 0
-73 -618 57 0
20 -829 607 0
-143 443 -966 0
-650 -156 795 0
-943 463 -713 0
-658 858 -50 0
384 -80 -402 0
-594 -19 322 0
606 -501 321 0
359 997 411 0
-524 -100 -101 0
-884 550 330 0
628 -448 -206 0
479 488 -998 0
308 -135 -52 0
14 710 185 0
353 -70 -282 0
753 -21 244 0
-603 -532 117 0
-526 -410 -500 0
-975 898 622 0
-938 338 989 0
151 -654 888 0
324 767 -243 0
-695 -350 -397 0
-884 -659 -515 0
-245 497 -411 0
-271 -927 -585 0
43 -854 -47 0
255 -225 465 0
-351 -335 -719 0
-231 -608 -737 0
155 12 579 0
117 -83 -547 0
-23 -899 545 0
-713 611 -472 0
56 -367 277 0
-388 -851 -348 0
-516 -757 -599 0
-323 533 176 0
850 -796 -797 0
208 901 -690 0
557 -97 655 0
-686 808 -374 0
764 50 699 0
-36 643 -107 0
-546 -947 -71 0
440 -876 -697 0
592 -313 679 0
1 17 -101 0
701 503 12 0
761 239 -7 0
363 -891 946 0
606 152 -40 0
-308 299 -426 0
29 43 -982 0
880 546 -730 0
336 -278 227 0
800 200 317 0
-698 430 -638 0
225 -258 -903 0
810 559 -208 0
550 -479 -475 0
886 -240 -275 0
-382 35 -85 0
-906 -942 -665 0
-608 -564 18 0
-706 -354 210 0
969 178 142 0
-553 529 -237 0
-700 897 945 0
639 933 437 0
355 593 261 0
-757 -880 137 0
151 -156 898 0
75 -752 225 0
605 414 -35 0
276 -917 345 0
-235 -431 740 0
679 748 389 0
759 -394 767 0
165 31 385 0
523 -955 -127 0
-613 183 926 0
910 326 601 0
-717 510 498 0
-16 699 -466 0
960 -913 442 0
-964 207 984 0
498 493 -37 0
-141 67 458 0
-674 241 238 0
120 -550 -767 0
161 288 -371 0
97 -532 713 0
-90 -107 739 0
-108 881 858 0
-378 -256 15 0
-24 -727 -143 0
-29 -883 -188 0
606 862 -540 0
-537 -410 -472 0
-539 -32 -959 0
-617 752 950 0
-657 -482 406 0
-410 301 -464 0
-579 359 -430 0
-494 -557 345 0
916 835 -345 0
288 -563 211 0
-280 131 -251 0
339 518 28 0
847 -199 31 0
-771 -548 665 0
746 197 -432 0
-371 -37 -300 0
966 610 -445 0
610 -481 -225 0
-970 -339 798 0
639 -170 -998 0
995 207 79 0
-601 794 513 0
-111 561 -23 0
301 290 119 0
59 840 -361 0
-878 755 -739 0
-11 279 -983 0
-822 -373 -532 0
-822 899 -593 0
222 527 -323 0
-361 590 642 0
-276 -456 -850 0
296 -696 -151 0
-806 -330 -703 0
993 -503 545 0
302 457 -959 0
-115 -322 168 0
-457 440 430 0
-409 896 443 0
111 -715 -995 0
-83 -907 -442 0
373 896 -543 0
-273 -216 384 0
-877 380 -938 0
136 -235 277 0
684 -220 -392 0
290 -662 -878 0
797 -716 -810 0
-441 741 984 0
-439 912 555 0
-286 698 841 0
37 185 569 0
221 -993 725 0
-987 -460 147 0
-731 548 395 0
-164 -692 878 0
-969 894 834 0
499 907 -433 0
-831 -686 578 0
-955 289 380 0
916 -939 653 0
-897 411 466 0
-691 -944 -167 0
681 -207 492 0
233 706 186 0
-917 650 684 0
310 -272 235 0
-691 80 -498 0
975 663 -785 0
-654 816 -658 0
-79 -683 -939 0
-646 -278 -851 0
124 -270 -784 0
524 -376 414 0
-246 792 -149 0
268 -633 92 0
915 822 -630 0
858 148 -37 0
-524 228 480 0
878 75 -132 0
