p cnf 200 630
-167 163 17 0
-89 112 -22 0
156 174 -33 0
147 -25 -1 0
82 -192 -147 0
-75 -193 22 0
195 -101 85 0
-159 -58 161 0
-113 110 -46 0
-44 68 185 0
-72 -171 -180 0
40 165 -141 0
-23 -103 -168 0
-57 79 -45 0
-127 165 -13 0
187 -90 -61 0
-168 -87 -75 0
-97 31 -181 0
94 -190 48 0
-135 -200 -31 0
180 131 -57 0
158 -127 80 0
-92 15 -123 0
157 121 -39 0
-89 -56 -74 0
178 181 -162 0
-168 -104 -150 0
-117 180 -105 0
26 117 -190 0
20 -181 -197 0
181 194 -178 0
68 32 -6 0
-52 -40 -198 0
-195 -102 -46 0
76 81 106 0
123 -171 136 0
-145 26 22 0
-46 -32 65 0
-94 68 -132 0
108 -119 17 0
-174 184 -197 0
95 -126 80 0
-40 -163 -136 0
-161 140 2 0
-15 94 45 0
-152 -42 -151 0
158 -63 111 0
104 153 -120 0
-75 -21 -11 0
31 -179 111 0
10 -42 -189 0
68 182 -149 0
-82 103 181 0
-169 -10 195 0
-71 -39 53 0
-50 -172 14 0
35 -192 167 0
188 84 190 0
-82 -165 100 0
-160 82 19 0
80 -99 -19 0
-162 -12 84 0
37 200 127 0
-11 184 36 0
-147 -92 -181 0
56 -178 -5 0
-53 84 189 0
77 -152 -123 0
-67 164 -73 0
102 -49 -180 0
-70 -176 127 0
-26 152 41 0
72 -35 -48 0
-147 189 -178 0
129 -51 -79 0
80 -77 94 0
-159 -182 -191 0
44 -120 166 0
114 -23 -200 0
114 -197 -22 0
-192 58 142 0
43 141 116 0
-20 69 -196 0
-107 13 -162 0
-177 72 -98 0
198 -23 92 0
89 66 171 0
158 -174 166 0
-13 -47 120 0
-58 163 -116 0
23 128 -164 0
-6 -33 199 0
-146 -60 133 0
197 -174 -38 0
-156 181 116 0
41 140 -44 0
-68 5 -193 0
17 3 -111 0
-45 -148 -33 0
90 -18 -72 0
131 29 -14 0
-36 -73 -133 0
91 153 21 0
-116 -157 95 0
-119 180 -107 0
-51 -112 105 0
-32 90 175 0
57 149 -34 0
82 -66 -137 0
-169 -23 -186 0
-72 -198 -171 0
-97 139 9 0
-134 -88 194 0
-98 197 -9 0
45 7 -78 0
-90 200 -92 0
44 191 13 0
-68 -57 127 0
42 137 -127 0
40 165 -198 0
8 -84 70 0
54 62 52 0
44 -185 -161 0
58 65 -36 0
-33 -182 -37 0
-52 -22 -20 0
-170 -112 -4 0
154 -141 -72 0
-181 76 98 0
-63 -102 -169 0
-39 100 58 0
83 -177 115 0
-197 193 96 0
10 -86 114 0
-114 188 -146 0
-193 112 114 0
-180 -78 -135 0
-57 -177 -172 0
-173 -195 147 0
-158 74 135 0
-137 169 -155 0
-176 -128 -180 0
58 89 -45 0
-117 113 -21 0
101 -9 30 0
150 -49 -53 0
45 69 -6 0
-146 103 -65 0
-31 60 -169 0
133 -187 66 0
-197 130 27 0
-159 174 -147 0
41 130 89 0
142 -162 58 0
138 200 -116 0
-63 11 176 0
38 120 -96 0
141 -156 123 0
-141 -197 -66 0
81 -139 138 0
-193 -111 -38 0
-9 -80 189 0
70 -162 -6 0
137 -69 186 0
58 76 -41 0
-92 -104 60 0
-60 -89 117 0
-166 84 4 0
102 -88 -131 0
-154 148 104 0
-140 186 91 0
139 111 188 0
-103 177 170 0
172 -45 69 0
173 12 -3 0
60 11 -65 0
-57 3 111 0
36 -40 -170 0
-58 -31 118 0
-35 -30 136 0
133 -44 50 0
-30 -89 32 0
-38 -40 106 0
126 -33 -158 0
-34 -59 78 0
-121 -179 -67 0
185 88 -124 0
-192 -113 -135 0
175 -159 -122 0
-129 6 50 0
164 29 13 0
188 -31 82 0
30 146 -13 0
60 -177 86 0
-74 -70 -90 0
162 -195 -155 0
-71 -174 -116 0
93 -33 -63 0
34 -63 94 0
-88 197 22 0
-107 60 -165 0
-87 200 -90 0
177 96 -143 0
180 74 -130 0
-9 190 -34 0
183 155 -185 0
163 39 -51 0
-162 -104 -80 0
100 20 114 0
-82 31 -196 0
194 -17 53 0
-110 13 -150 0
151 -57 -40 0
-170 -162 -148 0
-119 64 166 0
-124 -94 -56 0
124 -11 -137 0
184 -100 -94 0
62 -35 105 0
-93 81 137 0
-29 173 -196 0
-36 40 139 0
8 34 57 0
116 127 -169 0
-131 -105 -196 0
170 -83 -174 0
143 140 -141 0
-32 -173 98 0
135 -87 146 0
-49 140 -149 0
38 144 148 0
79 20 -67 0
-57 -167 159 0
-184 85 48 0
159 80 71 0
49 -132 -156 0
-148 -157 116 0
-84 -34 -135 0
86 -103 179 0
69 -4 -74 0
-77 39 115 0
-44 -141 37 0
-160 -151 68 0
-155 -58 198 0
-14 174 41 0
43 -146 8 0
145 54 60 0
182 -68 -88 0
-128 197 -109 0
82 -70 -149 0
-21 174 -63 0
-188 137 -12 0
119 65 -188 0
-39 -197 -74 0
-198 112 -11 0
-173 -76 48 0
-168 173 157 0
-140 -182 134 0
157 -71 113 0
-85 -91 187 0
-197 73 69 0
166 63 115 0
164 -158 -151 0
79 -186 175 0
-91 182 -187 0
40 -45 162 0
-151 38 31 0
117 184 -62 0
38 -119 105 0
-128 -151 157 0
43 56 -102 0
-188 -103 101 0
153 -20 15 0
38 34 -198 0
-160 -148 41 0
-94 -107 108 0
-39 -175 110 0
-8 -101 -30 0
79 -53 181 0
-4 -171 93 0
-86 48 197 0
48 -123 15 0
-73 -134 -16 0
191 86 23 0
-129 -64 -120 0
50 -64 -187 0
10 100 -67 0
-36 -80 -166 0
11 -32 55 0
-141 172 56 0
189 -44 -77 0
167 165 28 0
3 -64 -197 0
82 29 196 0
42 -91 121 0
199 -164 -42 0
-36 -65 -79 0
183 25 -141 0
-199 48 4 0
-169 103 97 0
-180 30 71 0
138 -110 6 0
-71 95 -32 0
-93 -131 95 0
-147 44 189 0
76 69 29 0
-90 -96 -151 0
177 -26 -98 0
197 46 -158 0
51 73 -103 0
64 -66 102 0
-197 -104 -40 0
67 197 199 0
108 134 -149 0
50 79 -132 0
59 151 -199 0
42 47 17 0
47 -104 198 0
171 155 -47 0
144 -46 -75 0
-57 -166 -40 0
-57 152 118 0
58 126 162 0
39 -145 37 0
-161 -19 173 0
131 -51 -83 0
-179 -39 -5 0
-197 96 82 0
197 -156 135 0
101 139 14 0
21 -195 117 0
6 39 106 0
104 12 -139 0
35 -114 181 0
-87 -97 -147 0
-93 -164 -131 0
-168 182 -77 0
185 170 22 0
-183 41 195 0
128 -39 -168 0
-32 2 -45 0
-191 -30 -18 0
-75 187 -131 0
-103 123 130 0
73 67 -99 0
63 -52 -70 0
-179 8 -171 0
-135 69 86 0
76 180 6 0
-36 -103 -167 0
143 -76 -139 0
-173 81 -193 0
-119 -68 72 0
145 14 31 0
-127 5 168 0
118 -72 103 0
134 -79 -137 0
69 192 73 0
81 -110 -174 0
-171 82 -135 0
-30 -151 150 0
161 -51 -155 0
165 -6 171 0
-184 128 14 0
-60 84 128 0
-57 -35 -132 0
-67 -127 19 0
98 67 -116 0
-68 -183 185 0
131 -32 -69 0
-22 66 -69 0
27 -154 129 0
-38 123 -191 0
35 172 106 0
159 170 -54 0
147 -65 128 0
-78 21 116 0
-6 132 -79 0
69 -90 195 0
94 184 -183 0
-181 198 -111 0
120 103 108 0
-103 59 147 0
-103 -162 -155 0
-191 153 -189 0
194 136 -149 0
-124 -18 -190 0
27 173 170 0
126 -45 56 0
68 41 4 0
104 68 -153 0
-66 52 -84 0
-123 -166 39 0
112 28 123 0
15 -82 198 0
120 -19 -87 0
84 -166 -15 0
-9 192 -43 0
30 132 26 0
-50 176 157 0
188 115 167 0
62 -38 -155 0
16 123 -135 0
-60 37 -121 0
-164 12 45 0
12 -139 -81 0
-143 -73 11 0
-178 -76 -158 0
41 149 145 0
-111 -74 175 0
115 -100 -64 0
-169 161 17 0
173 -62 92 0
183 -190 133 0
-86 77 105 0
-101 -61 -13 0
-140 168 66 0
120 -162 -37 0
-75 -148 -122 0
-50 116 24 0
170 -184 75 0
192 54 70 0
90 65 106 0
74 101 -178 0
-117 -71 -12 0
-156 182 -198 0
-115 -177 -117 0
-200 46 197 0
130 12 -3 0
36 -97 53 0
-95 -9 -142 0
-23 -178 -109 0
-73 38 123 0
89 61 199 0
-55 141 -166 0
160 -50 29 0
-101 102 1 0
-173 -125 -112 0
117 -16 115 0
111 113 -177 0
-94 -82 60 0
2 153 -58 0
-118 133 -10 0
-194 41 113 0
37 -108 -110 0
-197 126 -26 0
173 -129 124 0
1 8 -5 0
-188 200 -142 0
-6 161 126 0
-62 -48 24 0
-29 51 -90 0
62 -58 137 0
77 -12 -184 0
141 -125 78 0
-16 -200 177 0
-33 156 100 0
-102 -122 -176 0
141 166 -128 0
185 69 17 0
-179 13 65 0
-147 -39 170 0
48 -31 159 0
-112 -22 113 0
139 114 -14 0
-78 194 -48 0
-34 -106 15 0
14 80 -116 0
78 137 117 0
68 -14 161 0
-143 197 189 0
78 71 -176 0
-42 -52 137 0
44 -123 -27 0
-27 -97 -142 0
127 131 54 0
-130 -119 116 0
-61 -155 136 0
75 -145 91 0
110 93 -57 0
20 -172 -28 0
-46 152 -179 0
-73 21 156 0
47 170 -73 0
16 -116 -47 0
-53 169 -122 0
31 123 125 0
-103 -56 -190 0
-103 -37 -10 0
40 190 24 0
118 138 37 0
-138 65 -30 0
63 143 58 0
-54 197 -160 0
-120 64 140 0
129 123 149 0
115 9 37 0
-130 -117 154 0
126 -71 168 0
135 33 69 0
67 155 145 0
178 -78 -150 0
101 -174 66 0
135 -181 -172 0
-2 199 -52 0
15 200 115 0
-115 -197 -170 0
69 -185 -132 0
-31 -80 66 0
50 131 8 0
159 -141 49 0
-155 153 -178 0
-145 2 110 0
87 -115 -15 0
-75 154 69 0
-152 153 44 0
20 -44 -187 0
-77 -19 165 0
-32 -68 152 0
58 192 -59 0
150 1 -106 0
148 -74 1 0
97 171 83 0
175 -135 -161 0
-106 41 103 0
-105 -66 -188 0
32 -91 197 0
191 -35 4 0
-191 20 -180 0
-121 2 -85 0
110 -173 -117 0
150 -148 -114 0
-55 7 83 0
-86 144 199 0
20 27 182 0
-172 -15 -55 0
-132 103 161 0
-50 58 -168 0
183 109 -197 0
-150 -18 -128 0
56 -197 -86 0
101 -44 170 0
49 -4 72 0
-3 -14 103 0
-56 -135 -17 0
112 -173 130 0
120 193 -36 0
96 69 -68 0
155 -97 152 0
-140 -119 -101 0
127 63 194 0
189 72 -127 0
-163 63 -181 0
188 -58 -174 0
159 -136 37 0
-144 65 87 0
-39 -30 48 0
-9 115 -57 0
-29 172 -17 0
56 107 130 0
140 -70 93 0
168 -113 -81 0
107 170 -158 0
137 -94 53 0
195 -135 -145 0
20 -60 -67 0
194 -168 53 0
199 -197 127 0
35 -148 -78 0
-163 166 124 0
186 38 -120 0
-2 -10 -108 0
121 -22 126 0
49 86 -91 0
185 -103 -122 0
60 157 -177 0
-105 2 -35 0
117 12 113 0
-5 -175 107 0
187 102 -48 0
91 159 11 0
109 -178 61 0
-126 113 107 0
-27 93 -11 0
-22 -189 144 0
192 -133 101 0
-27 41 -127 0
-101 -137 -119 0
137 60 -5 0
-168 -4 -71 0
198 -43 84 0
-47 187 -75 0
156 -115 30 0
78 -4 65 0
106 13 91 0
-22 -16 151 0
96 141 182 0
-169 -178 83 0
-36 21 194 0
-123 5 10 0
-171 99 155 0
71 -78 118 0
-70 -159 -164 0
-40 -27 -86 0
-131 110 87 0
187 -79 -188 0
31 -96 4 0
-54 141 -109 0
48 -171 -81 0
-37 187 173 0
198 -11 -142 0
77 -99 -152 0
92 -47 165 0
-89 3 199 0
-59 -119 181 0
-177 162 -101 0
1 70 -133 0
-160 163 -79 0
115 -189 -150 0
-142 109 -49 0
52 -172 -79 0
27 -55 -57 0
-172 -102 -168 0
-4 -94 -179 0
151 89 -61 0
-18 156 120 0
-86 -169 98 0
170 81 -83 0
-101 198 2 0
183 -162 -92 0
