p cnf 200 630
92 -72 106 0
-160 -67 168 0
159 -77 107 0
-70 -167 -6 0
118 -34 -156 0
-92 12 -63 0
44 170 -48 0
89 54 -154 0
-38 -4 39 0
159 199 16 0
-170 -76 -143 0
-178 78 -77 0
-30 -187 75 0
111 43 -127 0
166 22 -134 0
88 104 29 0
-40 47 8 0
142 -68 35 0
138 -13 -110 0
5 199 -24 0
-52 -152 196 0
186 40 32 0
8 12 164 0
-168 155 192 0
183 -192 -116 0
-13 -20 199 0
-110 47 81 0
-101 67 89 0
54 70 191 0
142 166 -82 0
26 78 -159 0
-196 -107 143 0
-32 163 190 0
61 -135 153 0
27 188 -41 0
158 187 -40 0
-36 -114 162 0
85 -121 -50 0
172 -128 -144 0
-26 148 128 0
103 134 22 0
-166 182 199 0
-23 27 -56 0
140 -11 17 0
96 -21 -49 0
128 -43 129 0
-47 30 39 0
-84 -176 -125 0
4 -119 17 0
-161 108 140 0
184 105 -18 0
-179 -79 -59 0
194 -184 -61 0
144 -62 -162 0
174 153 -103 0
67 -14 110 0
-24 59 193 0
102 -178 -13 0
-61 165 92 0
2 34 119 0
-192 28 107 0
-136 39 169 0
80 -28 -48 0
11 -98 -93 0
-182 -104 -181 0
121 -190 97 0
99 191 44 0
133 -38 -125 0
83 -47 168 0
-197 -93 -5 0
25 -129 -29 0
31 -90 199 0
-81 -73 -1 0
-81 55 193 0
19 -149 104 0
-9 121 114 0
30 197 181 0
-42 -178 72 0
88 94 170 0
200 -180 -172 0
-162 88 141 0
-84 -46 -165 0
151 81 44 0
43 -91 93 0
-133 102 -76 0
193 -66 -178 0
185 47 26 0
58 169 -22 0
-81 155 16 0
-111 -105 -102 0
62 -28 -95 0
160 -163 -171 0
-139 119 -28 0
-16 -169 -82 0
-45 196 -191 0
85 -144 93 0
-43 -183 -41 0
-155 -68 -134 0
172 75 37 0
-42 -10 -102 0
-92 63 -20 0
-98 86 -23 0
59 90 37 0
44 -158 71 0
-171 -113 19 0
-46 193 -171 0
128 -195 -75 0
-44 53 -69 0
-43 -195 -79 0
-95 -195 -155 0
81 -91 31 0
-163 -49 -53 0
-185 -59 -140 0
173 -104 -44 0
192 189 -144 0
110 -154 -165 0
-171 -149 133 0
4 -31 88 0
184 -88 80 0
200 -94 -178 0
10 -84 26 0
-21 -38 112 0
-59 92 -31 0
-119 -103 157 0
-140 67 -14 0
115 -59 -74 0
159 199 -109 0
-95 9 -32 0
185 40 -182 0
187 -173 -123 0
-10 -87 -39 0
-88 -90 -57 0
-54 68 109 0
156 -97 172 0
-95 -80 -7 0
-138 62 -11 0
30 -13 -167 0
84 123 174 0
10 34 -104 0
125 -39 167 0
-190 105 -99 0
159 4 -30 0
-130 150 110 0
-43 -199 -3 0
23 -30 179 0
-169 142 120 0
-61 39 -111 0
-138 -14 -102 0
182 -153 -71 0
60 -85 102 0
-148 -153 18 0
63 54 -94 0
-168 13 -26 0
30 171 -140 0
-95 182 -179 0
-1 -199 -126 0
-170 -123 -172 0
134 116 91 0
132 -72 164 0
59 42 41 0
155 192 -71 0
197 -35 -54 0
23 38 -185 0
-51 33 -107 0
28 -131 -153 0
-174 -184 179 0
-47 -159 33 0
108 -62 -70 0
-174 -140 -91 0
136 85 195 0
-19 -27 -164 0
47 -179 -65 0
30 -198 -136 0
-122 54 -173 0
-149 -193 -191 0
105 -57 76 0
170 -64 -68 0
-138 -184 -197 0
103 -160 -30 0
3 -136 -18 0
137 -172 -146 0
-158 3 131 0
-25 19 -1 0
77 190 -193 0
-55 46 199 0
-162 62 117 0
174 -66 186 0
46 -185 37 0
-90 -2 73 0
-147 124 -52 0
-142 150 40 0
125 177 -117 0
33 -2 126 0
119 -7 110 0
-91 18 -197 0
-120 -7 134 0
-198 78 -96 0
-99 111 -18 0
13 61 51 0
131 -101 -146 0
99 -124 -84 0
-117 -141 -129 0
-143 -186 -41 0
-159 -127 73 0
91 -61 135 0
81 -130 -179 0
-120 177 -168 0
72 -54 144 0
33 152 -145 0
-145 123 198 0
111 -91 -86 0
-147 7 -53 0
2 -100 176 0
86 111 183 0
103 -24 89 0
-79 -50 130 0
-154 144 33 0
-174 86 -187 0
-46 -174 -69 0
24 44 -102 0
-32 -152 -197 0
-124 -25 43 0
170 133 60 0
-1 9 -176 0
-125 -144 -139 0
-41 118 -106 0
154 -36 21 0
-97 -124 164 0
194 -151 17 0
29 200 162 0
-92 -79 173 0
199 72 174 0
172 67 78 0
-14 32 -87 0
191 143 62 0
49 -113 110 0
-192 5 -19 0
56 -113 12 0
-127 -32 85 0
170 -96 126 0
19 -56 -165 0
111 138 112 0
-170 146 -100 0
22 -199 -58 0
-71 -84 79 0
-147 -91 199 0
-32 162 -102 0
66 78 -136 0
175 181 -86 0
-152 -167 -103 0
-141 170 58 0
-29 -110 -3 0
-168 -144 181 0
-182 -47 -36 0
164 -126 -51 0
-198 -39 -131 0
-150 47 -45 0
-113 197 138 0
20 80 200 0
-103 -119 -158 0
-163 75 -110 0
49 25 -60 0
-95 183 -20 0
-27 -20 67 0
-147 18 -78 0
-167 -168 -23 0
119 -43 -34 0
-9 -138 -3 0
129 -139 193 0
37 2 -199 0
150 -189 -62 0
200 -180 6 0
8 -190 -71 0
-133 118 88 0
-136 10 -169 0
-73 -177 167 0
108 -170 -27 0
-27 72 22 0
96 -87 94 0
129 -56 -30 0
-116 159 -130 0
-105 44 -9 0
-166 63 -182 0
67 60 -13 0
-93 -94 199 0
171 -111 199 0
197 103 -151 0
15 -136 67 0
139 50 -66 0
-113 -59 -58 0
-87 48 56 0
110 -149 -48 0
-164 -59 33 0
109 -150 173 0
-73 -89 -12 0
-130 107 138 0
-75 160 -47 0
111 -128 2 0
-193 -88 69 0
-52 114 196 0
-115 46 -84 0
75 -197 -38 0
-86 -62 136 0
197 -164 -36 0
-37 79 133 0
6 -53 -99 0
34 -69 -199 0
60 -127 -148 0
88 -56 12 0
-182 31 88 0
-68 -166 172 0
96 -179 167 0
-17 105 96 0
85 126 164 0
-193 140 55 0
-81 186 -198 0
77 31 -78 0
158 78 173 0
25 77 -155 0
133 76 -99 0
68 50 -101 0
-47 -61 9 0
37 157 87 0
34 -17 182 0
-73 136 -168 0
123 -131 -179 0
-126 -76 137 0
69 8 -116 0
170 189 -88 0
10 -94 -81 0
180 -72 -37 0
-49 -128 -17 0
40 -57 -182 0
-175 -59 75 0
61 -89 38 0
31 157 33 0
156 -172 -143 0
-139 -191 27 0
-103 59 2 0
-137 -119 52 0
69 -46 137 0
-148 -141 134 0
-100 30 113 0
-164 -192 66 0
176 101 -35 0
-2 -144 121 0
190 -13 -7 0
91 -68 -61 0
26 59 23 0
-91 -168 183 0
192 -99 -86 0
38 -122 111 0
-39 17 192 0
27 1 37 0
18 -14 189 0
87 -104 -74 0
-140 4 -105 0
98 -181 90 0
38 8 -192 0
-10 -100 -101 0
-183 -60 70 0
22 -45 -71 0
-82 23 -145 0
4 -124 -49 0
181 144 -42 0
35 -167 -22 0
-127 93 -6 0
21 -10 -171 0
-24 127 134 0
82 -94 -158 0
173 58 76 0
140 166 131 0
140 10 101 0
43 -161 -97 0
131 -11 15 0
-141 -179 163 0
-48 117 -78 0
192 12 -167 0
19 4 142 0
-57 69 198 0
-42 18 -15 0
-99 -87 91 0
138 171 199 0
-7 94 73 0
182 68 -141 0
78 -2 161 0
175 111 -171 0
90 -125 105 0
82 36 51 0
166 115 -40 0
-173 75 118 0
-2 147 49 0
-115 -2 111 0
-153 122 124 0
-69 -147 194 0
54 -137 -69 0
131 87 7 0
-167 -7 194 0
174 190 -84 0
-166 88 -172 0
84 1 -159 0
-72 4 38 0
-53 -197 -122 0
105 29 139 0
153 106 144 0
-40 -196 -13 0
134 -90 -127 0
-97 66 29 0
141 -190 -58 0
-2 166 168 0
198 143 57 0
117 172 131 0
-172 79 89 0
39 184 -126 0
-5 -146 54 0
131 10 -91 0
-87 168 169 0
84 80 -194 0
106 -23 -178 0
51 60 -12 0
77 30 109 0
142 -70 118 0
123 -47 124 0
151 -116 18 0
132 74 122 0
-167 180 153 0
73 194 192 0
-149 20 -129 0
-9 -130 69 0
-118 -72 77 0
10 -109 94 0
-166 -185 119 0
-17 -160 -105 0
-99 -72 114 0
-145 52 136 0
-81 -148 197 0
-138 -14 -58 0
173 -22 -84 0
-186 150 10 0
96 102 -148 0
174 50 169 0
30 -79 -153 0
78 52 -173 0
-88 -101 45 0
100 -112 15 0
59 -101 -31 0
-94 -98 -155 0
-13 -144 82 0
-5 -46 -11 0
-168 164 130 0
190 -146 110 0
101 68 -95 0
93 -136 38 0
186 -123 80 0
182 95 150 0
26 -11 -12 0
109 88 -5 0
197 -158 -32 0
-18 189 -175 0
44 -58 -87 0
182 -192 198 0
-181 116 200 0
-26 81 163 0
-90 42 -169 0
-127 -94 190 0
51 9 106 0
-55 -112 200 0
88 71 -12 0
158 -68 -91 0
150 -179 61 0
149 -95 -80 0
-187 -67 -149 0
-52 86 185 0
-52 31 176 0
34 -30 86 0
-55 -121 131 0
-34 -21 63 0
-42 -154 -160 0
61 -11 103 0
161 102 51 0
-113 -90 -142 0
56 157 68 0
-128 -56 -46 0
12 -177 180 0
6 48 -43 0
-89 3 125 0
139 92 -33 0
-96 178 -170 0
-32 103 -52 0
30 -54 -32 0
-190 39 137 0
13 114 162 0
-23 -132 145 0
-108 -157 107 0
9 -91 -112 0
-147 -25 -137 0
-65 -20 69 0
-42 -129 123 0
66 46 68 0
98 -47 -85 0
198 -63 -172 0
-13 -138 -112 0
86 174 -20 0
-84 33 148 0
118 126 -111 0
6 4 179 0
133 24 199 0
75 135 66 0
88 78 95 0
-10 169 -147 0
109 173 24 0
138 68 114 0
186 103 -7 0
39 29 -89 0
-28 -177 13 0
183 -105 131 0
-192 165 -141 0
168 -176 -144 0
98 177 173 0
-116 57 129 0
173 6 -127 0
156 -75 -150 0
-175 90 156 0
148 23 -12 0
-26 126 161 0
-167 166 30 0
-151 150 195 0
-32 122 110 0
54 -142 -188 0
143 151 -167 0
-155 86 -17 0
-134 -197 127 0
-49 -176 -151 0
86 152 -109 0
75 -192 -189 0
-187 -135 -1 0
126 66 131 0
16 -153 -165 0
32 -6 -93 0
5 -113 -35 0
-80 -1 4 0
121 -165 17 0
195 -178 -173 0
20 146 166 0
55 36 17 0
34 151 -196 0
197 125 -92 0
84 -24 40 0
21 -38 -78 0
-144 79 23 0
58 -111 91 0
-170 130 88 0
98 116 68 0
171 175 90 0
70 -11 -197 0
-151 -174 66 0
-77 47 -161 0
114 113 181 0
-100 -61 -53 0
166 -91 182 0
83 -98 61 0
112 -187 -50 0
-79 163 129 0
-156 11 141 0
-49 -158 118 0
4 -7 -8 0
-63 -111 -185 0
2 29 78 0
-59 94 -85 0
45 -11 -29 0
63 -8 6 0
175 38 72 0
162 175 -105 0
13 -197 -8 0
-145 -87 -74 0
-174 -72 -41 0
21 28 -3 0
-27 -37 147 0
-175 157 -3 0
-88 118 31 0
17 181 53 0
-198 103 140 0
161 -60 105 0
-72 -22 122 0
40 92 87 0
-4 112 -30 0
161 -75 -116 0
-150 -170 -97 0
143 9 -133 0
-45 153 -126 0
-165 41 -147 0
62 -152 198 0
-91 -198 -21 0
-83 -30 24 0
-151 174 -160 0
-92 -96 -199 0
-160 -41 -133 0
-7 -146 17 0
108 -179 -182 0
141 24 -181 0
129 115 122 0
-197 -14 -139 0
-108 -81 -24 0
-58 -167 -51 0
73 -45 -175 0
-34 57 5 0
160 -14 -49 0
174 92 -104 0
-190 -104 -180 0
95 -155 -156 0
165 131 -48 0
-72 130 -127 0
-72 -2 64 0
-23 122 77 0
-101 -168 -62 0
84 128 48 0
119 -51 -83 0
-175 192 -111 0
15 -84 -126 0
88 -22 143 0
-184 -145 70 0
-182 -115 12 0
1 -138 -54 0
-182 180 -65 0
176 185 112 0
31 -132 80 0
70 -154 72 0
-156 -20 185 0
87 -95 30 0
-162 -137 -127 0
