p cnf 200 630
-97 -171 -99 0
-22 -43 -87 0
-28 -196 -158 0
96 -13 -128 0
-125 -20 192 0
-132 112 -82 0
-132 182 37 0
27 97 107 0
27 21 -88 0
-68 -18 -118 0
149 -152 58 0
-128 -125 101 0
75 80 -79 0
-194 -144 -121 0
150 -176 198 0
-91 -3 -145 0
-35 -42 37 0
178 46 109 0
143 -11 153 0
51 10 -4 0
-58 172 129 0
-17 -97 105 0
71 175 -156 0
-21 122 -187 0
-112 -117 -139 0
-121 29 -145 0
-153 183 142 0
54 -107 175 0
141 176 -68 0
22 133 36 0
15 -4 77 0
-12 183 -96 0
-193 19 140 0
159 5 177 0
157 -150 -146 0
-121 68 -42 0
-151 34 85 0
111 -156 86 0
-56 -45 89 0
-147 -69 97 0
-16 -107 119 0
-124 22 54 0
-69 -66 141 0
-138 -154 82 0
-119 -81 11 0
108 -143 -121 0
-21 94 -135 0
98 -134 -45 0
119 136 82 0
182 -197 170 0
127 116 -74 0
111 71 109 0
-93 -192 -199 0
-82 -154 97 0
129 40 -44 0
141 -131 -55 0
176 2 -103 0
110 125 -67 0
-92 -34 123 0
108 -195 -137 0
-139 -72 -75 0
-177 185 196 0
175 -38 -28 0
-37 115 -1 0
116 121 35 0
-141 -80 157 0
-24 -197 108 0
-144 -157 -17 0
94 19 101 0
-165 28 44 0
-7 -164 -3 0
91 37 38 0
-189 -116 -138 0
-157 -54 -55 0
-197 -94 -190 0
-48 11 -40 0
128 -87 15 0
101 -193 -151 0
-43 128 -117 0
-176 96 -158 0
-179 170 -133 0
195 167 -95 0
-115 -140 123 0
59 -131 44 0
130 83 115 0
-111 152 -15 0
152 191 -147 0
-41 52 -73 0
-4 -42 -102 0
122 -59 29 0
-166 -90 -147 0
-123 -35 -197 0
176 -198 -15 0
-129 -33 -65 0
119 -35 -156 0
-16 -83 170 0
-5 190 79 0
13 32 97 0
-116 73 46 0
42 188 39 0
-127 -151 27 0
-99 62 116 0
66 -67 93 0
-145 159 59 0
123 86 -77 0
-95 6 -192 0
-189 195 193 0
-174 -165 124 0
-65 -45 192 0
-137 -164 -176 0
-137 -174 134 0
-14 -173 -164 0
-122 -171 56 0
161 129 -13 0
-167 91 99 0
156 52 -35 0
-93 -12 18 0
121 74 -45 0
-178 -57 49 0
47 -131 166 0
-187 81 193 0
154 -97 -25 0
134 84 149 0
-181 70 61 0
-84 -98 112 0
69 -155 186 0
55 -52 28 0
-97 -73 155 0
25 182 193 0
-146 -190 112 0
103 125 -141 0
25 -101 48 0
-178 -113 128 0
-125 145 -94 0
108 131 117 0
57 -22 -144 0
-18 62 159 0
105 34 -64 0
140 101 198 0
-35 -171 -149 0
75 24 -55 0
-34 -24 -69 0
3 -132 -168 0
-109 78 -193 0
-165 70 -114 0
-64 -35 106 0
50 135 111 0
9 -89 199 0
-24 -82 63 0
-137 133 196 0
123 -160 155 0
-199 -20 -156 0
-41 185 -195 0
-47 32 149 0
122 103 -178 0
-135 -101 150 0
30 -180 93 0
-61 -178 -113 0
94 -71 -182 0
40 -15 85 0
8 103 -199 0
-42 63 -106 0
-3 115 -122 0
16 -128 -191 0
139 -170 48 0
36 144 -153 0
139 -43 -162 0
32 156 -194 0
-90 178 89 0
18 76 110 0
-92 -185 -126 0
-13 153 -177 0
67 94 114 0
112 -50 157 0
115 179 -26 0
-118 -100 61 0
-151 126 -6 0
-52 13 57 0
40 159 90 0
87 -185 30 0
111 98 26 0
-191 59 -172 0
-63 158 -24 0
-21 160 180 0
-83 -177 88 0
-69 -177 124 0
124 200 -186 0
-5 -133 -16 0
-191 39 -77 0
74 -159 -99 0
-163 -32 61 0
-103 58 57 0
69 -80 -132 0
-3 -171 -13 0
104 -80 57 0
7 -179 -160 0
78 -181 -153 0
-67 126 -132 0
78 88 -74 0
-65 137 111 0
118 94 139 0
-95 162 -97 0
142 80 -10 0
-83 -181 196 0
-60 -24 2 0
172 82 -194 0
57 -192 -193 0
-47 155 135 0
59 161 66 0
-114 -50 67 0
79 -66 -94 0
-101 -4 -196 0
-155 -170 31 0
134 -132 109 0
62 -24 147 0
-44 15 -78 0
189 -151 -13 0
-90 135 -119 0
-24 1 149 0
-133 -180 45 0
-192 -75 -84 0
-38 4 -122 0
-29 35 172 0
15 133 -71 0
-106 -147 199 0
190 8 -23 0
-90 -40 183 0
88 99 174 0
131 -2 -40 0
-141 163 -180 0
59 84 34 0
117 63 -120 0
161 -91 -176 0
56 -180 13 0
82 183 191 0
113 -99 -104 0
-8 75 -64 0
-122 -101 -7 0
45 111 -14 0
-55 -77 -60 0
-67 -25 -74 0
95 -162 -121 0
-145 53 129 0
-23 49 116 0
-163 60 149 0
117 152 -82 0
124 -134 144 0
-64 101 -39 0
-68 113 -96 0
107 -172 173 0
-72 52 -47 0
-194 53 -105 0
-33 92 199 0
-183 -175 12 0
37 184 -152 0
-58 60 -197 0
8 39 44 0
176 -78 142 0
-140 73 31 0
-3 19 22 0
-57 191 111 0
-105 -88 -58 0
12 -41 -161 0
138 37 198 0
-91 -16 189 0
-43 134 15 0
-93 87 193 0
182 -7 -157 0
174 18 -93 0
49 141 -54 0
-60 72 -8 0
35 -14 92 0
101 63 68 0
146 70 65 0
67 -100 106 0
-136 191 48 0
-116 34 71 0
22 -189 160 0
112 -22 -144 0
104 122 52 0
197 159 129 0
171 -162 179 0
-77 139 -60 0
-155 1 6 0
-77 26 -172 0
20 -7 193 0
-77 -101 -169 0
-115 -91 -133 0
165 -104 112 0
11 103 56 0
-68 65 -55 0
-31 162 -86 0
-182 -54 62 0
-70 17 7 0
-125 57 184 0
172 107 -75 0
60 39 -141 0
102 152 195 0
-187 -168 -31 0
-76 160 28 0
174 67 119 0
179 137 40 0
-14 -159 -183 0
-99 60 -38 0
115 3 189 0
65 31 140 0
-172 104 -112 0
142 -157 -56 0
18 79 139 0
-130 46 12 0
-135 -151 -125 0
-4 42 143 0
-82 -188 99 0
-146 -77 129 0
196 -83 -138 0
91 -86 -189 0
41 46 -62 0
185 188 -148 0
133 187 196 0
-114 122 -189 0
34 -106 -100 0
128 -52 81 0
77 -17 -112 0
-78 15 -146 0
16 39 -59 0
122 199 37 0
-112 -66 -55 0
-80 144 193 0
151 13 100 0
-179 -96 89 0
97 -2 107 0
-35 90 82 0
-28 -29 47 0
-193 -190 172 0
174 -175 -87 0
13 192 121 0
-37 -195 -11 0
-81 -153 -168 0
19 -173 -183 0
-97 -43 -34 0
-104 47 -123 0
-182 -123 -56 0
170 -102 -107 0
44 180 -189 0
174 195 108 0
194 179 -15 0
-103 -162 33 0
-44 86 128 0
81 -96 -19 0
-1 115 145 0
191 91 34 0
-1 121 41 0
53 25 174 0
145 38 5 0
50 88 7 0
-37 -73 53 0
-165 184 -63 0
-76 110 32 0
62 185 -24 0
29 9 -78 0
24 179 4 0
76 187 195 0
-197 158 172 0
-2 143 -3 0
126 -158 199 0
-163 161 -83 0
-160 -73 176 0
-89 15 -32 0
156 -81 144 0
-139 46 75 0
-170 125 71 0
-58 -100 26 0
159 22 -119 0
-190 143 49 0
-29 -167 26 0
-156 124 198 0
91 -180 40 0
-22 -159 -145 0
33 -190 134 0
-65 32 -147 0
158 164 41 0
-39 87 157 0
36 -16 -125 0
-90 79 155 0
8 155 -41 0
-183 -54 -156 0
-188 129 172 0
126 -68 154 0
138 156 200 0
-73 135 199 0
-89 180 -76 0
199 57 -49 0
-39 -24 126 0
-172 122 200 0
-112 29 163 0
-186 -196 -112 0
36 94 -19 0
13 -37 3 0
-129 177 -144 0
176 -84 54 0
-123 -163 -74 0
-189 -13 68 0
162 -41 34 0
125 160 126 0
19 -102 -14 0
146 120 151 0
-139 -38 129 0
-146 183 159 0
152 183 85 0
31 63 100 0
-95 -146 183 0
167 67 46 0
-126 -198 -115 0
-65 139 -119 0
-31 180 47 0
-31 -97 -161 0
-117 200 31 0
-83 -192 15 0
76 13 123 0
-100 101 83 0
170 -161 -101 0
-5 7 -157 0
-82 180 -130 0
188 121 180 0
108 -140 -35 0
137 150 -119 0
-187 -191 137 0
-75 -135 43 0
135 -174 -162 0
-195 135 54 0
-68 48 -131 0
-98 8 -95 0
-62 66 -144 0
-98 -21 158 0
196 -128 -179 0
147 63 -172 0
134 -46 15 0
-121 183 -135 0
4 158 130 0
31 -62 -121 0
-185 -172 58 0
49 -79 177 0
156 122 172 0
-194 19 -131 0
46 75 -24 0
145 -186 -104 0
-6 -186 -160 0
177 -33 -163 0
-39 138 171 0
147 -199 -177 0
15 -72 74 0
3 46 -5 0
44 -38 179 0
171 197 -74 0
22 -88 83 0
-94 -47 -181 0
-166 -27 42 0
58 31 -136 0
184 -112 109 0
63 39 -87 0
-82 134 2 0
132 38 69 0
-55 94 -5 0
69 172 83 0
98 -121 199 0
-62 -171 -152 0
-13 53 -10 0
-20 -120 178 0
-13 -3 25 0
9 66 -159 0
-182 14 73 0
72 105 34 0
-28 -100 132 0
-92 -179 106 0
-197 51 105 0
-136 172 14 0
84 -156 88 0
-75 18 82 0
-101 75 94 0
126 -21 -23 0
-118 -170 130 0
-132 32 -127 0
-155 -165 -49 0
-41 -37 107 0
-139 -110 102 0
-17 96 193 0
115 35 -3 0
198 145 89 0
-191 174 -109 0
-120 198 148 0
160 -23 155 0
-154 -90 35 0
-75 -196 153 0
-135 -61 -57 0
55 -101 -184 0
-44 -21 -18 0
159 -163 71 0
115 -1 27 0
122 -150 -108 0
-28 -89 49 0
123 -47 200 0
-145 -158 -4 0
-136 -44 -166 0
-77 173 -33 0
66 58 16 0
-139 -152 -64 0
-171 -92 157 0
101 176 198 0
22 -5 150 0
107 -94 -130 0
-179 33 -12 0
-29 63 -166 0
-102 -71 80 0
153 29 157 0
-56 -104 54 0
45 -113 174 0
78 -102 -53 0
183 -129 -98 0
138 30 161 0
-56 72 85 0
-150 -129 131 0
-65 -150 184 0
64 133 -35 0
37 -181 153 0
-52 61 148 0
35 108 114 0
-41 -167 -72 0
-11 151 -172 0
183 164 -1 0
160 187 -74 0
198 -200 -161 0
54 162 -47 0
27 113 -109 0
-59 -17 121 0
-149 131 55 0
158 -2 -37 0
-104 30 -14 0
-89 87 -178 0
-112 28 -117 0
-160 74 36 0
169 20 -75 0
-92 17 -16 0
-168 154 -185 0
-65 39 -123 0
162 -38 -126 0
126 -51 -67 0
41 -100 -184 0
-180 -15 -29 0
123 -5 166 0
184 -85 63 0
75 -20 124 0
13 29 174 0
160 19 56 0
51 58 22 0
85 163 -45 0
95 73 57 0
-52 176 -184 0
56 117 184 0
-37 162 -10 0
-100 -110 -164 0
-138 -159 70 0
-134 -114 -54 0
-119 83 35 0
57 -135 -126 0
-14 -126 190 0
-137 154 -27 0
-48 -85 128 0
-77 -17 -66 0
-39 -105 -42 0
37 -84 -141 0
48 -184 145 0
88 84 172 0
166 -63 149 0
185 -129 -11 0
131 74 -81 0
100 65 -1 0
-161 177 -181 0
37 54 -194 0
71 35 75 0
156 169 -94 0
84 -71 -73 0
-9 165 -157 0
-200 122 -29 0
-170 -196 -62 0
44 7 198 0
113 -115 171 0
151 169 96 0
-71 197 99 0
61 -179 -20 0
-42 109 -163 0
173 -125 194 0
4 -116 -138 0
194 -103 -121 0
-114 -111 32 0
27 -156 77 0
-172 66 -134 0
-128 79 -156 0
-93 -50 130 0
42 -176 -37 0
-141 -143 135 0
107 177 -70 0
186 -82 146 0
-148 3 19 0
-178 135 -97 0
-98 20 -133 0
43 -83 151 0
19 54 129 0
112 -46 8 0
-131 36 87 0
200 14 37 0
164 -11 -18 0
23 141 188 0
22 -78 -163 0
196 15 120 0
-106 127 132 0
-76 168 -130 0
-37 22 -160 0
117 -141 -68 0
-180 -198 106 0
60 -95 198 0
200 173 -111 0
161 -73 70 0
63 -156 -68 0
-173 -78 -33 0
-2 -150 1 0
11 -87 52 0
63 199 -154 0
59 69 -118 0
-175 -185 -191 0
-48 -195 -31 0
