p cnf 200 980
-142 -187 122 0
-47 -169 134 0
-128 78 -177 0
-44 38 -106 0
-186 157 176 0
-119 13 -106 0
-7 -41 -18 0
-135 30 20 0
-152 66 145 0
1 -166 -46 0
89 -54 -86 0
137 -110 180 0
-46 187 12 0
117 -26 -141 0
177 -27 146 0
-134 -60 -53 0
161 -199 53 0
-179 -53 67 0
-5 149 -119 0
200 -127 149 0
174 152 -71 0
-190 -89 48 0
83 194 53 0
56 139 -11 0
12 135 -156 0
-178 18 39 0
112 12 185 0
164 -84 -66 0
-92 5 27 0
173 30 -29 0
-62 4 -99 0
-98 -124 147 0
173 59 -11 0
-33 167 63 0
-66 153 -17 0
156 -74 -55 0
-175 151 -86 0
-143 -88 166 0
123 -12 73 0
-76 22 -169 0
157 51 -172 0
-173 182 159 0
-96 186 172 0
152 -55 -182 0
92 -52 -111 0
137 -147 185 0
134 110 2 0
105 77 179 0
191 -54 166 0
-1 88 156 0
191 -67 -43 0
171 111 -96 0
-38 139 158 0
-12 58 -5 0
-113 -28 -150 0
133 94 12 0
183 136 106 0
120 -110 21 0
81 12 -76 0
-12 -9 -13 0
-172 -14 -91 0
76 105 -174 0
-46 -98 111 0
43 56 125 0
-169 122 168 0
125 62 -58 0
-198 -151 28 0
-14 -131 -48 0
166 198 101 0
-63 33 -1 0
-193 -134 169 0
-52 111 185 0
-137 -16 -134 0
-166 -145 -87 0
-20 126 89 0
-7 -93 -166 0
80 1 -23 0
95 -7 -122 0
108 52 64 0
-25 111 -27 0
-181 1 122 0
187 116 75 0
19 4 -133 0
173 -165 57 0
151 44 138 0
-139 -127 -23 0
-79 -192 -34 0
106 85 -43 0
76 93 63 0
160 -113 92 0
196 -9 136 0
101 149 35 0
176 -180 192 0
116 -35 -166 0
55 17 8 0
142 33 60 0
105 77 -66 0
-108 -191 -76 0
162 -91 170 0
-130 -69 -83 0
-30 6 -139 0
-157 -138 119 0
53 187 57 0
188 52 -60 0
178 171 81 0
-139 32 167 0
188 17 -149 0
-5 169 -141 0
175 -192 97 0
-116 63 -57 0
18 110 4 0
95 -41 81 0
85 184 -96 0
-139 -123 178 0
181 46 -65 0
51 127 -189 0
42 115 -200 0
-57 75 152 0
-103 68 -7 0
-162 191 31 0
-96 -198 -134 0
47 122 -142 0
-121 27 -95 0
82 -77 148 0
117 -183 138 0
-41 -69 -197 0
80 85 17 0
-95 103 4 0
115 -15 92 0
-110 134 -156 0
-111 -12 44 0
-21 162 -187 0
191 -187 171 0
142 3 183 0
-193 81 144 0
-86 -42 122 0
114 109 -199 0
8 -76 -179 0
-99 71 -103 0
85 -42 -71 0
-124 -115 -148 0
94 149 -178 0
-99 -41 189 0
61 -153 -125 0
-58 -35 -12 0
-190 -81 -119 0
-150 63 197 0
-135 22 159 0
70 -47 182 0
53 14 91 0
-3 4 -47 0
127 137 41 0
-172 -57 -48 0
-110 -137 180 0
-83 174 -106 0
180 -93 -84 0
-200 126 152 0
158 98 -52 0
110 35 -180 0
-124 17 -157 0
-157 135 -170 0
-34 178 153 0
80 45 -56 0
199 24 103 0
23 32 9 0
-120 -35 -53 0
184 199 -112 0
84 -26 172 0
38 36 -7 0
199 -50 -116 0
-8 -149 -89 0
-159 -98 30 0
176 53 -128 0
115 -108 -198 0
132 40 -195 0
167 111 129 0
143 186 -165 0
23 -157 -198 0
-27 187 -160 0
70 -128 34 0
91 112 -167 0
2 184 102 0
111 -62 -167 0
130 186 -33 0
-91 -119 129 0
-169 -180 -146 0
176 -80 181 0
-127 186 189 0
63 121 19 0
77 98 -164 0
-131 -197 176 0
-22 32 141 0
-78 -199 -41 0
157 9 -72 0
-184 -173 112 0
-173 94 53 0
-103 -181 -43 0
172 67 127 0
-150 -52 103 0
32 -142 110 0
53 10 -13 0
-155 196 145 0
-176 180 5 0
-58 -178 -29 0
-101 186 -153 0
-97 -79 191 0
-161 196 88 0
-53 -20 -16 0
-157 113 -40 0
82 91 -26 0
-11 -84 122 0
-185 100 -139 0
-146 -89 149 0
37 -197 -6 0
123 93 10 0
36 -171 -58 0
-57 -165 45 0
153 -150 37 0
2 -97 12 0
92 16 -89 0
-180 -109 -53 0
-89 54 -66 0
102 19 -161 0
-114 180 167 0
-118 191 114 0
164 182 67 0
134 143 -32 0
-184 166 117 0
-118 128 59 0
-170 23 193 0
67 143 64 0
-161 197 38 0
37 116 136 0
-183 68 -133 0
-117 -91 -54 0
98 -5 -61 0
-123 63 200 0
-185 -53 -44 0
-31 -112 -32 0
-109 39 51 0
13 191 -66 0
-150 -114 182 0
113 -182 -159 0
1 50 -110 0
-96 66 -152 0
-153 -42 40 0
-175 142 -125 0
-174 183 -10 0
72 73 162 0
-182 193 110 0
47 141 38 0
73 135 -171 0
-171 20 -159 0
128 -164 168 0
-162 33 26 0
-25 -38 -125 0
-70 153 8 0
-68 -73 -85 0
-66 38 128 0
-96 -55 -53 0
-112 -128 165 0
65 -129 -30 0
173 87 53 0
-134 125 -137 0
144 93 148 0
173 -108 -103 0
180 -89 56 0
-182 188 -70 0
-163 194 -177 0
46 82 -188 0
45 172 178 0
163 -183 -9 0
43 64 -41 0
-156 165 29 0
138 81 181 0
53 61 74 0
10 170 -36 0
-79 -175 57 0
72 111 171 0
-137 -41 71 0
50 -47 -49 0
134 -10 19 0
34 -126 71 0
142 59 -197 0
-196 62 -43 0
84 89 44 0
90 -109 -175 0
-177 -113 42 0
-87 -55 166 0
167 10 179 0
162 -80 105 0
115 194 -9 0
23 199 -14 0
-166 117 -70 0
161 -164 -150 0
-194 -151 -158 0
145 111 -131 0
-75 -34 -31 0
-128 -61 -60 0
-112 -122 92 0
-71 193 37 0
-67 -37 71 0
188 43 -116 0
26 -35 34 0
-146 -106 -118 0
-53 -195 -157 0
134 36 -140 0
-166 65 -18 0
-131 -93 -158 0
-194 -10 84 0
-63 5 -142 0
-179 33 -136 0
-24 78 188 0
156 -61 68 0
123 130 119 0
85 -81 -103 0
-116 -65 -180 0
160 -199 -53 0
-80 188 -194 0
44 -105 21 0
-121 86 -52 0
-91 -131 -140 0
-194 185 -20 0
-117 182 93 0
166 111 47 0
-46 -120 92 0
64 87 65 0
-164 160 -7 0
112 117 -24 0
-80 -57 163 0
56 -74 -189 0
6 200 -76 0
-151 -128 150 0
37 81 12 0
193 -23 -5 0
-23 -104 105 0
-191 82 -42 0
-75 133 82 0
111 61 -186 0
-182 18 -74 0
-124 130 6 0
131 163 35 0
-148 8 69 0
-172 40 16 0
57 66 -55 0
-78 58 -23 0
-144 -198 -169 0
74 -25 -54 0
135 34 78 0
-21 -60 194 0
3 182 153 0
5 54 -70 0
4 22 -33 0
-182 -47 -39 0
-8 -76 -16 0
-16 -132 -161 0
64 55 131 0
-113 -185 -105 0
-75 -100 -77 0
191 -89 -113 0
-20 121 -2 0
-141 -130 197 0
43 48 -131 0
94 135 -164 0
-11 -199 -5 0
157 72 5 0
-167 57 -46 0
57 86 41 0
89 199 142 0
113 -23 103 0
120 106 -196 0
131 164 -28 0
74 190 23 0
106 48 128 0
-176 120 174 0
-13 -133 -182 0
-39 88 -123 0
109 -46 -182 0
-83 -126 8 0
114 152 -195 0
-49 -193 -86 0
-193 -88 195 0
136 143 -45 0
-122 176 60 0
-167 -86 200 0
-103 174 -120 0
-11 157 -181 0
-29 64 154 0
195 165 157 0
44 -162 -33 0
104 49 -198 0
-200 72 -32 0
-166 -4 12 0
-4 75 20 0
-79 102 -197 0
170 20 -187 0
-83 27 -41 0
-59 -165 159 0
-167 98 22 0
-25 -147 -4 0
-142 8 -98 0
-42 69 133 0
78 -183 -136 0
128 161 97 0
115 -160 -79 0
110 -168 99 0
124 -199 -41 0
48 -69 9 0
115 -184 6 0
-123 190 133 0
68 176 -120 0
-131 95 -104 0
-27 17 87 0
-50 189 -161 0
148 -40 -184 0
-164 125 -59 0
-89 78 46 0
77 -25 -65 0
-175 6 163 0
-182 11 -38 0
175 -67 92 0
137 -39 69 0
7 -121 145 0
-37 -124 98 0
-146 -100 189 0
41 106 -112 0
-19 -139 -148 0
-145 1 -68 0
-194 -173 69 0
199 -94 162 0
173 -166 136 0
115 -140 25 0
161 168 -81 0
-85 -8 75 0
-84 161 -14 0
81 35 111 0
-170 178 -183 0
2 -144 133 0
-152 -142 119 0
-153 2 -113 0
146 -170 -90 0
143 -75 -93 0
7 -68 178 0
-55 75 -151 0
147 -179 5 0
-38 -89 109 0
-62 113 177 0
116 -58 -14 0
-194 -161 -180 0
-69 130 -61 0
-115 62 155 0
-129 56 154 0
133 -55 -185 0
-86 -162 -51 0
111 187 -172 0
-99 -107 165 0
-2 18 -54 0
146 17 -61 0
22 -14 -81 0
-15 -160 -23 0
13 -42 -105 0
110 -147 -25 0
107 -60 181 0
-10 -32 197 0
-47 38 -26 0
-44 154 -14 0
115 22 39 0
69 -26 5 0
78 27 14 0
128 -34 82 0
160 181 102 0
93 176 -147 0
-107 -49 178 0
-97 -179 132 0
-138 -39 42 0
19 119 -58 0
144 46 85 0
60 134 52 0
-175 22 -25 0
-153 -146 128 0
-148 153 77 0
188 171 138 0
-196 30 182 0
192 194 99 0
77 -4 -109 0
-160 -141 -50 0
190 -70 -158 0
-96 -38 152 0
9 -74 -142 0
160 -151 28 0
-123 117 39 0
-1 -87 113 0
142 -77 193 0
-59 -25 54 0
-160 54 188 0
-162 -81 -132 0
-57 -164 -168 0
10 -150 111 0
102 12 -76 0
197 64 -83 0
190 45 112 0
40 73 -114 0
134 -63 -21 0
-13 165 64 0
87 65 -75 0
60 165 43 0
60 -179 -153 0
177 73 56 0
35 -173 -199 0
81 155 146 0
95 87 156 0
125 -78 -76 0
-64 -31 172 0
63 -106 75 0
59 -37 -166 0
144 -165 -194 0
28 159 -196 0
104 54 -136 0
187 146 63 0
-11 162 173 0
88 -90 76 0
-183 77 2 0
62 50 57 0
151 198 58 0
-175 186 -65 0
-21 118 -10 0
175 -46 195 0
-49 194 -175 0
-39 21 38 0
164 -90 -176 0
-108 -95 -107 0
83 176 -96 0
39 -79 14 0
-32 184 160 0
65 -168 -193 0
-14 24 122 0
159 102 -38 0
198 79 -105 0
-151 -34 68 0
-194 143 167 0
10 -9 175 0
34 -128 -142 0
157 92 -90 0
49 -86 104 0
-157 -29 -12 0
-104 96 64 0
-105 -55 -72 0
48 31 -81 0
-161 -152 -144 0
-35 -100 -18 0
45 -63 -111 0
111 36 -121 0
161 -131 -196 0
-89 -131 -43 0
57 190 -94 0
32 -132 51 0
115 -22 -84 0
-12 -112 -5 0
78 170 -67 0
-168 -130 -160 0
-18 59 168 0
116 62 7 0
-147 -104 187 0
151 -191 135 0
7 61 134 0
-93 -160 -183 0
11 198 -137 0
3 -21 95 0
57 18 146 0
63 -37 117 0
-116 1 188 0
-157 -81 131 0
199 -103 -39 0
-199 -81 97 0
126 -22 -49 0
-33 -114 -158 0
-94 -164 -187 0
-109 -39 27 0
98 150 -111 0
-83 -26 -18 0
-106 124 -77 0
99 53 -139 0
-139 -193 85 0
190 122 -102 0
107 -9 -126 0
-29 -115 -126 0
-69 -63 -7 0
25 79 -161 0
144 -60 -13 0
71 79 66 0
90 82 199 0
126 127 33 0
110 -43 21 0
156 130 194 0
76 -133 -162 0
119 57 157 0
-60 -135 -174 0
-86 197 165 0
-92 -185 141 0
-78 -9 178 0
-81 178 -143 0
88 153 89 0
-112 -88 -17 0
-29 -39 48 0
-106 194 -137 0
-154 118 -51 0
-127 181 -198 0
-50 132 56 0
86 83 -21 0
95 76 -144 0
166 -174 -135 0
-126 -165 -186 0
-32 -149 -185 0
-25 194 198 0
-95 56 163 0
-185 107 -8 0
-190 -18 -52 0
174 -158 118 0
-37 -65 -179 0
-51 45 -19 0
18 3 -193 0
68 -88 -149 0
-11 159 90 0
-38 -98 -166 0
50 -117 136 0
42 -176 130 0
58 34 191 0
-83 171 114 0
-102 38 117 0
-153 -28 7 0
-1 193 -71 0
147 -55 111 0
89 158 -183 0
-142 -162 -103 0
-174 91 -149 0
169 6 9 0
-147 89 -130 0
-195 -94 126 0
-123 45 -48 0
-200 99 40 0
-32 -31 -146 0
-43 -168 -45 0
-122 -166 3 0
191 74 183 0
-94 6 80 0
-71 165 101 0
64 -83 104 0
18 3 -126 0
-8 126 179 0
-26 -23 -109 0
-121 -124 108 0
-141 163 126 0
-94 -179 16 0
88 -195 -176 0
-59 115 49 0
-103 -109 114 0
-54 6 -117 0
-93 176 94 0
-54 26 152 0
-181 77 96 0
-13 -182 -152 0
78 -165 -71 0
-171 34 28 0
5 -114 -143 0
-147 167 -179 0
-188 95 -193 0
128 171 189 0
120 68 -119 0
-94 135 124 0
-122 93 -90 0
-16 166 30 0
-96 121 -72 0
122 176 186 0
-39 45 81 0
-157 186 82 0
153 198 -19 0
42 109 -93 0
140 45 46 0
-162 99 -57 0
87 192 22 0
-192 131 25 0
81 92 196 0
164 3 160 0
144 -152 163 0
-31 -60 -190 0
-163 -133 -200 0
172 121 -154 0
14 -2 -36 0
-164 -100 -141 0
-80 -73 -198 0
-65 -10 153 0
148 -162 106 0
-167 162 43 0
-106 189 67 0
102 193 117 0
66 -11 111 0
-195 172 -175 0
-54 -81 -71 0
-140 -34 -116 0
66 137 31 0
-115 -80 -58 0
71 43 -33 0
-119 -62 -159 0
177 -162 147 0
146 145 -175 0
143 154 -100 0
114 105 -11 0
70 114 181 0
64 -51 -114 0
75 61 79 0
-76 188 200 0
-70 82 -54 0
187 -65 93 0
-70 144 -50 0
-71 62 -1 0
-120 -40 92 0
14 97 92 0
132 71 6 0
-122 -58 -73 0
50 139 -174 0
192 49 -170 0
-165 -150 -67 0
73 -190 115 0
88 -172 78 0
164 -72 83 0
165 -184 84 0
-102 33 121 0
80 164 -56 0
-27 182 -17 0
130 19 195 0
4 -52 -11 0
-96 -172 114 0
-10 -18 -184 0
160 -164 1 0
-150 18 107 0
144 14 27 0
-121 98 -63 0
134 -174 87 0
-53 183 -174 0
-193 -3 -147 0
-92 101 -133 0
-92 12 -89 0
104 193 -146 0
49 186 -21 0
-154 198 60 0
31 143 44 0
-122 -90 129 0
-179 48 114 0
4 138 -188 0
177 -72 76 0
-4 -73 64 0
197 72 155 0
114 179 101 0
53 74 64 0
-110 -63 -131 0
-165 -59 18 0
-6 -5 -165 0
146 -84 18 0
-31 175 138 0
-129 164 -112 0
93 -73 -27 0
108 30 89 0
52 -31 199 0
-1 52 -61 0
-144 -143 191 0
-111 -114 199 0
-54 100 94 0
21 32 190 0
-161 -155 110 0
117 170 138 0
108 -7 -185 0
-192 31 -156 0
190 88 -62 0
42 50 -38 0
-1 -113 -76 0
-146 91 29 0
-170 180 -124 0
141 -162 59 0
73 42 -83 0
127 2 116 0
-192 -33 -56 0
79 -113 -199 0
22 135 -62 0
44 156 -80 0
-43 -178 28 0
-145 -64 198 0
-199 -22 -130 0
-152 15 -54 0
50 191 -138 0
-200 -78 123 0
-5 195 108 0
179 -198 133 0
159 71 5 0
-160 -154 126 0
-180 -75 -185 0
185 -114 83 0
-155 -135 105 0
4 -80 -86 0
-31 -169 -18 0
47 73 -77 0
-104 -101 30 0
185 82 26 0
-9 87 -17 0
122 -94 -182 0
-126 -184 -103 0
98 -46 -4 0
-172 -168 180 0
-144 -166 -108 0
194 35 22 0
-59 -71 -147 0
152 -81 -162 0
-159 -177 -119 0
-114 -45 143 0
-33 11 48 0
-8 -130 5 0
-126 -163 77 0
175 -78 -90 0
32 91 -143 0
105 151 -96 0
-190 119 187 0
15 35 -95 0
-199 122 8 0
-161 72 189 0
200 142 178 0
-112 -144 177 0
188 112 115 0
-189 -43 -183 0
6 9 -128 0
-55 197 -49 0
101 145 -166 0
120 68 -151 0
-91 -175 -191 0
55 45 -94 0
183 158 40 0
-82 169 -66 0
11 -189 -105 0
-53 -12 -148 0
-169 100 115 0
-38 111 -130 0
-114 123 -53 0
135 -129 98 0
126 24 120 0
87 -154 -84 0
-134 -162 -93 0
166 9 196 0
-73 58 -51 0
194 125 -60 0
155 -84 168 0
118 -82 -7 0
-40 192 195 0
127 92 -64 0
-75 140 83 0
-193 -149 -160 0
130 19 111 0
178 176 -112 0
-103 -31 186 0
168 -90 -163 0
178 183 -78 0
19 5 -65 0
-184 -96 -152 0
124 -98 -99 0
98 153 92 0
88 50 5 0
-185 105 142 0
82 198 155 0
6 57 52 0
-27 49 165 0
-102 -175 -163 0
-93 156 -86 0
-154 -187 162 0
-145 -63 -186 0
-10 166 -123 0
-14 -53 50 0
-110 77 121 0
-66 -133 -168 0
-169 31 -138 0
194 -121 125 0
-188 -63 -165 0
-40 126 -66 0
63 53 -163 0
-150 14 59 0
-132 -102 68 0
173 33 -54 0
61 -157 -145 0
-168 -126 -148 0
78 -102 132 0
11 143 95 0
56 -175 -57 0
56 -71 -4 0
-62 25 -92 0
-88 -95 121 0
17 140 78 0
-120 -147 171 0
74 -116 96 0
176 3 157 0
-196 181 -8 0
149 -75 -41 0
-101 134 86 0
-5 61 -129 0
-29 135 86 0
36 109 -198 0
-193 -63 198 0
85 -15 64 0
-172 141 196 0
126 -80 -187 0
41 -40 -122 0
-138 -190 108 0
-17 188 121 0
-165 -168 -99 0
51 136 112 0
-71 -8 91 0
-86 -64 -102 0
175 -190 192 0
-146 -36 -183 0
186 -77 -140 0
-189 -67 96 0
89 -74 49 0
180 128 -160 0
76 170 94 0
-131 93 -118 0
178 -42 61 0
-139 158 -138 0
-160 109 -48 0
-100 180 -153 0
197 119 35 0
43 -200 143 0
-50 109 -23 0
-186 -71 -88 0
-66 -138 157 0
145 -109 -26 0
-200 -36 32 0
95 194 168 0
37 -197 162 0
-101 33 -30 0
-56 -200 70 0
76 69 -153 0
14 183 -146 0
-132 -144 -84 0
-90 -167 130 0
-27 -45 24 0
-86 141 115 0
72 143 138 0
-120 101 53 0
-175 95 48 0
-117 -199 -78 0
-12 -131 77 0
196 -122 57 0
133 117 -97 0
-152 25 -14 0
100 27 -73 0
-189 -190 -186 0
-130 -198 142 0
76 127 78 0
-50 124 3 0
-125 -136 -194 0
25 33 12 0
138 111 27 0
-124 -152 168 0
62 -22 178 0
-86 -12 193 0
87 -200 154 0
78 14 -3 0
54 -68 34 0
157 13 75 0
-21 5 -135 0
-8 -88 164 0
-4 46 167 0
144 63 -28 0
-28 179 -140 0
17 -195 -24 0
98 -32 -50 0
-160 98 7 0
-47 -96 -147 0
67 -70 -109 0
145 174 74 0
-50 -78 92 0
178 -3 -58 0
-67 137 -50 0
23 39 -13 0
169 -122 -32 0
