p cnf 200 860
55 -114 -40 0
151 73 -155 0
-91 104 37 0
-37 191 139 0
196 72 -57 0
37 14 56 0
-118 184 -33 0
121 -179 -78 0
76 -32 49 0
118 54 147 0
-53 146 57 0
-52 -123 -193 0
-72 -113 188 0
-46 172 31 0
-100 39 159 0
11 13 23 0
-96 84 168 0
-77 -38 -130 0
165 -1 -74 0
139 -55 116 0
-58 -188 -109 0
8 -156 80 0
42 -76 -8 0
-45 48 8 0
6 97 -199 0
-14 82 29 0
11 183 -161 0
134 -27 -105 0
95 -10 129 0
-198 -130 5 0
77 190 -35 0
-12 -51 -153 0
-95 126 -73 0
193 41 1 0
-151 -20 -6 0
91 -62 135 0
-38 -54 -100 0
-113 -160 62 0
125 -77 -68 0
-164 61 -73 0
-146 -28 12 0
186 -69 175 0
-126 70 117 0
114 -62 57 0
-21 29 -37 0
-117 -111 53 0
-111 97 -200 0
65 24 62 0
-121 148 82 0
178 137 -160 0
-52 -163 198 0
-189 -138 97 0
-59 -118 -54 0
-174 -82 -49 0
-115 198 128 0
-29 125 23 0
-41 137 -15 0
114 -60 96 0
-165 179 80 0
135 -95 49 0
74 -43 130 0
-50 132 -162 0
-191 74 -144 0
16 43 -39 0
-66 -121 30 0
-159 -15 -4 0
-67 -3 26 0
192 -146 -143 0
-75 -8 118 0
-90 50 -149 0
3 -102 62 0
-104 82 -4 0
46 -61 158 0
101 44 171 0
-12 20 149 0
5 189 -136 0
-178 -56 -177 0
-194 171 -183 0
-119 188 -57 0
-37 -73 -122 0
99 109 -168 0
-188 -193 112 0
-36 46 -24 0
-176 -50 22 0
176 -43 158 0
-140 190 76 0
-15 180 151 0
131 -32 10 0
194 192 82 0
-160 87 -163 0
145 121 -184 0
111 -45 139 0
-13 -137 -148 0
175 121 89 0
89 86 -174 0
7 151 178 0
-93 -59 -182 0
-157 -187 -178 0
81 96 165 0
38 -124 115 0
-200 -14 -197 0
8 -89 122 0
-4 147 123 0
-142 180 -157 0
-200 -131 108 0
-153 -129 70 0
83 -118 5 0
13 -135 32 0
-129 195 10 0
179 40 -87 0
165 -185 -169 0
-116 87 -48 0
105 -159 -25 0
27 -100 -28 0
191 141 -123 0
-90 57 101 0
-93 188 154 0
-85 64 170 0
-14 -106 -91 0
87 50 195 0
-78 -58 -24 0
78 -171 40 0
101 -120 80 0
-73 140 -34 0
158 173 29 0
167 47 48 0
180 -89 112 0
38 200 80 0
162 -4 -84 0
-185 90 -79 0
183 -66 50 0
-188 -29 -197 0
106 -54 18 0
88 26 76 0
89 -162 -33 0
8 -136 -85 0
-116 -15 161 0
-59 50 86 0
26 126 -71 0
7 150 52 0
-153 -41 171 0
-22 145 -101 0
-100 13 31 0
164 22 107 0
61 2 79 0
46 -176 -23 0
-77 192 94 0
-13 -47 -90 0
-111 -80 105 0
14 10 123 0
-4 200 134 0
47 13 -133 0
-38 129 169 0
66 15 195 0
-102 83 33 0
145 171 -137 0
96 -8 -71 0
38 154 -83 0
111 85 16 0
-41 -19 -199 0
-103 -90 32 0
101 115 -26 0
24 -110 -136 0
111 9 -81 0
2 125 -109 0
-11 130 76 0
-58 70 -40 0
-100 -165 71 0
15 114 22 0
119 -101 61 0
-116 185 112 0
-42 106 14 0
180 122 -136 0
-13 16 88 0
184 111 -55 0
-181 -142 180 0
-121 51 -94 0
-3 -105 195 0
86 140 -8 0
-32 -22 74 0
-148 -115 -186 0
-133 -178 135 0
-171 -156 113 0
158 -137 65 0
191 59 26 0
143 -122 -84 0
146 32 -22 0
-43 128 184 0
-189 -142 -184 0
-185 29 -48 0
-82 -85 -71 0
-16 62 76 0
-180 158 -112 0
156 22 174 0
-62 171 189 0
-98 -104 107 0
158 39 -104 0
-84 -111 -27 0
142 30 -99 0
-106 -33 -82 0
143 -83 93 0
-178 4 -184 0
82 -23 -15 0
-153 -6 -11 0
95 21 7 0
166 44 -9 0
109 -172 71 0
-151 83 -129 0
-65 -80 -76 0
-71 -61 -23 0
-93 -132 147 0
-59 35 4 0
-170 190 -103 0
5 -10 97 0
142 93 173 0
-124 -121 -47 0
116 125 166 0
-116 173 -62 0
-186 112 101 0
-97 33 -161 0
-88 -134 135 0
-124 11 82 0
44 64 28 0
141 -35 137 0
138 81 -80 0
26 91 137 0
160 72 -196 0
-28 -169 139 0
105 159 26 0
-46 74 95 0
87 -123 99 0
103 -178 -124 0
191 -159 43 0
-192 -73 186 0
-78 53 112 0
54 -158 -56 0
134 -139 12 0
-112 -140 158 0
152 -161 -27 0
-79 -66 -196 0
193 -123 140 0
38 72 -186 0
47 -123 -25 0
49 181 175 0
60 -17 -191 0
73 41 179 0
126 -188 29 0
192 82 -8 0
117 -32 122 0
-93 -77 -54 0
-191 -117 -166 0
20 -165 184 0
-134 -150 51 0
-50 -5 42 0
123 -166 -86 0
-21 -124 64 0
133 -197 154 0
-57 42 93 0
139 198 -37 0
-74 146 -171 0
-15 124 -127 0
-106 194 183 0
189 -3 -164 0
162 -119 126 0
79 43 -173 0
108 -39 17 0
-179 178 69 0
-6 132 -100 0
109 -66 123 0
31 197 174 0
-167 -165 79 0
156 20 91 0
-145 -169 -98 0
-132 -84 -95 0
195 -81 -141 0
-108 172 -182 0
126 -12 85 0
15 165 -127 0
-161 27 -63 0
23 -125 199 0
155 110 -154 0
193 -55 -161 0
53 -35 174 0
31 -121 -163 0
119 156 -71 0
17 -121 105 0
-198 -140 187 0
-84 -138 37 0
151 -153 147 0
-48 78 -113 0
13 80 33 0
9 164 31 0
22 -53 -25 0
-149 112 68 0
74 -120 -147 0
185 158 33 0
-156 -190 -63 0
-157 -66 -55 0
-70 -45 151 0
105 -193 -78 0
-123 -136 35 0
-174 68 -154 0
-142 -109 95 0
114 -6 -94 0
111 -48 -167 0
-188 67 -54 0
6 -150 -73 0
133 77 131 0
157 -19 -111 0
-157 92 -101 0
-145 9 150 0
184 -24 -9 0
-156 -44 -130 0
-14 -121 -8 0
-153 -43 64 0
74 106 137 0
193 32 -98 0
-180 -85 -90 0
-150 6 32 0
-58 -45 3 0
-84 -11 80 0
70 -175 199 0
1 -3 117 0
16 -3 -191 0
161 74 13 0
126 158 41 0
105 -91 -185 0
53 -64 -197 0
38 149 196 0
-177 83 -38 0
113 -177 -28 0
-181 -137 -168 0
33 -49 19 0
190 31 129 0
30 -115 -156 0
-65 126 117 0
-192 150 82 0
149 -54 72 0
111 126 8 0
88 -182 197 0
-23 74 192 0
158 -182 -87 0
146 63 -30 0
-37 160 -142 0
31 177 163 0
164 -168 -132 0
-21 -64 81 0
-149 -115 -182 0
46 25 135 0
3 14 196 0
-70 28 -29 0
29 70 -8 0
-166 36 -52 0
-162 102 62 0
75 -96 -160 0
184 111 -44 0
137 152 119 0
92 -5 -138 0
-153 -179 -20 0
-178 -185 33 0
-123 -189 195 0
142 -4 -183 0
-139 -132 77 0
-158 42 137 0
-53 124 70 0
-142 -48 -12 0
-1 69 56 0
68 198 -104 0
-52 -66 136 0
37 63 -111 0
37 137 23 0
24 86 -10 0
52 188 62 0
-82 172 -146 0
78 61 3 0
127 104 85 0
38 49 -178 0
19 -102 -45 0
58 180 160 0
-64 39 -9 0
-33 12 148 0
88 148 -171 0
-117 -101 -108 0
-118 -40 -198 0
85 173 -4 0
156 134 194 0
131 -168 51 0
142 -127 103 0
-107 22 -168 0
-145 184 63 0
39 196 -16 0
-65 -133 13 0
-49 159 -2 0
-135 7 169 0
91 -16 52 0
108 -88 17 0
-55 115 148 0
131 -166 4 0
87 -116 -25 0
61 57 -134 0
149 -148 -175 0
-110 -88 55 0
110 191 -158 0
138 140 -28 0
-13 118 45 0
-27 37 102 0
53 -105 -23 0
-88 44 -72 0
-127 -117 -48 0
-22 81 8 0
194 -19 -9 0
147 122 62 0
-68 -188 -44 0
50 -113 -170 0
-6 -172 98 0
39 -96 -141 0
-113 -54 -93 0
-79 112 50 0
-78 -26 -17 0
-103 -141 44 0
-9 -179 -90 0
-11 31 3 0
-43 -135 196 0
-129 197 -153 0
102 -37 46 0
-22 168 78 0
32 -194 63 0
55 74 -50 0
9 99 -124 0
-84 111 173 0
46 200 -2 0
-126 42 -25 0
-10 -94 -181 0
57 -98 181 0
15 -98 61 0
-127 48 87 0
-42 -62 141 0
-167 85 83 0
199 -161 43 0
-166 16 39 0
163 -155 123 0
-145 63 -194 0
73 -103 44 0
84 -86 -130 0
-164 46 10 0
12 83 175 0
56 126 161 0
7 -11 135 0
33 86 12 0
-62 -117 143 0
5 4 -48 0
-23 -142 11 0
48 -194 -13 0
68 -16 -170 0
74 -70 -192 0
156 180 -55 0
-129 135 186 0
-48 122 168 0
-152 183 162 0
190 155 55 0
121 136 -149 0
-130 -84 64 0
84 -18 129 0
-11 93 137 0
-43 -117 150 0
24 25 15 0
-54 -107 185 0
174 -99 -186 0
4 -113 -100 0
-118 -12 20 0
-114 -33 54 0
-133 8 119 0
117 -41 30 0
82 98 78 0
105 117 -139 0
-195 152 82 0
-20 127 -74 0
143 46 21 0
123 189 152 0
-50 27 71 0
-40 -167 7 0
91 -170 -198 0
98 180 -176 0
-41 -188 -145 0
24 158 -115 0
-39 -120 196 0
-16 197 -52 0
-62 -185 161 0
-192 -182 -68 0
140 111 4 0
-105 -58 197 0
60 -191 -9 0
-12 140 47 0
-146 111 -24 0
70 -3 -136 0
-191 99 -183 0
-85 13 38 0
-176 -108 -192 0
-90 185 38 0
-158 168 -3 0
152 60 -90 0
-108 -25 -53 0
-9 -138 -55 0
-175 58 83 0
78 -26 -141 0
96 124 161 0
-8 163 -54 0
-192 -173 -144 0
146 -25 -191 0
-199 80 -110 0
-94 200 -9 0
104 -128 57 0
-35 37 44 0
178 22 110 0
130 164 123 0
-2 70 98 0
-173 -197 44 0
-101 -83 170 0
-63 -20 -38 0
-127 101 -44 0
129 -52 28 0
-3 -180 -131 0
92 -2 8 0
-81 -109 -38 0
-118 -89 138 0
179 -172 150 0
-127 31 -101 0
-188 -64 186 0
-181 192 83 0
140 -151 -177 0
29 27 63 0
-134 94 66 0
103 -107 -40 0
2 27 99 0
128 -24 -85 0
-42 -67 161 0
35 -196 91 0
-114 -100 -119 0
-50 91 -100 0
93 -44 -118 0
11 58 -117 0
192 51 73 0
161 -113 -171 0
124 -30 -114 0
-133 49 -8 0
-15 -106 124 0
73 -25 -198 0
69 -1 47 0
93 149 -15 0
-181 134 -136 0
-126 52 47 0
-131 -60 193 0
61 -76 -13 0
-183 15 -86 0
-130 165 -45 0
-190 91 -1 0
-180 -194 102 0
59 -166 -55 0
74 -18 172 0
12 129 170 0
-58 -134 -2 0
52 60 45 0
186 121 23 0
184 42 -2 0
174 -94 176 0
-184 164 175 0
149 -96 -124 0
83 -20 21 0
-193 147 87 0
146 -132 153 0
14 50 -109 0
183 113 102 0
-179 -5 43 0
39 -13 -198 0
167 4 -29 0
-136 50 60 0
-78 -69 -146 0
-63 -47 3 0
-104 -182 -92 0
-90 50 32 0
-184 194 -68 0
190 189 -143 0
141 -140 12 0
-152 160 122 0
-63 -42 120 0
36 -147 -48 0
-149 -108 184 0
108 -16 95 0
56 191 69 0
60 -96 53 0
-159 117 138 0
129 -56 171 0
3 57 -12 0
-156 -160 195 0
-104 -144 -14 0
-91 -11 -1 0
159 -2 56 0
-149 146 -29 0
105 57 142 0
-5 -81 125 0
67 -100 27 0
-199 60 38 0
88 181 -56 0
91 -7 -3 0
-59 47 -187 0
4 -174 -149 0
-35 52 162 0
53 -182 -137 0
-90 -80 -149 0
-35 -53 45 0
41 26 -129 0
-111 119 -21 0
-187 -156 26 0
-6 -53 57 0
117 -109 -67 0
-6 -150 -67 0
-141 -35 -151 0
2 -42 -166 0
-78 34 131 0
134 -117 -104 0
-191 62 -30 0
19 -73 -122 0
-30 119 -67 0
-52 196 46 0
130 -155 48 0
-155 85 -54 0
-15 197 -113 0
106 67 -101 0
-155 -142 184 0
-164 -188 -113 0
-73 69 -174 0
193 -189 -127 0
-56 99 -86 0
30 183 -178 0
72 -68 -131 0
-191 105 63 0
149 -20 39 0
-112 164 178 0
-147 173 85 0
-174 -105 -78 0
113 52 -82 0
11 -187 -136 0
-129 106 43 0
-140 105 75 0
37 -30 -173 0
74 168 -99 0
84 1 153 0
-91 -133 115 0
-88 147 -124 0
163 -101 65 0
-49 169 -97 0
-167 -43 -152 0
-114 1 -91 0
-46 104 -8 0
-37 71 64 0
88 115 9 0
132 49 -146 0
-182 122 167 0
-197 98 5 0
153 70 -85 0
159 174 98 0
-166 98 -7 0
136 158 159 0
96 -46 76 0
23 -77 82 0
52 -199 186 0
-151 -59 150 0
30 27 -131 0
149 5 144 0
-36 -177 -16 0
-97 -183 151 0
-114 -175 -24 0
-16 74 81 0
39 158 126 0
-103 -163 196 0
-144 -91 13 0
107 173 -192 0
-186 -114 122 0
155 -152 -113 0
-141 -137 104 0
131 -163 25 0
116 179 19 0
141 28 -122 0
-50 190 162 0
77 185 147 0
112 -136 134 0
-144 140 -122 0
-130 199 193 0
112 177 -38 0
-95 -138 -155 0
180 129 -114 0
188 -159 90 0
-21 197 142 0
-73 97 71 0
-125 126 -197 0
-53 -105 -20 0
67 159 150 0
175 23 32 0
166 -170 32 0
-141 5 -117 0
-117 -153 -179 0
165 186 16 0
-42 -143 -82 0
116 198 -94 0
-86 -121 -52 0
185 72 188 0
-188 118 160 0
112 -159 88 0
101 -23 118 0
-176 61 39 0
-150 -190 -154 0
65 19 -59 0
23 116 151 0
-94 -13 26 0
-139 159 -15 0
32 -76 -34 0
-80 -21 -127 0
-96 70 119 0
-11 103 -191 0
-147 41 34 0
-79 165 -31 0
117 -3 7 0
77 -123 -82 0
4 161 -53 0
-13 -33 -161 0
143 -120 150 0
183 -80 -190 0
-82 -36 -195 0
4 156 -105 0
70 -48 60 0
-54 125 8 0
-59 163 -151 0
-89 41 -63 0
-175 55 -23 0
187 64 67 0
-138 27 178 0
-4 -129 124 0
91 -183 -103 0
142 67 13 0
40 111 195 0
63 125 183 0
129 128 58 0
135 60 141 0
-130 150 -39 0
42 -24 -161 0
-10 59 -43 0
22 -131 28 0
36 -151 61 0
76 69 180 0
-181 -13 -130 0
-65 158 -112 0
-29 -139 -175 0
-193 -39 165 0
-36 200 -60 0
12 10 171 0
106 -139 -182 0
-4 62 91 0
14 -176 63 0
74 -191 6 0
82 -137 -12 0
58 -10 160 0
-7 134 173 0
-84 -137 92 0
167 142 -54 0
101 96 -47 0
-78 -157 -2 0
186 114 131 0
-74 -187 183 0
12 4 -148 0
180 52 -28 0
-132 -16 -56 0
-107 83 58 0
40 136 172 0
-172 91 30 0
134 -127 78 0
-155 -6 120 0
-86 171 -38 0
77 -159 -117 0
17 45 107 0
-178 176 -57 0
-8 -88 -70 0
78 6 -151 0
30 186 117 0
-148 170 -120 0
143 142 24 0
158 -162 108 0
-180 50 -158 0
181 11 124 0
123 -150 -183 0
-127 151 68 0
-163 -91 -22 0
-25 85 -54 0
156 179 -47 0
27 85 45 0
39 140 158 0
-34 -184 33 0
-187 -93 -134 0
79 -125 93 0
12 48 32 0
-107 25 -50 0
-80 -4 -97 0
171 183 80 0
-50 -106 108 0
-170 -41 131 0
11 -44 16 0
-157 -174 9 0
-111 135 -99 0
-98 66 33 0
-25 -95 71 0
-88 25 91 0
146 -54 -172 0
167 130 192 0
-22 -171 -101 0
-185 -81 -175 0
-123 76 148 0
-111 119 -42 0
129 -79 162 0
19 148 124 0
11 -182 104 0
-194 -24 6 0
-166 -158 48 0
-26 157 96 0
-95 85 192 0
-62 118 -153 0
123 120 70 0
-178 -82 98 0
44 9 196 0
-7 143 -128 0
-138 -62 -20 0
-159 -71 176 0
158 -57 -125 0
-53 5 160 0
79 -89 7 0
-60 184 -124 0
-45 162 -188 0
-184 190 158 0
-125 163 81 0
-26 -82 -30 0
121 131 76 0
-164 -130 -198 0
179 13 195 0
60 -194 -178 0
141 28 -101 0
38 171 -25 0
135 107 -161 0
170 72 -116 0
34 -55 42 0
162 168 -105 0
18 126 176 0
106 163 69 0
-133 -61 -105 0
138 -158 -178 0
54 140 -39 0
86 -82 -4 0
-132 -133 -93 0
88 -24 -104 0
62 183 -158 0
73 190 150 0
167 -46 -130 0
110 -127 -33 0
