p cnf 200 860
-150 -177 190 0
144 -191 50 0
110 190 -18 0
152 54 105 0
2 7 -130 0
-177 -122 -136 0
-144 -189 21 0
-121 47 56 0
47 -123 98 0
-1 -38 -19 0
94 44 146 0
41 113 123 0
17 -194 128 0
76 5 148 0
-40 142 15 0
-141 -114 31 0
97 43 -22 0
-130 -53 -127 0
26 19 31 0
7 -164 -38 0
200 31 -71 0
10 46 124 0
-148 23 156 0
182 -9 -148 0
-94 -139 -10 0
-167 73 141 0
87 95 -190 0
-104 83 30 0
112 -95 -14 0
32 5 22 0
12 170 29 0
146 88 162 0
-72 39 -27 0
-103 58 59 0
43 181 170 0
136 104 -15 0
25 -132 101 0
-111 -116 21 0
-120 183 194 0
199 -46 90 0
-33 97 -129 0
118 -40 48 0
-109 -63 -125 0
-11 102 155 0
-42 197 -48 0
-174 82 161 0
85 108 -83 0
70 37 144 0
-192 -43 150 0
-25 -34 114 0
-120 -40 99 0
-55 171 -84 0
-101 -3 -25 0
-157 33 -89 0
179 -186 -200 0
72 157 -93 0
114 56 -180 0
-193 -64 69 0
-121 -134 -181 0
-150 154 180 0
37 140 26 0
21 -103 51 0
-86 -49 -170 0
-75 -115 43 0
-161 -191 70 0
125 -53 134 0
-8 -68 58 0
123 -146 -173 0
27 59 160 0
148 -56 169 0
49 -3 -72 0
-45 17 -110 0
-123 45 89 0
-4 -2 127 0
-144 120 187 0
186 -176 144 0
-187 -77 183 0
179 18 66 0
-42 13 184 0
-74 -70 -13 0
29 -20 107 0
-164 87 -77 0
-169 62 164 0
116 -26 -133 0
65 -5 -147 0
-130 188 20 0
138 31 132 0
24 93 -21 0
187 -96 -77 0
-194 121 174 0
69 68 117 0
6 -97 63 0
81 38 79 0
-79 196 125 0
128 -24 -97 0
3 -161 -116 0
135 112 -154 0
140 26 -18 0
104 35 70 0
-53 -185 -123 0
-9 25 123 0
-188 102 50 0
196 57 -100 0
42 -120 172 0
-90 -130 86 0
187 -12 -184 0
-71 -139 -78 0
-3 45 -11 0
-111 -14 -16 0
-158 -119 -179 0
32 -98 -29 0
43 -11 153 0
41 87 -112 0
-71 193 99 0
194 85 -18 0
121 -2 76 0
-200 -57 -97 0
-135 38 -120 0
-16 73 177 0
-157 37 46 0
8 173 92 0
-44 -177 64 0
99 114 -195 0
193 71 -141 0
-72 136 135 0
-59 -166 103 0
-180 114 -21 0
20 73 117 0
181 -7 -139 0
-127 118 49 0
74 47 162 0
78 63 191 0
129 85 131 0
-85 187 87 0
10 -68 124 0
125 -193 -21 0
-178 152 1 0
79 -199 -13 0
-120 -51 139 0
-182 -31 -190 0
-198 175 -139 0
74 -149 165 0
-127 -7 197 0
157 197 -89 0
90 -115 -99 0
6 -178 26 0
-55 92 -105 0
-71 111 37 0
-29 75 90 0
-114 -56 73 0
-43 2 -148 0
158 -112 -167 0
15 12 -52 0
18 89 80 0
55 -196 -71 0
25 -20 -29 0
23 200 -29 0
77 -25 -116 0
91 166 62 0
81 20 -76 0
68 48 -131 0
187 118 -41 0
178 30 -4 0
116 119 28 0
-81 -121 131 0
112 155 -129 0
85 -171 -90 0
181 -90 92 0
-69 127 170 0
99 161 -182 0
2 -114 14 0
-196 -77 123 0
-196 130 -161 0
-63 -50 -103 0
-90 -98 -81 0
-187 -91 -142 0
128 159 -93 0
196 47 -142 0
164 174 -180 0
141 73 72 0
42 28 -88 0
189 46 -19 0
-50 -10 -17 0
-22 -31 145 0
-21 -86 -120 0
126 -124 59 0
-139 -109 127 0
-161 -154 -122 0
-122 -171 -168 0
-146 168 -6 0
99 -82 -143 0
-9 -29 111 0
95 -191 33 0
-107 -58 -18 0
-65 183 -111 0
-104 171 8 0
168 161 -126 0
-6 -102 -1 0
-10 -139 -9 0
-35 -194 -167 0
-179 -147 7 0
93 -154 -182 0
-117 168 84 0
167 -197 -66 0
-114 103 -189 0
-25 130 47 0
-105 -8 180 0
-10 -108 -8 0
-162 129 -32 0
-70 121 -9 0
45 24 167 0
-7 -96 -99 0
-102 185 -130 0
-160 -172 96 0
189 11 -18 0
78 -180 105 0
168 -148 45 0
116 -177 -132 0
-81 -62 38 0
-103 -167 -149 0
81 -122 -158 0
55 -163 156 0
172 -32 142 0
145 -155 -52 0
-2 60 40 0
91 99 136 0
110 -11 -55 0
143 12 -162 0
117 138 134 0
-2 -39 -153 0
23 95 -82 0
-20 -134 193 0
133 163 50 0
72 123 -102 0
-31 -46 -42 0
191 164 113 0
-108 187 -145 0
-147 116 114 0
117 176 -106 0
118 -152 -3 0
186 142 56 0
144 -81 102 0
56 108 -44 0
-151 -107 32 0
54 -139 -34 0
97 193 63 0
171 -30 -185 0
-177 17 -149 0
72 -82 -130 0
161 195 -65 0
93 86 169 0
-102 -187 -183 0
174 -186 -14 0
46 -39 120 0
36 61 134 0
-190 85 57 0
-66 108 -116 0
-111 -118 -59 0
116 -146 -195 0
88 -74 -99 0
-122 -133 -56 0
-192 161 -67 0
81 185 15 0
10 -11 -132 0
-102 -7 -188 0
-150 -107 73 0
53 -155 109 0
13 -128 -23 0
6 143 -195 0
41 -193 -97 0
100 -96 22 0
-17 186 139 0
-79 -128 -94 0
145 143 11 0
-117 -104 99 0
-180 -48 1 0
-177 3 -6 0
190 -188 52 0
-89 30 49 0
-125 142 -75 0
188 100 143 0
-87 -150 -199 0
-157 -191 127 0
6 -116 -139 0
196 129 153 0
-105 1 -77 0
189 13 169 0
179 60 167 0
-126 43 2 0
-146 127 -179 0
-124 45 167 0
135 -109 152 0
11 83 4 0
145 117 86 0
-119 35 32 0
31 118 -41 0
174 24 68 0
176 -44 169 0
180 -162 122 0
64 -129 136 0
123 191 78 0
-176 60 141 0
137 47 -88 0
-11 -20 118 0
-96 -95 -80 0
108 -61 170 0
92 173 -67 0
-40 -7 22 0
45 122 -107 0
73 175 -32 0
-58 146 -32 0
-183 32 120 0
-170 -163 -185 0
177 133 -82 0
-192 35 -104 0
-123 81 19 0
161 -126 183 0
-18 -33 60 0
-174 26 -177 0
-6 73 -106 0
128 145 162 0
126 129 -72 0
-63 107 -1 0
161 148 169 0
-72 181 57 0
-90 -89 148 0
33 147 -1 0
28 -80 130 0
-181 -49 -92 0
-98 -138 132 0
-136 -116 -92 0
-26 -102 -107 0
167 56 185 0
190 -23 -71 0
109 -77 155 0
-10 -29 -104 0
17 101 -92 0
-68 119 181 0
93 -39 -71 0
-38 -100 92 0
162 -151 23 0
-145 62 -63 0
185 126 191 0
-90 186 -138 0
25 -63 -130 0
159 66 175 0
15 -50 160 0
-188 116 107 0
50 -46 -171 0
194 120 -32 0
158 -156 122 0
139 -41 -164 0
22 -114 86 0
-145 -11 12 0
98 -86 -87 0
142 -61 -103 0
60 -131 -200 0
-172 6 83 0
188 97 -196 0
-177 -8 115 0
-44 162 24 0
158 -172 -89 0
194 93 -66 0
-57 131 90 0
-147 -152 161 0
102 119 177 0
-28 -80 23 0
-27 -1 19 0
50 100 -3 0
-151 -118 -95 0
11 -111 116 0
10 -59 18 0
83 21 -180 0
186 91 -171 0
197 -17 -122 0
-24 196 -33 0
134 -97 126 0
115 159 -101 0
-10 -100 186 0
146 105 -199 0
-40 151 9 0
133 -166 -178 0
154 -21 126 0
129 -182 -147 0
182 148 -58 0
199 -164 54 0
-149 19 -103 0
-192 -71 -5 0
-169 -47 -157 0
-12 -98 22 0
-192 148 -129 0
92 112 -7 0
-119 2 86 0
78 -197 168 0
75 -140 -97 0
-139 -63 -35 0
6 49 173 0
-187 -188 -142 0
62 -104 100 0
-76 151 200 0
-187 -151 -67 0
154 60 -76 0
8 -7 -141 0
119 -101 -23 0
-16 -170 -191 0
-51 -193 -107 0
-71 -119 -176 0
-23 130 74 0
189 119 -186 0
-10 -149 11 0
99 -169 26 0
-105 -42 76 0
27 190 -103 0
-156 20 118 0
39 -155 -95 0
-97 13 -185 0
-102 57 81 0
78 -166 -35 0
-139 -188 88 0
-52 -166 -56 0
-111 -121 -41 0
122 -45 80 0
-49 27 43 0
-87 119 -159 0
191 -145 94 0
13 -87 176 0
-82 34 -133 0
-45 -54 -29 0
180 163 -154 0
-158 127 61 0
58 126 61 0
-85 -188 -93 0
-79 154 32 0
133 26 77 0
-132 -98 56 0
-136 199 -99 0
144 165 -42 0
-75 104 193 0
-191 164 52 0
-106 131 94 0
20 -163 -66 0
60 -25 -57 0
120 -65 -116 0
-85 122 -37 0
-127 41 -94 0
51 147 17 0
196 -140 -190 0
-88 -110 128 0
154 -23 -75 0
-9 150 32 0
-56 135 -192 0
73 -118 -84 0
-86 120 138 0
-186 -116 -3 0
158 19 159 0
-175 -47 70 0
-80 -189 -38 0
-123 72 -183 0
141 83 -191 0
-175 -131 162 0
-101 166 -82 0
116 -60 126 0
-154 -56 -117 0
31 18 -91 0
-157 -198 -118 0
164 27 91 0
184 -42 -199 0
-90 -140 77 0
118 -41 -54 0
1 4 -58 0
200 -126 -177 0
-45 143 190 0
89 -109 -187 0
28 148 -36 0
111 114 -170 0
164 189 177 0
40 45 117 0
126 -39 183 0
20 -167 41 0
34 -10 -127 0
-80 -67 119 0
-98 193 -135 0
135 -146 -187 0
-53 -152 165 0
-119 -102 -111 0
-105 -198 -116 0
80 23 168 0
-19 -171 -132 0
49 103 -106 0
-107 198 100 0
139 130 109 0
10 91 -67 0
-66 -12 103 0
-90 43 -84 0
-195 -1 54 0
127 -150 152 0
-131 -188 101 0
140 -179 -164 0
59 -23 -115 0
-116 160 -32 0
30 186 51 0
129 96 -187 0
186 112 -131 0
118 -166 -197 0
59 -160 147 0
172 -170 21 0
67 78 138 0
-111 -5 -33 0
-200 147 -47 0
-112 194 -161 0
-6 -114 108 0
-140 69 139 0
104 92 -144 0
-192 -39 31 0
134 26 135 0
-57 2 14 0
122 -91 74 0
30 -176 187 0
135 -65 -14 0
45 -120 -92 0
16 67 153 0
47 191 38 0
2 86 110 0
107 15 -96 0
130 169 58 0
127 -150 6 0
44 60 71 0
124 -189 -66 0
-126 -196 -27 0
152 71 -54 0
170 -88 -35 0
149 -108 -64 0
110 50 -53 0
-111 -156 32 0
-96 -39 -46 0
21 -110 94 0
-31 61 60 0
134 171 56 0
-80 -178 -137 0
106 -40 90 0
-194 156 7 0
134 180 -10 0
139 68 -162 0
132 100 -27 0
-93 -110 28 0
62 153 45 0
-79 -46 81 0
-33 -120 21 0
66 191 128 0
-27 145 78 0
154 46 170 0
171 131 -86 0
-70 -129 -22 0
177 89 155 0
-42 149 -25 0
-20 -55 -151 0
71 -33 -148 0
160 187 -37 0
-68 -23 -35 0
5 -38 -152 0
71 -172 195 0
-31 -98 37 0
60 114 -3 0
13 32 -46 0
-8 -41 6 0
-89 176 106 0
-107 -120 9 0
-135 -105 -120 0
-109 20 -34 0
73 -85 -167 0
116 60 58 0
-51 -117 153 0
41 70 -32 0
31 97 149 0
140 -22 -170 0
-179 -144 -32 0
-115 79 -13 0
-93 -96 -84 0
-53 -165 62 0
176 -28 158 0
173 117 108 0
-197 146 -4 0
61 -169 73 0
122 -107 62 0
163 67 -114 0
74 8 -15 0
153 -159 115 0
-162 90 -10 0
-48 190 37 0
-121 96 134 0
178 21 -135 0
99 31 -25 0
62 51 160 0
180 -179 -99 0
-155 -157 197 0
-126 32 69 0
-162 81 191 0
-137 -183 -45 0
88 -40 19 0
126 -12 -52 0
172 -136 -16 0
109 50 180 0
75 -70 -50 0
140 79 -112 0
-148 -100 -119 0
49 -6 -22 0
174 -32 -27 0
78 -169 -87 0
-189 131 -114 0
-27 -116 -179 0
-74 -167 -12 0
-154 -7 -43 0
67 -134 -109 0
-111 3 155 0
-125 74 -188 0
86 -138 56 0
-51 152 -57 0
-80 -136 -70 0
169 43 -100 0
-65 -129 59 0
-103 -8 -20 0
131 111 -198 0
-194 -99 180 0
120 -69 76 0
94 60 145 0
84 -145 -69 0
-184 -88 -57 0
-22 161 127 0
-62 73 126 0
-90 50 -163 0
-167 -128 -126 0
189 -99 -190 0
-198 -187 150 0
-187 -196 12 0
-187 117 -193 0
-188 -184 -49 0
-45 54 175 0
-133 94 183 0
-23 -175 34 0
-155 -193 187 0
11 -41 -9 0
-127 -136 -29 0
63 -101 168 0
-150 53 11 0
-1 3 -120 0
-41 -14 -39 0
-136 -197 -149 0
-199 79 95 0
-147 -24 -85 0
-99 158 -90 0
-106 49 -193 0
95 144 51 0
-195 135 -190 0
-63 -115 153 0
-141 135 -154 0
-91 -157 33 0
-143 135 149 0
-162 47 50 0
-192 -94 -130 0
111 7 143 0
-129 -178 1 0
122 123 1 0
106 135 1 0
185 35 68 0
39 90 -125 0
-92 -191 121 0
-114 -79 -35 0
-184 169 -188 0
-40 -4 -31 0
-29 -78 59 0
181 178 101 0
-92 148 130 0
28 -111 -27 0
91 -18 -164 0
5 112 -139 0
163 -15 182 0
34 191 196 0
81 32 137 0
171 -101 -191 0
115 -133 188 0
33 158 -89 0
-99 -102 -85 0
-127 -191 -45 0
-168 164 131 0
168 170 11 0
124 -142 -34 0
-56 -194 118 0
-67 -184 -113 0
-48 -11 24 0
-41 -113 168 0
191 140 -199 0
90 115 -99 0
-99 -172 6 0
-188 38 -91 0
151 -43 -10 0
-141 39 -34 0
-158 26 -32 0
-85 -189 177 0
-185 197 -22 0
-166 -18 96 0
137 130 103 0
-6 136 145 0
-89 -159 24 0
51 -58 11 0
-142 10 -77 0
53 195 182 0
4 -6 169 0
-48 -153 100 0
-44 52 -101 0
98 -28 -163 0
18 -158 147 0
-4 194 -190 0
143 -5 155 0
112 -175 22 0
42 163 -181 0
-34 78 172 0
190 -22 170 0
-92 -32 -100 0
-142 -192 -80 0
75 112 182 0
-167 -85 129 0
-181 -199 -56 0
32 177 -197 0
-148 90 -25 0
65 15 -123 0
-41 -163 -141 0
198 133 -171 0
117 11 167 0
6 120 133 0
119 103 150 0
65 25 -104 0
-141 184 -47 0
136 -62 -86 0
-38 -197 -167 0
-111 165 30 0
199 158 -117 0
179 -144 -154 0
-147 110 -113 0
-186 -145 91 0
150 61 -165 0
38 -12 -126 0
-25 -197 -22 0
104 -59 97 0
183 36 -62 0
189 66 -77 0
130 195 110 0
-141 -176 -179 0
165 80 -32 0
44 58 -42 0
17 104 112 0
-127 -11 17 0
-57 17 127 0
-148 -43 -11 0
-61 1 -168 0
162 144 -135 0
-184 153 189 0
-95 102 141 0
-11 -44 -74 0
-88 -56 84 0
183 5 90 0
-26 56 -116 0
183 -88 -43 0
115 -139 -80 0
11 97 146 0
-121 163 105 0
113 -164 2 0
13 -41 152 0
-44 112 -49 0
-93 -63 13 0
80 30 144 0
-121 94 72 0
156 170 -10 0
30 -95 26 0
-109 119 6 0
-170 -56 -36 0
-75 120 184 0
102 46 57 0
-11 -20 -7 0
-93 182 32 0
-113 -161 77 0
-80 -7 -182 0
-66 -1 -99 0
106 18 -60 0
-171 63 191 0
24 172 -198 0
-178 36 8 0
67 -137 50 0
83 -199 -140 0
-161 79 -124 0
-111 64 -145 0
-84 -34 117 0
156 9 119 0
1 74 -174 0
80 -48 -93 0
-13 -151 -106 0
28 -139 -164 0
49 28 1 0
56 180 123 0
9 -175 17 0
-125 -186 -119 0
148 -164 171 0
80 153 120 0
90 155 -7 0
-94 60 -191 0
-26 -164 -106 0
-54 -138 -53 0
-120 114 -188 0
-6 134 -155 0
-193 -162 152 0
-84 91 -175 0
12 -107 -64 0
-156 159 -167 0
-25 -181 -92 0
31 -40 156 0
-89 -109 -28 0
75 19 131 0
65 58 76 0
-155 -53 130 0
132 198 171 0
130 35 -95 0
-5 160 -12 0
-81 -118 153 0
-16 5 60 0
47 46 -64 0
136 -143 68 0
-73 -186 -77 0
-186 71 121 0
-79 155 51 0
139 -47 -109 0
9 49 148 0
86 -9 94 0
-131 -171 -67 0
-64 -91 -179 0
165 -28 37 0
-119 -44 -144 0
96 192 181 0
168 -78 76 0
-102 -200 -113 0
-199 -175 137 0
100 -111 -132 0
127 -148 37 0
-192 126 71 0
-126 40 -1 0
-77 195 -3 0
61 -196 2 0
-46 -116 27 0
62 40 36 0
175 166 -36 0
-144 -175 128 0
-118 -189 14 0
-68 100 28 0
-176 -199 -95 0
33 133 -135 0
184 130 53 0
-142 86 2 0
89 139 190 0
200 45 142 0
118 170 180 0
23 184 168 0
24 -47 46 0
