p cnf 500 2250
18 499 -256 0
-238 -175 -385 0
225 -449 -304 0
-252 -7 332 0
-318 37 -170 0
485 -169 -294 0
357 -286 -195 0
-229 320 -406 0
-68 36 185 0
-90 398 35 0
-421 -34 -412 0
-187 -215 -117 0
-213 -225 -155 0
84 -210 307 0
198 -456 93 0
80 -213 27 0
-248 -375 -99 0
318 5 255 0
261 62 53 0
45 -272 -454 0
-497 30 418 0
115 152 -59 0
-490 -212 -23 0
489 454 -173 0
190 -356 -90 0
459 -109 -328 0
257 -242 -205 0
-176 -287 473 0
-175 136 157 0
-87 4 202 0
-75 363 -145 0
-474 -389 436 0
450 -448 -305 0
29 466 255 0
-475 -152 442 0
446 364 209 0
282 -241 -456 0
128 -16 -224 0
-56 -263 -74 0
154 -474 60 0
313 -348 249 0
416 381 -208 0
439 136 68 0
-419 -165 -283 0
9 -58 -51 0
-129 179 91 0
-4 -397 -267 0
39 -61 -28 0
-394 71 -267 0
-489 84 247 0
-206 -469 -324 0
-423 175 -198 0
-147 -229 442 0
-271 -120 -200 0
-149 -182 482 0
-17 123 -185 0
-465 492 280 0
221 249 -188 0
401 118 22 0
497 -259 -134 0
-85 335 -229 0
-455 -393 -291 0
462 445 252 0
32 499 -252 0
68 -429 340 0
-315 -312 195 0
407 -330 -99 0
264 -205 -418 0
32 160 -68 0
316 351 144 0
-420 162 236 0
173 -310 -70 0
268 469 272 0
382 -111 107 0
451 -368 -407 0
-27 -338 -316 0
-51 -229 -488 0
75 372 -467 0
-108 218 392 0
-484 332 -245 0
5 143 62 0
-454 428 -469 0
-322 369 -279 0
-81 -471 -431 0
295 -225 33 0
-448 -212 72 0
12 -58 -134 0
-111 -253 -61 0
-358 34 -390 0
119 49 197 0
153 159 287 0
94 -418 377 0
-228 495 100 0
443 -390 -409 0
399 -418 -407 0
-455 132 -48 0
-460 -101 84 0
351 70 -12 0
340 392 -49 0
-291 171 -349 0
-278 -231 -179 0
-497 393 252 0
199 -269 77 0
436 -452 -196 0
402 -155 -284 0
390 420 -93 0
386 -355 -161 0
247 -330 -137 0
280 134 -185 0
-358 -218 291 0
-497 -339 -98 0
156 128 -46 0
98 484 -472 0
213 101 -14 0
99 -274 117 0
412 -329 105 0
173 -11 312 0
-414 -127 68 0
54 202 -50 0
-34 419 165 0
-424 265 -256 0
116 72 62 0
-362 -281 -432 0
263 144 -116 0
-80 -361 -196 0
-430 346 -159 0
268 87 83 0
436 -153 478 0
58 -66 217 0
134 -277 -47 0
297 -463 -279 0
451 -6 389 0
399 -425 -389 0
89 447 381 0
450 229 -409 0
500 252 306 0
-40 -134 232 0
255 -500 165 0
-103 -279 110 0
-221 171 -333 0
-447 208 -41 0
130 87 -211 0
421 -399 304 0
-341 57 159 0
-356 -117 22 0
-499 -143 -383 0
-161 309 415 0
-379 -311 206 0
359 -128 83 0
-126 -429 341 0
-148 378 -121 0
-396 383 97 0
479 -477 -153 0
-411 257 -482 0
298 245 -40 0
287 -220 -119 0
-233 406 -178 0
10 -283 329 0
-30 -92 -312 0
-253 -158 192 0
418 -258 -31 0
265 373 203 0
92 -495 -26 0
435 68 399 0
-11 -47 -60 0
301 -118 339 0
-386 -45 -340 0
79 71 77 0
-79 -279 -93 0
-406 -20 -399 0
-158 232 359 0
-267 -255 181 0
-125 334 -288 0
104 -120 -127 0
-134 60 -167 0
191 -158 59 0
-58 169 447 0
-157 -413 401 0
-112 291 480 0
-267 -346 -103 0
191 220 238 0
264 -362 326 0
403 220 230 0
-14 -384 -251 0
-163 -172 13 0
-257 43 490 0
-311 -185 466 0
-348 495 58 0
283 277 -293 0
-318 -35 218 0
-398 -31 -57 0
384 -391 -145 0
-48 -317 -120 0
73 -268 305 0
152 -97 -440 0
100 -367 342 0
-330 430 17 0
248 -229 341 0
-153 493 390 0
255 2 216 0
-394 -379 305 0
359 344 287 0
393 -225 99 0
-125 -127 69 0
398 442 283 0
264 -197 488 0
-300 324 360 0
464 -188 -174 0
-104 -458 59 0
453 -451 371 0
-150 -100 -67 0
-431 -388 -172 0
304 -34 -357 0
-60 -466 -463 0
162 -114 333 0
-162 -250 -412 0
289 74 97 0
-128 267 125 0
296 -87 -332 0
167 -275 385 0
174 -464 -481 0
-75 201 -76 0
-408 -75 93 0
-283 347 -335 0
-269 -476 58 0
271 -160 -228 0
-281 76 -95 0
-99 179 340 0
-33 315 -157 0
-271 189 212 0
278 105 -444 0
148 -23 20 0
220 265 -228 0
72 -227 -97 0
-255 378 -22 0
-349 480 -22 0
-92 377 -246 0
392 -63 -220 0
-76 -143 21 0
-149 -67 16 0
-9 -84 131 0
-44 114 52 0
-125 139 -412 0
344 -312 431 0
385 -12 171 0
209 289 -270 0
-370 106 344 0
-443 -119 -463 0
-179 235 437 0
146 203 -152 0
-254 320 -17 0
-164 -300 -468 0
271 212 -398 0
-73 -166 224 0
-358 -435 -262 0
139 238 181 0
-150 298 -319 0
-275 129 -46 0
-245 373 -232 0
166 -211 345 0
170 163 -299 0
-377 -119 -279 0
-265 64 8 0
28 -182 423 0
-457 -377 -319 0
73 -258 414 0
231 -13 -115 0
463 -294 -438 0
-471 88 -132 0
-118 -480 -43 0
-447 -304 -350 0
98 255 295 0
-40 -229 -56 0
263 53 -6 0
149 -319 -111 0
478 -328 -6 0
-500 -30 399 0
-412 -296 -332 0
-370 -118 -306 0
161 -38 -87 0
-354 -162 200 0
-377 -45 35 0
59 386 47 0
358 233 -181 0
-2 -452 -82 0
417 -272 447 0
344 23 41 0
494 409 369 0
322 -20 -141 0
470 413 -389 0
303 -40 -420 0
-362 230 -2 0
280 421 120 0
65 -167 66 0
449 472 -347 0
-276 -237 45 0
326 -263 463 0
389 -205 79 0
-219 479 -1 0
262 15 315 0
-101 277 -6 0
-228 64 -326 0
78 121 153 0
-153 232 -242 0
159 319 181 0
-243 -455 218 0
93 -67 -417 0
-403 180 198 0
-280 202 -17 0
273 -381 293 0
-386 -229 381 0
-157 253 404 0
188 -469 341 0
377 15 -218 0
-185 -152 -63 0
-179 304 -416 0
170 236 -132 0
-336 -355 -286 0
433 -69 -367 0
181 396 136 0
487 -54 244 0
340 -232 -391 0
-285 333 -273 0
-180 -176 421 0
474 136 -319 0
-379 -389 -454 0
48 -331 77 0
-240 127 -385 0
-357 207 -466 0
-131 -276 -341 0
301 89 -446 0
228 -204 -427 0
-100 139 251 0
151 180 -182 0
87 -269 435 0
202 -286 -294 0
-454 -360 6 0
469 372 45 0
-439 466 455 0
316 -439 85 0
-261 290 -390 0
-81 51 -423 0
463 -109 -77 0
327 97 -287 0
-262 139 325 0
-403 233 -141 0
-443 -335 294 0
70 466 233 0
-454 189 253 0
-135 -342 -80 0
4 -328 190 0
-268 46 348 0
-200 467 -196 0
406 -132 445 0
-466 -311 -262 0
-102 123 -192 0
-96 317 340 0
379 324 -89 0
18 -278 -486 0
490 -35 -321 0
-38 -476 -190 0
443 485 -54 0
-109 -157 -97 0
-316 77 -308 0
-233 128 -80 0
87 -488 201 0
324 208 171 0
464 -265 374 0
153 320 -421 0
-176 -154 143 0
-46 -440 -141 0
-22 203 -143 0
143 240 -319 0
477 4 -15 0
-52 -124 369 0
460 84 280 0
7 -206 165 0
197 -71 -164 0
-201 -87 210 0
431 -170 369 0
167 123 -268 0
-341 -13 317 0
-94 -294 -274 0
307 -278 496 0
265 244 55 0
299 444 -317 0
-228 425 -224 0
212 171 37 0
-316 -457 13 0
-121 -210 -54 0
212 410 -248 0
-373 189 -496 0
44 -222 490 0
52 213 87 0
-426 -63 -11 0
-463 480 491 0
-499 256 448 0
-92 60 58 0
86 -486 460 0
115 -80 -358 0
-286 145 273 0
-8 -498 -188 0
-358 -240 -337 0
238 308 106 0
108 433 101 0
-212 4 -225 0
-14 122 153 0
-1 482 -261 0
396 130 73 0
275 196 240 0
491 123 -424 0
-156 20 -220 0
78 299 4 0
-482 -333 328 0
30 260 -190 0
-157 428 442 0
172 -212 119 0
-44 -20 -125 0
-138 -157 344 0
-177 172 -404 0
487 -53 -390 0
305 -16 -444 0
489 26 -486 0
-27 -23 -161 0
-434 -356 -290 0
-67 452 -131 0
151 -446 -158 0
-104 271 -88 0
94 495 -204 0
264 495 208 0
-405 -217 -359 0
146 -291 491 0
-123 -138 -485 0
-26 -383 121 0
-384 439 402 0
263 -340 -291 0
-234 447 -329 0
-218 298 439 0
-213 302 431 0
-106 -352 492 0
-172 131 55 0
-188 487 -251 0
-22 381 373 0
108 -289 143 0
-497 -119 430 0
117 -356 185 0
-342 269 -268 0
-361 68 156 0
-455 250 397 0
-184 -38 132 0
498 -157 -89 0
-474 54 106 0
-172 -24 270 0
-495 -189 224 0
190 -287 -340 0
-409 152 8 0
-267 -277 -176 0
-284 499 -444 0
379 -424 -251 0
-382 311 187 0
-200 239 408 0
61 317 -36 0
324 -126 103 0
219 -167 108 0
-287 -105 -53 0
-13 -331 143 0
63 82 278 0
-217 -184 461 0
-126 399 205 0
338 -384 143 0
57 105 349 0
492 194 -204 0
440 -482 67 0
481 -166 213 0
-261 -474 -499 0
328 313 -220 0
-294 -189 -179 0
-390 274 247 0
181 48 -8 0
170 280 141 0
-379 493 -335 0
441 -290 -476 0
-75 352 -416 0
-79 -143 -358 0
-188 -91 -418 0
-343 -472 489 0
-329 417 -77 0
-141 244 -14 0
125 51 -453 0
-191 199 186 0
-410 -8 -407 0
105 -40 6 0
125 332 53 0
160 -56 -178 0
-407 499 408 0
22 208 -408 0
270 -263 -365 0
63 424 -211 0
-325 205 69 0
182 239 -142 0
-142 -68 -182 0
173 -314 249 0
-95 -54 323 0
425 34 212 0
196 -381 192 0
14 492 -376 0
55 -111 -144 0
-387 -117 265 0
245 415 -31 0
-165 244 -414 0
-251 186 48 0
455 228 428 0
10 43 -426 0
-406 -221 -497 0
65 -27 -110 0
118 400 -234 0
87 490 -180 0
-206 114 490 0
35 -86 -394 0
-455 -232 260 0
431 -499 -106 0
249 416 -255 0
69 -280 371 0
-263 132 150 0
394 -241 -294 0
344 -238 -392 0
-477 113 -432 0
412 485 -172 0
342 130 356 0
129 -211 30 0
478 443 287 0
-130 488 -255 0
-392 157 -241 0
200 -445 -270 0
265 -497 -3 0
-224 -301 352 0
-453 296 -449 0
-10 173 499 0
114 481 -141 0
-360 -116 409 0
56 448 289 0
13 143 -149 0
-203 121 15 0
-458 30 279 0
-475 476 149 0
-500 275 -117 0
-41 110 -383 0
-8 284 368 0
146 -225 281 0
446 -215 -313 0
-450 -104 210 0
215 347 336 0
241 456 -415 0
374 -279 46 0
-143 281 171 0
-345 -73 -224 0
207 -287 288 0
115 213 177 0
156 -262 -387 0
-348 218 -120 0
32 -207 -159 0
491 4 163 0
57 314 118 0
461 -222 499 0
234 -204 -281 0
437 55 -104 0
-462 -51 463 0
-53 -223 471 0
-130 479 -411 0
-159 -140 -32 0
130 412 444 0
-193 95 257 0
346 -186 433 0
-22 80 -468 0
-312 -487 -229 0
208 172 -307 0
-243 178 -345 0
-46 -200 -496 0
187 319 -374 0
-286 357 -467 0
380 -71 6 0
-170 353 -107 0
210 -172 372 0
-85 57 -185 0
-133 258 347 0
-458 336 -37 0
-313 -186 -318 0
476 310 299 0
-19 -361 -330 0
75 486 67 0
-17 312 464 0
-102 -489 61 0
330 -137 118 0
-451 80 -369 0
373 -148 -318 0
354 368 389 0
270 -128 -319 0
-61 360 221 0
257 -344 260 0
-328 465 -39 0
109 83 234 0
-330 302 -459 0
-214 -304 -441 0
493 -206 296 0
495 -107 -237 0
140 287 -104 0
356 415 142 0
-163 -329 -1 0
-281 259 144 0
-466 279 -289 0
382 -17 -3 0
-126 36 199 0
-184 118 -368 0
-168 392 202 0
-433 -248 -67 0
-4 98 -498 0
-432 -310 -112 0
-289 -36 -88 0
-194 -258 -330 0
47 285 -323 0
186 -350 404 0
-95 84 -27 0
-81 -418 -371 0
276 258 388 0
-93 -468 233 0
-374 -48 443 0
-323 451 -48 0
15 -341 -241 0
-272 -139 369 0
296 71 -115 0
350 473 -125 0
464 119 -246 0
-252 -243 -163 0
-199 498 17 0
-198 386 437 0
345 -207 -228 0
-264 -292 411 0
332 176 -312 0
-451 -454 420 0
-207 70 174 0
424 429 -219 0
387 95 142 0
303 328 -426 0
-167 -196 125 0
-341 264 -380 0
475 -369 -210 0
180 143 -98 0
69 168 -406 0
-413 116 -492 0
-455 289 500 0
127 -485 254 0
-44 -228 373 0
-124 244 -298 0
-375 16 -50 0
147 134 191 0
358 -324 305 0
-371 492 6 0
175 -107 149 0
-359 74 60 0
251 -440 -243 0
-171 474 209 0
235 -467 -71 0
-128 -152 -173 0
159 -183 -169 0
-350 -113 238 0
94 48 319 0
-200 126 -382 0
443 226 -50 0
-491 69 -402 0
-144 -69 36 0
276 207 -308 0
-14 -316 434 0
-157 220 71 0
441 -491 -216 0
250 -256 271 0
-333 249 -30 0
-293 424 50 0
323 50 118 0
-313 -351 -323 0
27 339 -282 0
-215 -271 414 0
361 -192 19 0
234 -131 -256 0
185 274 -267 0
210 465 -139 0
-33 157 474 0
-59 344 256 0
119 -475 -354 0
425 191 -41 0
423 -223 484 0
-456 -330 193 0
13 483 -81 0
73 62 -120 0
362 -46 259 0
-91 -259 -207 0
79 61 132 0
-305 -255 -297 0
3 -14 83 0
-385 499 -28 0
-219 212 495 0
160 -410 -313 0
-145 -27 492 0
-198 -369 -235 0
275 118 -52 0
-249 235 322 0
-202 -102 260 0
-6 -253 180 0
-292 -63 -138 0
173 77 20 0
10 -396 -367 0
242 460 -358 0
245 200 -46 0
-122 240 116 0
-489 -464 -497 0
-323 419 -35 0
65 479 358 0
-357 11 388 0
-263 46 -132 0
-214 -268 300 0
-160 -38 479 0
165 435 5 0
412 -162 308 0
29 265 -27 0
-24 180 173 0
71 -93 -247 0
413 473 336 0
-138 116 -205 0
-499 -3 347 0
-261 -15 81 0
-217 -490 -190 0
273 -424 50 0
234 -21 15 0
102 105 427 0
-112 378 -359 0
412 -69 321 0
-441 83 10 0
80 70 -435 0
-92 -394 -449 0
206 -24 352 0
-440 -418 -138 0
-193 -82 100 0
-86 37 350 0
-24 317 462 0
-390 484 -452 0
-498 -387 335 0
285 -146 -127 0
148 28 -12 0
13 288 178 0
-50 115 -71 0
-72 -352 -246 0
-367 -266 71 0
38 -352 -226 0
-191 -182 -100 0
-439 -341 -9 0
125 -429 -89 0
-30 72 436 0
97 145 454 0
-429 20 -115 0
328 389 -494 0
30 158 199 0
268 27 -416 0
92 -251 468 0
14 -290 383 0
171 140 23 0
24 -494 75 0
195 410 -383 0
-26 482 -187 0
-328 -307 -11 0
-366 109 240 0
394 268 -419 0
439 182 -186 0
28 258 481 0
173 137 -88 0
311 -175 153 0
-66 -335 8 0
-358 345 -419 0
349 384 458 0
295 375 -323 0
236 491 -385 0
121 -117 -187 0
354 -145 -405 0
500 -289 -417 0
212 362 365 0
326 -431 -272 0
-367 336 -496 0
-139 -243 379 0
-270 -54 469 0
-352 -21 166 0
-315 114 377 0
-201 51 -461 0
493 -439 485 0
-2 70 -260 0
160 -19 -38 0
-31 -285 487 0
387 465 -205 0
-195 422 -187 0
-452 -106 -88 0
-55 6 -364 0
-191 418 -28 0
197 -235 -147 0
13 -149 -239 0
345 -485 370 0
-46 499 -296 0
333 118 398 0
-459 63 -131 0
-267 -358 242 0
456 166 424 0
291 179 377 0
-482 -164 462 0
-387 -198 200 0
301 313 68 0
-285 -383 -421 0
422 104 -90 0
12 373 367 0
-261 4 61 0
404 447 -139 0
160 105 -389 0
169 62 -212 0
-38 -322 -18 0
151 -7 -52 0
-335 -119 -261 0
330 -477 303 0
163 -391 232 0
133 -262 269 0
-225 -98 162 0
321 -54 309 0
-416 -261 -94 0
-405 -133 328 0
131 262 455 0
223 253 -125 0
274 -76 377 0
-221 258 63 0
333 220 -42 0
-311 -171 487 0
493 140 261 0
182 68 228 0
48 -87 -323 0
-244 349 -420 0
-419 245 45 0
-422 -250 459 0
365 109 -267 0
-10 354 -437 0
489 -47 485 0
451 -349 -361 0
-352 36 -160 0
350 -428 -2 0
250 355 -144 0
-23 121 299 0
480 200 -277 0
468 -92 -445 0
-453 -393 -192 0
350 415 67 0
175 127 104 0
-39 -260 327 0
407 -53 -342 0
-84 70 -360 0
-3 -55 15 0
6 338 363 0
291 -194 -295 0
374 -173 -59 0
-252 -61 453 0
43 -218 412 0
396 117 443 0
420 141 73 0
378 -308 -248 0
-4 -342 -473 0
-3 153 435 0
154 -239 -277 0
-259 401 -301 0
413 -39 455 0
-113 131 318 0
22 -142 431 0
62 -316 138 0
148 246 -174 0
-42 -236 186 0
-305 5 -336 0
63 -13 -279 0
-141 -202 130 0
453 -270 194 0
-107 360 314 0
-99 426 -274 0
-187 -130 -102 0
343 237 410 0
261 209 2 0
-125 230 -149 0
-15 163 -214 0
-233 488 478 0
-46 86 344 0
425 397 271 0
271 317 -252 0
458 210 -325 0
204 381 470 0
-217 -195 485 0
450 152 -207 0
439 184 -75 0
-52 372 309 0
386 -234 -296 0
-474 438 42 0
248 -169 -408 0
145 -215 303 0
-473 -255 -8 0
-188 -360 241 0
420 470 -87 0
-379 -380 182 0
-163 -318 -96 0
133 -25 -490 0
148 -155 -51 0
65 -381 459 0
326 -193 449 0
-236 262 105 0
-468 484 -86 0
-130 322 199 0
-333 -155 -291 0
100 473 127 0
-158 3 445 0
105 317 -81 0
-489 -474 235 0
-320 -9 113 0
-402 -202 79 0
116 -366 442 0
435 240 90 0
-374 -81 -470 0
289 386 237 0
-373 403 -286 0
199 3 -403 0
-432 -414 -366 0
75 -223 93 0
81 -33 454 0
-98 -291 -206 0
12 246 221 0
379 -273 -474 0
454 56 -347 0
234 121 208 0
417 -211 -229 0
205 -359 317 0
332 -409 104 0
-188 -185 462 0
-320 -422 -130 0
136 -92 -210 0
-55 376 18 0
430 22 199 0
78 -48 -420 0
467 125 -84 0
-298 -316 243 0
-415 -376 -40 0
-388 -171 -92 0
101 368 457 0
-432 353 461 0
396 482 -147 0
403 159 109 0
-172 -459 288 0
-244 433 -172 0
-147 -281 -483 0
-300 28 151 0
150 422 -167 0
274 -496 256 0
171 -11 -118 0
463 214 266 0
31 -483 112 0
-67 268 -68 0
-64 -400 -1 0
343 -488 289 0
14 -100 -162 0
-8 402 302 0
-156 90 424 0
-254 -290 -36 0
-282 -48 67 0
180 -354 236 0
461 -214 -453 0
-299 85 122 0
382 -437 293 0
-398 72 -60 0
-156 -489 -179 0
-188 -432 438 0
-381 -56 74 0
-466 -169 344 0
361 89 76 0
-315 347 493 0
248 202 -314 0
125 107 265 0
73 -170 -275 0
191 10 -394 0
180 369 -115 0
-416 -237 -53 0
-195 -132 -242 0
481 51 -182 0
489 -265 82 0
492 277 -203 0
-72 419 114 0
360 42 283 0
-149 237 125 0
33 -356 58 0
-328 216 355 0
-431 469 -132 0
452 -285 24 0
459 491 -348 0
78 -434 162 0
244 305 156 0
-313 496 350 0
-79 -279 -36 0
415 -18 -297 0
419 294 -413 0
-50 236 -74 0
-320 -246 -49 0
324 11 346 0
-372 136 231 0
91 -71 452 0
-237 399 204 0
97 -55 211 0
-440 470 -479 0
282 -43 365 0
-252 -421 233 0
-145 -233 -336 0
-333 363 457 0
-476 -164 -38 0
-485 -363 -153 0
-95 30 113 0
-236 41 -43 0
286 -368 -415 0
-117 477 279 0
47 241 -48 0
-90 286 332 0
-248 -71 -130 0
448 429 -218 0
-97 154 -389 0
51 -227 170 0
-462 241 368 0
-336 -79 -180 0
236 10 -440 0
331 438 45 0
-306 -445 -329 0
18 -500 81 0
211 -347 340 0
-128 -213 -415 0
429 5 -293 0
-59 271 161 0
49 403 108 0
121 219 -334 0
-224 -151 423 0
-162 197 -32 0
-332 -131 -62 0
439 -25 153 0
-150 -344 -68 0
-134 -77 -67 0
99 426 482 0
-72 300 264 0
-476 311 -445 0
-170 -238 298 0
-120 -386 297 0
-276 265 397 0
-338 -198 -146 0
106 -65 -446 0
-451 319 323 0
-202 74 -53 0
-41 169 29 0
-276 184 143 0
-433 -353 120 0
8 -208 -104 0
-468 -81 188 0
433 134 13 0
147 -109 -317 0
-64 -167 389 0
-491 -83 -119 0
266 -344 -303 0
-73 375 -500 0
-396 161 -116 0
55 -349 -271 0
215 477 119 0
-471 -71 -242 0
-214 -226 112 0
-344 -296 -405 0
-217 -233 -60 0
-417 328 -432 0
-318 -273 269 0
105 -221 232 0
278 67 438 0
-204 -72 287 0
353 -288 -448 0
159 492 174 0
413 -66 -90 0
-374 303 454 0
-118 318 377 0
374 -459 91 0
417 93 436 0
151 -294 476 0
-81 -222 -178 0
-50 -490 -30 0
-158 469 -354 0
451 -20 3 0
237 -352 234 0
442 -138 196 0
383 131 315 0
-391 271 -299 0
196 311 -417 0
390 152 343 0
-166 -261 -181 0
-451 -349 -330 0
-312 459 47 0
-338 -484 446 0
59 -60 -186 0
-31 124 235 0
399 -354 -464 0
-442 -23 -429 0
333 -256 -283 0
-386 -452 -90 0
487 -107 209 0
-365 358 312 0
280 -281 455 0
-262 18 393 0
-156 -118 6 0
107 114 416 0
161 297 -162 0
-211 -380 49 0
-231 357 118 0
134 104 -364 0
-60 280 286 0
164 405 372 0
452 -253 295 0
460 -50 -409 0
411 -325 -461 0
-67 -14 85 0
59 342 -199 0
-317 -292 -190 0
117 -190 68 0
235 -229 -196 0
-490 -425 69 0
142 -340 -33 0
119 -463 -296 0
242 -464 -487 0
287 -234 -117 0
74 301 92 0
-88 493 -306 0
359 267 -280 0
-240 -153 -167 0
-279 -95 246 0
81 129 216 0
95 340 -349 0
-261 -124 -71 0
-487 -129 136 0
-427 -42 -275 0
-346 -190 -409 0
118 -48 84 0
-318 121 -47 0
-305 224 -153 0
-361 45 476 0
175 137 -124 0
-31 -419 138 0
100 -124 -391 0
269 469 -124 0
-422 388 -104 0
242 -40 -373 0
60 -85 -181 0
-214 -228 54 0
396 169 330 0
242 13 -240 0
-388 -110 435 0
311 364 -194 0
-254 388 282 0
421 -342 21 0
-359 -371 -463 0
71 309 -150 0
-216 486 403 0
40 -368 440 0
-246 -416 409 0
-424 -302 450 0
-474 494 -24 0
126 274 -367 0
327 -286 -356 0
494 260 430 0
-283 -286 -458 0
-235 -92 273 0
-409 499 -472 0
-467 11 423 0
-121 462 -391 0
-393 220 -159 0
147 326 29 0
-273 357 182 0
8 -202 -468 0
40 -117 -297 0
65 -446 -391 0
161 -93 -279 0
-450 -269 -312 0
-157 -327 -116 0
-124 340 -230 0
-408 49 140 0
-424 -206 -13 0
197 -241 360 0
116 364 494 0
-12 -472 -212 0
-132 -156 -480 0
155 -107 71 0
-241 139 -373 0
365 -11 -419 0
97 -250 -219 0
223 395 25 0
-278 410 353 0
-135 193 297 0
-249 -257 121 0
-486 -409 204 0
195 371 439 0
-167 -339 -206 0
201 177 -56 0
-443 374 -302 0
255 299 -82 0
262 -54 93 0
163 334 -22 0
59 -210 466 0
172 128 152 0
52 -264 220 0
308 274 -65 0
-89 332 14 0
-374 95 402 0
291 119 360 0
128 -163 -149 0
-428 223 -376 0
283 371 -213 0
391 164 270 0
-399 -203 361 0
-467 -118 377 0
-423 -289 321 0
478 233 -423 0
147 -98 -45 0
486 32 -138 0
250 -456 141 0
95 -155 96 0
-276 256 -398 0
-275 -85 251 0
-87 441 -432 0
-403 -276 -30 0
-31 -24 72 0
-391 381 -222 0
-309 328 -105 0
-280 -303 372 0
-487 58 317 0
-101 56 481 0
38 -243 201 0
-458 -441 311 0
233 -305 -66 0
409 73 290 0
-89 -27 -248 0
-484 -295 -67 0
-228 -205 22 0
-158 8 -244 0
252 100 -24 0
41 425 21 0
-160 61 445 0
82 468 -379 0
267 408 492 0
55 -391 -161 0
-283 263 357 0
-471 -93 -2 0
496 -309 -316 0
-475 -358 -361 0
201 -49 90 0
-330 368 -449 0
447 194 -206 0
-385 140 -91 0
-385 -435 71 0
457 397 -117 0
-315 -352 207 0
454 328 -257 0
-434 -357 364 0
309 -340 -391 0
160 -379 461 0
-239 158 -149 0
-256 438 -351 0
361 208 324 0
-64 207 83 0
-231 321 -474 0
-396 -257 135 0
-378 201 -423 0
-215 433 -24 0
387 -242 397 0
465 -122 362 0
-130 -116 333 0
-446 365 -225 0
23 476 59 0
314 295 -69 0
-489 -456 -242 0
-157 470 -108 0
343 438 248 0
-428 156 137 0
249 287 -248 0
233 5 -261 0
31 -23 -208 0
294 -238 -407 0
376 180 367 0
-422 -484 13 0
-271 -285 302 0
-308 278 234 0
-259 166 153 0
218 -139 -364 0
454 59 -210 0
-329 -483 -12 0
-49 -78 223 0
424 193 -345 0
-35 -234 341 0
156 456 -72 0
-384 -268 75 0
-439 -215 274 0
360 294 -271 0
-249 -435 -150 0
-137 -164 368 0
-274 -288 256 0
326 51 -167 0
-452 -239 389 0
175 434 73 0
266 -241 -95 0
274 -11 -206 0
217 -306 273 0
310 -373 -183 0
-101 -348 -279 0
373 246 376 0
-343 141 296 0
-64 284 236 0
-359 -213 9 0
278 371 -419 0
-61 -459 227 0
-364 -155 416 0
414 -70 24 0
-81 203 -76 0
356 -497 372 0
113 -374 -22 0
240 -303 -398 0
239 -378 -307 0
-50 -111 395 0
-354 -269 -129 0
-395 -226 330 0
31 439 -257 0
-62 16 -461 0
496 487 105 0
-58 -69 -470 0
416 26 172 0
-324 -246 262 0
-446 57 -346 0
148 243 145 0
-331 429 -431 0
-363 219 382 0
-494 9 64 0
-152 -410 -447 0
5 -112 -430 0
-451 -493 -318 0
-481 234 304 0
-424 -234 -240 0
55 -240 -265 0
14 301 128 0
355 481 357 0
131 -400 191 0
-420 139 -25 0
436 -2 145 0
223 -439 201 0
231 -158 399 0
-320 63 -221 0
442 -332 245 0
-203 366 332 0
143 -456 329 0
-145 -48 111 0
-80 -400 164 0
64 130 -443 0
399 -88 299 0
131 83 484 0
-422 385 274 0
179 -458 -387 0
-461 -29 -132 0
-377 215 375 0
-178 188 -335 0
477 -123 274 0
380 354 -68 0
494 21 -42 0
-280 17 339 0
-64 167 -80 0
-340 -149 -118 0
395 -252 121 0
458 143 -259 0
136 443 -303 0
-323 172 -309 0
-219 -453 -403 0
298 -111 -198 0
381 -334 -404 0
44 -276 167 0
475 43 316 0
318 366 -208 0
299 168 471 0
-275 -155 487 0
-431 463 -163 0
-27 -201 -407 0
-280 -335 59 0
160 264 188 0
-227 -13 -453 0
-347 408 -182 0
-114 451 -243 0
8 -116 -6 0
-238 -2 -105 0
-489 -426 208 0
144 -373 -66 0
-416 7 -132 0
-321 125 -409 0
-436 102 15 0
-26 206 -59 0
372 79 -357 0
-476 158 231 0
390 211 -347 0
333 -494 428 0
-80 412 479 0
217 -481 -89 0
-474 -205 -407 0
-493 262 143 0
373 -81 467 0
474 -373 232 0
-3 -355 -113 0
310 218 332 0
8 448 -106 0
-171 241 -288 0
-394 -75 -136 0
-483 -215 -346 0
371 59 383 0
352 214 442 0
47 -193 250 0
-135 -42 133 0
-359 -460 -208 0
-354 -14 459 0
-103 -377 272 0
-493 -401 188 0
155 77 -457 0
-276 -438 -395 0
307 127 -467 0
-411 111 -154 0
69 11 63 0
497 -8 -187 0
-70 -319 186 0
-453 101 229 0
9 67 -373 0
392 46 225 0
244 475 255 0
222 275 -293 0
-43 237 407 0
-447 -249 -183 0
252 -68 232 0
-437 -207 -225 0
-419 187 -135 0
416 467 -18 0
-35 -190 -366 0
-483 -403 -250 0
-426 189 -69 0
106 -221 265 0
294 -361 -216 0
293 292 440 0
435 453 -300 0
326 -358 -463 0
438 -18 311 0
442 181 409 0
-112 11 439 0
-495 156 86 0
125 -147 66 0
-379 81 376 0
107 -481 57 0
492 77 173 0
413 145 -481 0
-18 -457 -94 0
-365 -10 -491 0
-29 -473 217 0
-112 397 -414 0
369 -255 -319 0
-383 488 -456 0
-474 17 278 0
-144 233 -334 0
-351 -315 -130 0
-473 -323 -146 0
-144 274 -64 0
398 380 -29 0
347 -111 -12 0
-299 13 -234 0
-389 -347 193 0
196 103 244 0
-439 -111 251 0
-79 -425 187 0
29 -473 24 0
463 39 -52 0
-449 371 -399 0
253 333 73 0
103 -316 343 0
300 405 386 0
-39 109 115 0
398 476 415 0
-387 -80 381 0
-324 -270 343 0
-177 438 -442 0
-383 -195 -76 0
379 396 154 0
-129 -401 -478 0
233 -113 345 0
-251 -72 -69 0
3 -142 162 0
-241 342 -185 0
196 -474 222 0
-418 312 -177 0
467 -8 -444 0
50 154 -31 0
-78 -173 171 0
-181 380 289 0
-88 340 470 0
-416 429 19 0
-494 -178 334 0
-68 -297 -101 0
-391 -351 404 0
-96 146 421 0
-449 -338 42 0
286 -10 -495 0
-142 8 198 0
-123 -26 385 0
407 99 164 0
410 422 9 0
248 -82 46 0
92 257 265 0
267 -316 463 0
-109 -334 -374 0
106 -62 -91 0
-402 237 -199 0
442 427 324 0
98 65 449 0
241 -377 176 0
-414 168 -489 0
-53 -452 -82 0
-247 -467 -6 0
491 -382 -281 0
250 -44 211 0
292 -211 -184 0
36 428 -368 0
182 -175 18 0
461 123 -474 0
256 130 225 0
-359 -326 -275 0
-467 -141 82 0
156 -483 248 0
-274 263 -471 0
195 -347 -55 0
347 -409 257 0
-167 -42 354 0
235 -35 97 0
48 -13 -216 0
-314 -454 -49 0
-36 -147 -279 0
-211 106 92 0
299 -380 49 0
401 -293 142 0
-446 428 213 0
161 -172 -455 0
-78 321 -456 0
98 -136 16 0
-69 224 -414 0
478 107 337 0
59 -13 -49 0
-170 227 342 0
452 -409 91 0
13 -381 -183 0
89 -70 -179 0
5 43 363 0
-64 -259 21 0
-257 89 232 0
-353 89 -316 0
-162 62 268 0
187 138 18 0
459 329 361 0
-202 246 396 0
-232 285 310 0
-202 -472 -359 0
300 411 61 0
72 266 -61 0
-299 -175 196 0
-306 165 68 0
400 -195 182 0
406 83 256 0
352 -34 -500 0
464 -195 260 0
-483 433 239 0
124 -154 -331 0
-42 36 -372 0
377 -94 -345 0
-420 -207 415 0
-165 84 239 0
324 -260 -300 0
-92 -61 322 0
263 -230 207 0
-462 41 -10 0
-44 132 123 0
-215 454 -352 0
423 380 -13 0
207 432 -319 0
78 500 435 0
-171 246 63 0
-261 266 58 0
-391 -348 -65 0
-436 -126 129 0
-455 298 106 0
272 285 476 0
-461 -106 -278 0
258 -179 397 0
391 -222 302 0
235 -37 124 0
-15 204 99 0
439 450 407 0
82 -176 -455 0
4 227 59 0
-224 -382 -372 0
41 -57 301 0
-71 -87 470 0
-307 139 -364 0
294 466 -413 0
-64 -80 407 0
-126 445 111 0
43 -420 -268 0
-333 -54 133 0
225 -88 424 0
-246 485 339 0
334 -256 -191 0
-100 128 -67 0
-175 -211 -88 0
-478 -291 472 0
-305 416 -74 0
-25 -103 -46 0
303 159 486 0
272 325 -285 0
-54 362 494 0
477 372 217 0
-73 93 -292 0
421 -227 58 0
368 175 -296 0
154 143 384 0
483 225 -110 0
389 397 407 0
-281 9 429 0
123 -76 477 0
421 -305 -16 0
355 270 376 0
353 -497 289 0
-255 -484 -9 0
76 254 191 0
14 -274 -156 0
300 -291 -42 0
-491 411 -192 0
-343 -61 -203 0
-161 16 -11 0
-219 11 -184 0
-372 55 -353 0
438 136 -497 0
479 64 71 0
209 356 -50 0
336 -23 -298 0
-122 45 -278 0
-145 -421 239 0
370 -114 14 0
24 -117 202 0
45 50 -93 0
380 -22 -316 0
-324 -478 -265 0
318 383 -270 0
-102 462 -95 0
-251 -396 -189 0
67 -399 142 0
-493 -212 99 0
404 351 467 0
206 -419 264 0
392 -155 442 0
457 5 -141 0
152 442 -151 0
-336 367 -429 0
-385 -42 239 0
-347 -117 375 0
-153 -302 413 0
295 -93 242 0
110 -159 291 0
-15 -71 365 0
359 179 -73 0
-250 -114 -436 0
-209 408 162 0
-14 422 -166 0
342 380 412 0
388 249 -165 0
-77 -357 -115 0
-171 -478 99 0
255 -477 253 0
379 -389 -494 0
-475 451 -386 0
-29 -16 -452 0
80 474 -406 0
-21 114 -379 0
-223 206 -189 0
-225 430 -351 0
-117 -317 -43 0
-47 -426 419 0
62 417 434 0
133 -222 257 0
-474 94 89 0
444 -10 140 0
207 273 248 0
191 -275 222 0
-313 84 -183 0
483 -249 4 0
490 181 215 0
322 -140 -413 0
-245 -361 -81 0
171 -345 158 0
420 -363 -254 0
-316 -344 -11 0
395 121 -497 0
256 -479 -13 0
332 138 447 0
83 39 -155 0
13 -311 -143 0
-213 183 188 0
-142 -193 312 0
302 -473 214 0
-57 129 486 0
-232 -100 382 0
287 111 -489 0
28 178 -479 0
-455 14 -424 0
-85 -456 -52 0
-128 -246 196 0
249 123 -150 0
-110 -320 -247 0
-449 -101 257 0
19 81 -44 0
106 488 -65 0
-61 194 -199 0
472 -78 326 0
-210 63 89 0
141 -265 481 0
133 189 -70 0
14 -212 498 0
53 -163 16 0
284 8 217 0
333 447 34 0
-232 -161 275 0
276 -14 -117 0
-197 -231 -58 0
-54 327 -350 0
-358 -232 65 0
-276 -86 -413 0
-341 -51 -140 0
-414 417 -96 0
-18 143 -458 0
65 284 144 0
306 -323 -190 0
-149 254 -287 0
-404 119 -242 0
362 38 205 0
-272 399 -209 0
104 71 -422 0
248 77 -323 0
-422 -10 -344 0
-161 465 -83 0
81 -29 -107 0
246 369 482 0
128 76 328 0
475 -344 -419 0
-407 74 -237 0
272 -15 389 0
62 216 -405 0
364 -394 306 0
-100 293 314 0
471 198 -108 0
295 -323 342 0
-463 -98 394 0
-110 467 60 0
357 -436 223 0
-16 -155 104 0
2 478 105 0
-166 -11 -89 0
-478 456 270 0
-70 343 -383 0
246 -221 102 0
163 456 278 0
-268 317 -472 0
194 486 -78 0
-173 -49 16 0
192 493 -331 0
-473 266 -106 0
270 179 404 0
278 -368 482 0
205 8 288 0
-51 -415 336 0
207 35 410 0
-79 112 -415 0
143 219 441 0
-353 425 320 0
-425 17 30 0
168 199 99 0
-43 82 -432 0
495 305 -460 0
32 256 261 0
495 271 472 0
183 -288 128 0
-375 -61 236 0
444 7 -254 0
392 -138 -37 0
309 475 320 0
465 304 498 0
-421 -500 -9 0
47 -375 221 0
-451 -434 -102 0
-200 303 207 0
84 429 -142 0
147 358 -417 0
-18 -136 -311 0
193 -45 56 0
77 236 63 0
16 -244 -361 0
-309 -3 186 0
188 -176 214 0
275 95 375 0
-81 -154 -437 0
152 -286 377 0
492 151 433 0
-155 -231 -182 0
-210 345 405 0
-64 -238 151 0
292 -207 246 0
148 -399 -394 0
-392 -468 9 0
-152 -464 205 0
19 -78 -338 0
420 -163 -234 0
-59 -328 -161 0
-391 -267 -12 0
175 -178 349 0
-469 -284 -348 0
-312 -252 320 0
266 269 290 0
282 351 -474 0
204 480 -229 0
15 -151 131 0
-165 -433 21 0
48 492 220 0
-61 112 -270 0
-323 -485 -292 0
172 -262 61 0
-296 233 230 0
430 382 323 0
127 418 -125 0
-245 166 179 0
-429 -340 -120 0
157 68 252 0
209 278 -286 0
-271 -366 65 0
-466 99 -473 0
-284 377 321 0
-248 -31 197 0
-118 341 231 0
-13 -70 -117 0
-469 259 -380 0
-108 9 210 0
418 -309 -150 0
-58 -438 -246 0
131 438 -85 0
-282 -442 -228 0
-348 -350 137 0
-356 321 438 0
-397 329 30 0
-5 -490 -137 0
-238 344 -391 0
399 -30 -451 0
-147 140 182 0
28 288 337 0
201 63 102 0
308 126 -262 0
169 383 368 0
118 -140 -411 0
328 207 -131 0
-26 277 -285 0
-306 21 121 0
-124 -246 10 0
-46 261 -6 0
380 -286 -457 0
-51 -11 29 0
-273 401 -183 0
-82 -101 -3 0
461 -153 320 0
-283 65 43 0
-115 -155 -317 0
-151 331 -210 0
496 -406 376 0
-242 -250 -68 0
-343 -350 -189 0
98 113 -216 0
159 438 375 0
-210 82 -132 0
284 -300 485 0
-393 435 -101 0
365 -407 379 0
349 -34 489 0
-257 77 -485 0
-369 -249 461 0
-66 -251 -318 0
-122 -389 38 0
-23 -7 -452 0
144 -14 121 0
492 378 266 0
367 -167 -371 0
-353 -106 -188 0
-212 -329 401 0
4 -68 -402 0
110 -7 -221 0
-99 -147 356 0
314 459 3 0
-155 484 -306 0
310 458 -9 0
413 -90 -449 0
327 -493 -35 0
-25 466 368 0
306 -342 -249 0
272 -473 382 0
-343 -72 -419 0
-302 403 -186 0
127 155 451 0
-259 -219 106 0
111 -117 -273 0
206 -385 342 0
-442 -36 -15 0
465 70 -369 0
252 -294 134 0
-278 -53 453 0
254 -450 288 0
-413 355 -229 0
-128 213 72 0
302 318 449 0
-46 460 203 0
-93 478 430 0
255 -165 -92 0
-67 -198 -174 0
-106 -374 -461 0
-84 219 -161 0
148 -274 335 0
-324 -113 56 0
-56 -308 393 0
393 -62 -181 0
354 500 238 0
451 -185 -484 0
-259 -278 -285 0
410 -317 297 0
-174 -378 351 0
226 -227 -4 0
-61 -54 -340 0
-255 198 466 0
-187 -374 -20 0
-444 331 188 0
-30 319 -108 0
21 377 264 0
226 -355 -7 0
-281 -327 -154 0
-265 485 64 0
266 120 107 0
216 197 24 0
-409 48 -233 0
489 -271 243 0
-403 -91 356 0
1 -430 354 0
232 -102 319 0
237 -124 55 0
262 -432 -223 0
8 54 156 0
-297 -472 288 0
-400 -15 -247 0
-452 -84 -22 0
313 208 335 0
-345 -474 398 0
19 -408 -220 0
-43 99 200 0
258 76 -298 0
284 449 -452 0
-198 455 158 0
150 484 91 0
468 358 194 0
180 340 166 0
-448 -311 181 0
229 12 10 0
-373 -118 464 0
-494 213 390 0
-481 460 142 0
-496 467 -480 0
-348 214 -20 0
-362 -281 -109 0
221 169 -41 0
134 -105 372 0
-236 -184 -445 0
-433 65 64 0
19 -113 -317 0
359 56 374 0
-436 59 -143 0
-490 -59 -14 0
394 111 168 0
-366 -488 48 0
380 460 -69 0
-366 318 -286 0
-27 425 -301 0
245 -119 170 0
-52 339 457 0
-452 -369 -220 0
278 51 202 0
418 159 260 0
-43 148 125 0
-176 211 36 0
-42 -330 167 0
462 -346 -416 0
-219 -147 133 0
-224 -491 421 0
189 -154 -318 0
-353 442 -23 0
-186 85 93 0
215 -458 -258 0
-91 87 -133 0
379 500 247 0
410 474 -332 0
422 -253 213 0
-467 -18 273 0
312 -214 11 0
231 311 -45 0
371 -316 -118 0
185 -322 -133 0
-436 -78 230 0
-95 245 -483 0
-99 39 154 0
-453 -21 240 0
-485 213 313 0
-25 148 -304 0
-95 -58 -397 0
487 135 -496 0
-253 421 284 0
-118 139 -344 0
436 476 -103 0
489 185 320 0
-326 342 -455 0
438 -114 407 0
-154 -499 47 0
166 344 -161 0
452 409 396 0
173 152 -485 0
-91 433 -432 0
402 274 -421 0
-329 -407 268 0
-398 40 -383 0
84 218 320 0
308 439 304 0
-346 -150 50 0
-300 -332 172 0
-37 -36 -241 0
-477 495 -378 0
138 -145 -349 0
206 497 -481 0
368 484 318 0
-118 -67 -54 0
279 21 461 0
392 -427 -178 0
386 -369 214 0
337 -170 -480 0
-11 -397 119 0
445 -276 -19 0
-10 -80 18 0
367 -138 -59 0
-114 273 -260 0
-490 450 -157 0
456 155 -191 0
136 -16 -266 0
-67 -311 -333 0
-470 -323 -390 0
456 -106 -109 0
79 98 108 0
416 20 -471 0
-366 -454 415 0
-129 21 -118 0
36 405 336 0
10 17 -166 0
120 -497 -22 0
-212 -44 -152 0
318 239 392 0
-496 -368 167 0
458 22 -490 0
422 -28 150 0
-51 -94 464 0
-145 -26 367 0
127 -8 -119 0
-313 -154 -229 0
-477 312 467 0
337 24 72 0
269 442 322 0
421 -269 64 0
210 -379 -253 0
-479 -491 316 0
346 -292 -144 0
287 -101 -317 0
-492 -276 43 0
477 164 296 0
424 -383 -308 0
-125 256 48 0
-381 -489 334 0
341 -388 -385 0
476 493 221 0
310 -453 142 0
258 -270 128 0
-276 412 -448 0
357 420 379 0
326 -143 -474 0
46 45 -363 0
-180 -354 -276 0
258 -428 -121 0
-196 -324 -304 0
417 -469 -396 0
-306 -111 -174 0
-286 32 -40 0
139 -84 308 0
384 219 -202 0
105 15 -140 0
227 479 440 0
437 -228 -390 0
143 -192 -271 0
241 322 -416 0
157 155 188 0
-476 16 161 0
-291 -6 -143 0
-484 -215 -17 0
-339 -237 -283 0
127 -78 90 0
-10 356 225 0
-457 -252 -247 0
-267 -76 -237 0
29 -135 -10 0
440 -425 -51 0
-491 256 101 0
275 -121 492 0
-180 -461 290 0
-273 -197 188 0
-423 395 329 0
-389 -453 -173 0
-448 -476 -109 0
475 -318 177 0
492 -23 -250 0
325 329 -127 0
-154 -31 301 0
-9 -135 -73 0
45 429 -239 0
427 396 433 0
-11 186 -270 0
-327 179 -442 0
-233 414 -100 0
-465 -42 -144 0
387 -478 410 0
-457 226 -461 0
-157 407 47 0
271 -17 -144 0
246 52 497 0
211 -23 -350 0
410 -276 166 0
-7 -481 378 0
-59 48 -498 0
489 -480 -498 0
431 195 23 0
-36 -324 -360 0
-376 298 413 0
-297 -476 365 0
-387 141 -129 0
-170 136 -315 0
375 -454 432 0
-247 304 -12 0
-193 332 269 0
168 -98 -296 0
-236 -460 240 0
-70 62 -365 0
115 316 135 0
-435 72 -68 0
-311 -426 442 0
52 479 -311 0
-232 145 110 0
-460 -339 48 0
108 8 91 0
-229 430 3 0
157 -409 130 0
-385 -271 -287 0
-47 -273 -35 0
-208 -381 98 0
-280 188 282 0
-211 204 -155 0
348 248 -191 0
-82 384 95 0
496 -197 -90 0
219 24 64 0
267 -101 126 0
-160 -42 -192 0
-496 -179 125 0
70 434 176 0
335 -287 339 0
129 -410 262 0
257 114 -360 0
166 494 123 0
134 -286 -377 0
35 206 460 0
280 -95 -410 0
91 255 321 0
241 -191 98 0
358 499 -299 0
241 294 217 0
442 -203 94 0
85 -414 2 0
447 -259 -311 0
76 -148 -408 0
-106 428 442 0
-414 -30 498 0
309 488 332 0
-335 -178 -241 0
428 -331 217 0
101 -269 94 0
68 -377 472 0
-462 -380 -143 0
-404 -298 41 0
-207 3 -185 0
24 431 -337 0
-472 222 -457 0
324 -172 286 0
423 -296 -56 0
-75 55 453 0
149 -307 -365 0
4 -475 -428 0
163 383 217 0
33 -155 23 0
59 -209 230 0
143 -70 99 0
261 -475 -255 0
274 146 314 0
263 -170 463 0
-272 33 -149 0
-482 121 191 0
63 33 -418 0
-471 -211 388 0
179 -67 194 0
146 16 -436 0
373 380 -492 0
-147 413 -106 0
205 456 317 0
-13 27 368 0
-103 -135 -81 0
-500 453 -27 0
405 -149 78 0
255 288 166 0
385 40 290 0
157 50 165 0
158 -284 -116 0
131 301 -445 0
-44 244 -152 0
463 -288 399 0
-350 496 -405 0
267 266 -464 0
