p cnf 200 810
154 37 164 0
-136 200 185 0
-113 105 -149 0
117 -12 -2 0
-166 63 -90 0
-154 -61 -181 0
-53 113 5 0
200 60 140 0
-129 -2 185 0
7 150 -29 0
199 190 -71 0
-24 155 197 0
166 50 -1 0
-185 128 -89 0
-12 162 -69 0
-185 171 69 0
-90 -64 -137 0
94 1 -195 0
-60 53 64 0
-83 144 -159 0
116 31 139 0
95 159 51 0
-174 -129 -68 0
111 -163 141 0
-141 15 -183 0
100 -57 109 0
-77 -125 -133 0
-7 -32 126 0
-83 -123 40 0
-37 -46 -84 0
95 17 -111 0
196 -62 150 0
-156 -25 144 0
83 -48 55 0
-38 -153 -113 0
27 -5 -168 0
-133 41 11 0
124 -14 186 0
-153 71 -89 0
71 52 -152 0
-39 177 46 0
-56 -48 158 0
-175 -4 194 0
-166 127 15 0
95 127 -148 0
-106 23 -193 0
-45 -91 -60 0
-107 -156 -48 0
71 93 66 0
37 11 200 0
-68 129 22 0
159 -128 107 0
-152 -157 146 0
-67 -20 -199 0
-27 162 -185 0
-70 -48 -82 0
36 -186 124 0
-181 90 131 0
179 113 -88 0
-117 189 -107 0
196 -173 -191 0
187 -150 -14 0
145 -136 -107 0
-70 183 171 0
5 -57 -154 0
-38 -40 -15 0
-67 54 85 0
101 -82 -139 0
197 47 -126 0
152 193 -28 0
-78 102 -154 0
-174 14 -29 0
-19 47 -13 0
-122 -190 34 0
63 -106 6 0
70 -146 -86 0
199 -8 152 0
63 -180 76 0
67 -156 -69 0
-182 -11 37 0
18 -200 -174 0
-130 76 166 0
-41 -62 -171 0
-59 -199 120 0
-136 -95 -65 0
1 36 163 0
114 91 -7 0
-164 -59 69 0
-80 -185 -46 0
196 45 200 0
-78 -85 -65 0
189 -4 180 0
-70 -40 -60 0
-99 -14 86 0
-12 -32 17 0
-176 -120 -31 0
135 -176 -164 0
72 -149 146 0
-197 130 -135 0
137 -178 -142 0
34 74 181 0
-65 -70 195 0
-176 -168 -41 0
-141 27 -92 0
157 -74 178 0
36 64 -75 0
196 -85 -140 0
121 51 -193 0
145 -172 -171 0
-5 26 10 0
-61 185 -13 0
10 -172 115 0
121 26 -65 0
-89 -58 -194 0
138 -83 -84 0
56 91 -64 0
101 -40 125 0
23 60 110 0
-63 110 -180 0
-151 164 9 0
179 77 -127 0
37 -197 85 0
-91 154 -31 0
32 43 31 0
144 -156 132 0
-123 151 63 0
82 120 -86 0
85 17 -117 0
27 -102 50 0
-76 -105 -40 0
84 -180 -7 0
-161 57 -144 0
159 -112 63 0
-123 -197 -75 0
10 -52 -58 0
-9 40 176 0
-10 -161 131 0
-30 73 158 0
-108 -169 -157 0
69 -107 134 0
17 -129 -9 0
-180 41 -93 0
80 -92 -183 0
-166 -69 111 0
-173 41 -71 0
-39 114 80 0
100 -109 142 0
-163 141 17 0
29 163 43 0
62 -88 -20 0
-129 196 -138 0
103 -109 4 0
-181 -172 -198 0
117 176 147 0
13 184 -53 0
-171 -186 -1 0
-44 148 -160 0
109 84 6 0
82 -50 -115 0
152 -175 199 0
-109 -51 36 0
131 -70 152 0
-33 -163 74 0
-8 167 37 0
1 135 58 0
-27 4 170 0
53 85 -198 0
7 142 -17 0
199 -77 -8 0
-113 -25 87 0
-132 198 -188 0
-37 -28 -41 0
56 171 -162 0
-47 -28 121 0
-116 5 -145 0
-174 -152 -17 0
-198 -178 -185 0
-51 70 -150 0
113 138 16 0
-200 178 -133 0
73 -63 59 0
-18 -29 -194 0
-3 -52 -77 0
-34 112 -167 0
103 -106 -60 0
92 104 59 0
30 -153 -86 0
56 -54 89 0
-81 186 -105 0
168 -165 130 0
163 -183 -189 0
-166 28 -184 0
-72 47 69 0
98 176 131 0
-189 -109 -111 0
192 -198 38 0
94 -32 -48 0
-81 50 -146 0
-60 91 121 0
19 96 -155 0
-66 -21 -78 0
62 -38 73 0
-133 -177 -95 0
-159 -26 47 0
55 143 -88 0
-31 137 -142 0
-106 -127 -138 0
-197 -185 169 0
183 92 -47 0
62 37 -192 0
-171 -62 -141 0
113 -174 -24 0
107 26 -47 0
-39 -66 72 0
84 55 18 0
18 -199 -136 0
-94 176 124 0
87 -156 64 0
15 157 182 0
36 2 100 0
155 84 -166 0
-167 82 37 0
67 132 162 0
1 -44 -101 0
178 139 -5 0
164 -196 191 0
-9 48 -172 0
-39 -143 41 0
-63 146 6 0
-107 64 188 0
-35 -182 110 0
22 76 153 0
77 -54 125 0
163 -110 -123 0
27 15 -190 0
24 129 -95 0
-166 -79 189 0
198 -15 51 0
-91 94 184 0
17 -109 188 0
-36 -120 -25 0
70 -172 135 0
76 -126 -43 0
3 32 148 0
109 -76 -140 0
65 -30 35 0
110 175 144 0
160 54 -132 0
30 -72 65 0
48 -55 188 0
-185 72 -112 0
164 -156 -60 0
-84 -19 2 0
-124 1 196 0
-94 124 -89 0
129 154 13 0
-96 -83 -166 0
-40 -103 -196 0
-48 -133 -192 0
-153 -122 -128 0
-116 -7 -58 0
18 178 13 0
105 48 -46 0
166 -57 -64 0
-150 192 186 0
-80 38 62 0
53 -45 164 0
-135 16 -114 0
-76 -144 156 0
-195 -33 158 0
-184 3 -47 0
-11 96 -56 0
142 -150 -71 0
47 -64 107 0
57 -9 -105 0
191 -164 52 0
-74 139 171 0
182 -71 191 0
185 95 42 0
127 57 46 0
-57 4 -162 0
-194 -4 159 0
-69 144 55 0
52 178 -171 0
129 -72 -151 0
191 97 -99 0
104 44 -133 0
5 145 -23 0
125 130 -15 0
-41 -68 -150 0
24 22 -164 0
24 -173 -115 0
-150 -2 35 0
24 -198 91 0
-151 122 -167 0
51 -172 -100 0
-1 82 -175 0
-156 175 -102 0
-189 -92 178 0
139 137 195 0
5 149 163 0
-115 -55 197 0
140 29 -22 0
-72 -65 -2 0
-19 148 2 0
-74 6 106 0
-186 168 145 0
-173 199 77 0
-99 27 38 0
-82 -24 75 0
-155 12 152 0
166 130 -135 0
-161 -173 -122 0
51 92 -99 0
-41 -166 16 0
36 -130 22 0
151 28 -43 0
-80 -142 -177 0
-193 -180 37 0
-14 172 -90 0
-169 -24 -138 0
68 -50 -180 0
-152 6 20 0
143 99 -46 0
48 -106 26 0
72 144 32 0
-33 -125 -136 0
45 151 147 0
52 -134 -59 0
-144 -66 -103 0
-19 146 143 0
170 59 163 0
-84 62 -77 0
180 45 55 0
116 133 -106 0
47 -188 58 0
-10 100 177 0
-9 -31 107 0
155 72 -173 0
35 -116 137 0
-108 -16 -183 0
-176 -124 61 0
-180 178 72 0
-136 -42 -128 0
-146 175 -37 0
-106 2 -75 0
1 197 178 0
-107 23 -110 0
-197 173 95 0
-163 2 95 0
-9 -196 85 0
79 25 -199 0
3 -55 -53 0
72 85 -44 0
-171 -184 196 0
83 -95 -48 0
18 -166 119 0
-144 65 87 0
50 -27 45 0
-46 129 66 0
109 104 151 0
-77 -122 -12 0
-184 125 16 0
132 -134 65 0
-16 -85 -107 0
176 -140 155 0
127 -105 -118 0
-54 38 195 0
-106 159 151 0
-98 -139 200 0
-96 156 -155 0
199 28 70 0
43 -145 99 0
101 11 -59 0
151 97 -198 0
-146 -65 -82 0
199 -128 86 0
-101 143 188 0
-24 -121 135 0
-180 95 17 0
-127 51 -26 0
62 54 -9 0
156 107 137 0
195 -32 -124 0
42 -168 11 0
172 71 174 0
-101 76 -126 0
-82 68 174 0
-2 -200 -30 0
92 -193 168 0
126 59 76 0
-192 53 144 0
131 57 -19 0
145 20 119 0
-115 121 8 0
184 -66 103 0
-187 104 -30 0
74 182 -115 0
114 -100 -75 0
-5 94 98 0
-196 73 -39 0
-18 -112 -67 0
99 119 121 0
109 -110 -163 0
6 55 -182 0
-72 56 -4 0
190 -70 192 0
51 -196 -68 0
-61 -7 -95 0
5 -83 -157 0
96 33 -113 0
-127 48 104 0
-82 -110 -5 0
-138 -32 118 0
-9 14 24 0
40 152 -14 0
-14 178 -130 0
-179 -80 -183 0
110 -129 -122 0
-88 -11 185 0
-181 -21 -133 0
-115 -82 146 0
-102 -150 -37 0
108 -180 -125 0
122 -147 -192 0
167 9 95 0
-163 164 -63 0
116 182 152 0
-155 -133 146 0
-137 187 167 0
12 -166 -186 0
35 27 -40 0
-91 -159 48 0
-65 -161 32 0
95 -162 51 0
-124 -125 110 0
-59 20 -66 0
-20 142 96 0
-142 -192 -129 0
53 128 -189 0
-84 -90 -187 0
-12 39 -25 0
-141 -83 -14 0
168 96 -141 0
177 -113 -195 0
178 -115 -93 0
-153 113 84 0
-32 10 -34 0
-100 80 33 0
-184 -92 124 0
110 8 -34 0
-176 154 124 0
-31 -116 -108 0
-194 -63 197 0
-149 188 143 0
-193 8 180 0
-84 131 -174 0
109 7 -138 0
166 77 132 0
43 85 -104 0
26 29 38 0
42 89 -193 0
-129 -173 -64 0
-27 -56 -163 0
-194 -26 -145 0
-35 169 195 0
-174 127 -87 0
-131 30 191 0
93 171 21 0
-66 -134 -54 0
20 113 162 0
-16 144 135 0
195 -24 -152 0
80 -144 -199 0
-145 -114 59 0
-119 -23 -172 0
-198 -169 -75 0
175 -32 102 0
27 84 -92 0
8 -45 -97 0
89 191 64 0
-32 7 100 0
109 94 180 0
-139 197 -148 0
36 -117 -35 0
-192 27 -22 0
59 193 -88 0
85 3 -112 0
-81 -39 131 0
7 -89 -183 0
102 -103 -118 0
197 192 138 0
152 -200 150 0
-77 -120 -130 0
-167 -79 -119 0
-187 109 -102 0
-34 -45 158 0
175 -37 200 0
9 150 28 0
94 3 35 0
165 -1 -27 0
87 -74 -163 0
83 46 25 0
-180 102 -178 0
-143 -70 -191 0
182 179 11 0
-106 -132 -162 0
-94 98 -40 0
77 135 -133 0
200 -156 -51 0
5 -74 180 0
134 98 -100 0
-157 -101 -181 0
-99 92 -117 0
-52 -186 151 0
98 -75 -195 0
-130 146 62 0
-56 -116 -110 0
19 -59 197 0
-2 -59 -196 0
194 71 11 0
176 105 -148 0
142 187 -75 0
112 -170 124 0
-101 53 -65 0
-37 -137 77 0
113 -1 -122 0
-37 -53 -87 0
168 -49 -119 0
-56 -150 107 0
112 -165 31 0
-61 23 -17 0
-165 -184 62 0
82 -146 -174 0
1 -11 85 0
176 -187 185 0
-51 87 188 0
76 34 -189 0
-52 -82 -162 0
-108 95 -141 0
197 28 -171 0
-60 -113 -17 0
118 -152 -196 0
-24 -149 124 0
158 -178 -78 0
97 162 115 0
-5 -106 32 0
47 42 75 0
191 -88 6 0
-175 162 -174 0
-141 -166 -1 0
172 -84 -81 0
-145 -41 -126 0
-44 -144 -11 0
138 -147 48 0
-91 -117 191 0
-77 4 -88 0
186 199 28 0
-27 87 7 0
130 56 73 0
-29 138 160 0
113 -34 -184 0
84 40 -66 0
108 25 -131 0
79 160 -114 0
-4 -6 -117 0
72 133 -134 0
-125 179 -71 0
-37 129 57 0
-152 -195 73 0
191 -64 143 0
-66 -179 86 0
-108 -121 -20 0
-42 173 165 0
69 21 -45 0
-118 42 -40 0
43 -141 23 0
-18 -54 -59 0
-118 161 119 0
-1 -58 -74 0
52 151 -91 0
51 -16 95 0
83 38 115 0
-167 -87 96 0
-13 106 171 0
79 126 -189 0
144 99 -194 0
142 -190 -104 0
47 -65 154 0
-46 -165 193 0
-144 -136 16 0
94 -142 139 0
194 88 -26 0
177 10 119 0
-98 -160 -7 0
80 127 196 0
-70 -75 -35 0
-61 -60 -183 0
79 7 149 0
-164 -11 -198 0
163 182 -4 0
-160 72 83 0
-100 -17 188 0
13 65 154 0
-127 -124 42 0
195 -63 51 0
195 -7 -39 0
-67 -49 128 0
22 96 -27 0
105 -117 141 0
-107 -142 -109 0
-28 130 14 0
49 94 -66 0
119 130 -118 0
-142 27 62 0
81 130 47 0
124 109 -139 0
26 147 182 0
76 -157 24 0
25 -176 162 0
-106 -57 -190 0
105 -174 -197 0
-43 -141 -134 0
-68 92 14 0
107 -176 -145 0
9 134 31 0
-98 -23 -171 0
130 63 127 0
174 -1 48 0
-199 200 -88 0
-145 11 36 0
-109 -39 -69 0
189 -174 -173 0
19 25 170 0
-44 -21 129 0
-157 34 165 0
123 -161 -144 0
-137 4 -141 0
-16 -125 144 0
-68 -109 28 0
167 -107 -74 0
-2 100 -175 0
45 -126 163 0
-21 -80 30 0
-30 -91 -183 0
-189 193 -194 0
114 172 71 0
-136 -181 -133 0
-59 114 -98 0
-31 151 66 0
18 77 48 0
31 82 26 0
93 -57 -20 0
-96 -165 158 0
134 83 -8 0
171 -98 39 0
-36 135 -166 0
182 -82 -2 0
121 158 -136 0
-2 -118 -114 0
-178 -45 -188 0
172 154 100 0
41 29 145 0
34 -74 183 0
47 -93 58 0
33 119 -66 0
146 -95 -123 0
-81 2 163 0
29 102 -72 0
-5 79 -80 0
-18 155 133 0
124 182 15 0
26 -37 95 0
-194 -198 -81 0
26 176 -19 0
-18 22 -124 0
31 143 -144 0
-158 -171 -45 0
-170 -165 -106 0
-60 121 18 0
173 97 -71 0
-139 92 131 0
-176 58 -23 0
-162 33 124 0
94 -129 -9 0
-33 39 156 0
101 -184 -150 0
-51 -186 -194 0
-116 168 -50 0
-13 -103 -51 0
169 8 -155 0
-122 -186 -149 0
-32 93 66 0
46 -51 -82 0
23 -143 64 0
-171 -6 28 0
96 -194 77 0
-155 -9 105 0
-149 -99 154 0
-167 -35 126 0
-61 -36 183 0
145 20 147 0
-28 127 52 0
-93 -159 186 0
91 -92 59 0
196 53 181 0
99 109 -92 0
-13 -68 -17 0
164 58 -155 0
-7 -18 48 0
-82 -22 185 0
-151 64 191 0
-114 94 -142 0
126 88 55 0
57 -140 110 0
94 -60 80 0
8 -95 57 0
154 37 31 0
158 -1 57 0
-162 35 -198 0
-63 -82 -171 0
44 -80 60 0
77 119 115 0
-39 41 161 0
124 154 -131 0
185 163 -199 0
-117 159 125 0
176 156 -39 0
115 -157 24 0
191 -85 -96 0
99 171 -191 0
183 -126 124 0
53 -150 106 0
149 -185 193 0
-56 49 18 0
13 -109 96 0
-29 163 107 0
130 -5 67 0
152 -193 -178 0
-2 -3 -125 0
34 188 142 0
-5 -82 101 0
120 -64 1 0
-30 105 103 0
73 -76 44 0
-110 14 -70 0
-26 -27 15 0
96 -23 -138 0
-162 -134 66 0
31 -69 -73 0
-178 -6 -18 0
-31 126 90 0
118 48 -51 0
-156 -55 -47 0
97 -30 -143 0
12 28 85 0
-165 183 -179 0
-131 145 -9 0
-144 -33 142 0
100 73 -152 0
138 33 100 0
-89 -96 -46 0
-108 68 134 0
-185 130 -31 0
-34 -39 -29 0
-70 186 -140 0
-20 -135 11 0
98 192 77 0
-103 73 -199 0
112 115 -94 0
197 43 -129 0
-81 77 -89 0
-95 -113 -99 0
99 -24 67 0
-127 -29 -174 0
75 100 52 0
105 49 -57 0
-7 -190 -142 0
69 64 110 0
101 153 175 0
-123 129 -178 0
168 -167 117 0
-163 -130 72 0
-101 -57 51 0
159 -120 -105 0
-34 152 106 0
-76 -153 -159 0
19 141 -119 0
-35 -184 -155 0
-67 -111 -81 0
20 164 179 0
197 2 36 0
-30 -48 -115 0
124 -116 51 0
176 122 -107 0
-145 -148 77 0
179 -94 -29 0
129 -60 121 0
-168 -132 156 0
-57 -181 9 0
179 -3 -35 0
6 -9 -71 0
-152 20 97 0
138 -134 -93 0
-177 -182 -12 0
-195 -5 -117 0
-104 167 -57 0
-100 57 -46 0
8 -42 -95 0
10 54 -39 0
