p cnf 100 360
7 78 2 0
-100 -30 6 0
87 -63 6 0
2 -77 -28 0
-63 55 70 0
19 24 -94 0
33 -76 68 0
-65 29 -5 0
-7 -9 45 0
54 50 -98 0
58 -67 -92 0
27 -69 -58 0
-1 -2 59 0
-74 -43 68 0
18 -52 -82 0
-41 -56 -81 0
26 -29 -50 0
-90 28 -21 0
69 12 -82 0
93 43 6 0
55 59 -67 0
49 29 98 0
-60 -11 82 0
-83 70 -78 0
-2 5 29 0
81 -6 -42 0
37 -14 -13 0
-75 67 -38 0
81 -68 -91 0
-72 26 61 0
45 84 -79 0
-72 40 -51 0
-26 73 -95 0
29 -8 52 0
-57 -81 -58 0
-42 66 -25 0
68 -75 -33 0
43 -57 69 0
-56 -49 -97 0
-83 -7 42 0
42 -41 -40 0
79 45 3 0
60 -54 -97 0
-48 -60 -10 0
26 -24 68 0
53 -88 64 0
-28 80 18 0
-72 87 75 0
75 -6 42 0
94 -47 -57 0
82 -36 84 0
-81 -54 -86 0
73 87 36 0
91 30 19 0
-33 39 49 0
-83 39 35 0
-7 -19 -84 0
-54 -39 30 0
-78 82 -28 0
-87 13 -99 0
-73 -12 -28 0
17 -94 -2 0
-34 -92 93 0
60 -85 55 0
56 -95 -38 0
-39 -96 -75 0
40 42 43 0
-91 100 -3 0
38 47 32 0
75 -51 4 0
-49 60 97 0
-86 -85 27 0
86 10 93 0
3 -9 -28 0
55 -39 -73 0
-25 30 -26 0
68 -78 -93 0
-28 7 10 0
-50 -24 -11 0
81 31 -75 0
92 64 19 0
-5 -85 71 0
46 -78 -88 0
-2 -100 -20 0
76 15 -38 0
81 25 -60 0
63 -99 -18 0
-69 59 -7 0
-36 -95 -46 0
-28 -90 43 0
-23 -2 92 0
-56 -42 -64 0
9 -71 -39 0
80 15 -96 0
70 -19 -93 0
40 74 -85 0
77 50 17 0
-15 -57 -63 0
-88 -66 -68 0
35 11 -30 0
-52 -93 -69 0
-18 47 -95 0
18 43 86 0
-41 -38 -8 0
-44 -100 58 0
2 85 53 0
65 -28 89 0
-60 54 89 0
73 36 -95 0
65 85 -26 0
-84 36 -32 0
24 23 77 0
65 36 -31 0
95 -88 -69 0
-77 38 58 0
-77 -50 83 0
-9 40 57 0
35 -72 63 0
-85 40 -98 0
76 99 -43 0
-6 29 34 0
-52 -11 42 0
32 -6 80 0
-49 -99 91 0
69 -64 27 0
-74 -58 22 0
-62 -16 -15 0
-93 11 -15 0
98 -24 -13 0
73 61 97 0
38 95 -4 0
84 -2 31 0
83 56 -2 0
59 -53 -62 0
15 1 -20 0
-56 -82 -31 0
73 -47 -16 0
55 18 -99 0
-31 80 59 0
44 -3 60 0
62 22 -35 0
48 19 34 0
-52 -32 14 0
37 77 -15 0
65 -94 33 0
-61 -34 -20 0
91 54 69 0
53 2 -95 0
-39 85 -87 0
29 -2 -28 0
-37 -84 76 0
2 -7 39 0
-51 93 -55 0
-57 -61 -56 0
-29 63 24 0
42 -37 -99 0
17 -70 -56 0
2 54 15 0
-75 68 82 0
-35 -42 77 0
45 62 -89 0
35 81 -93 0
-35 52 64 0
-99 61 -43 0
-55 9 98 0
-20 37 -77 0
-15 -26 85 0
1 54 -20 0
-22 -67 18 0
48 -10 76 0
-65 37 76 0
47 -68 81 0
82 79 -42 0
-44 23 51 0
22 8 34 0
28 26 50 0
35 41 5 0
-39 -61 74 0
100 75 -57 0
-69 -41 -46 0
39 71 -77 0
16 -47 10 0
13 19 75 0
10 -15 61 0
-4 -19 -76 0
-2 -61 39 0
-9 -94 -32 0
23 -32 -68 0
-65 -81 -24 0
-41 -52 -79 0
-54 -89 -64 0
-26 -17 13 0
91 64 -67 0
-35 49 20 0
-34 -15 50 0
9 51 -22 0
61 -62 -51 0
64 -10 69 0
14 -62 95 0
-32 -38 31 0
-39 38 -87 0
-83 -22 -68 0
78 -61 60 0
-21 90 96 0
-49 -99 15 0
84 -40 35 0
15 -49 -64 0
31 -35 -12 0
36 77 -99 0
28 19 45 0
90 38 -71 0
83 25 29 0
14 76 -65 0
25 -8 -5 0
-87 -26 -42 0
-49 -71 18 0
-72 -83 -90 0
69 -87 -94 0
50 -1 24 0
-68 13 100 0
-26 -55 -30 0
-60 -13 -33 0
-33 53 79 0
68 -60 91 0
-70 96 -88 0
36 -17 76 0
95 86 18 0
3 30 -77 0
-58 -66 -92 0
41 51 -71 0
17 -48 66 0
-99 49 79 0
26 61 57 0
69 -34 -74 0
7 32 50 0
-19 42 93 0
84 -40 -60 0
-15 -13 69 0
41 27 -83 0
24 48 95 0
94 26 14 0
-98 -25 -13 0
24 -65 83 0
75 -78 -23 0
55 -80 -32 0
-35 99 -31 0
-49 -81 39 0
61 -30 64 0
84 37 77 0
62 99 9 0
-51 -21 64 0
98 68 10 0
54 63 -42 0
-72 -42 -32 0
4 62 10 0
58 85 31 0
-73 -84 -44 0
49 -45 -78 0
61 -17 -27 0
5 40 43 0
-13 46 64 0
87 -70 66 0
-83 13 -18 0
30 27 96 0
6 -33 49 0
13 -91 -92 0
91 8 -80 0
46 -30 81 0
-11 69 1 0
-81 40 84 0
68 55 72 0
-64 43 -19 0
25 -81 -92 0
5 -1 68 0
-17 95 12 0
79 86 19 0
31 -91 2 0
77 60 -48 0
12 42 -7 0
-67 17 42 0
-23 79 92 0
55 60 -82 0
-86 9 -84 0
-97 75 -62 0
-29 78 49 0
53 -60 32 0
-70 -16 48 0
-93 -36 86 0
21 -46 -76 0
-6 -67 -31 0
69 74 82 0
-43 -53 -60 0
45 -44 43 0
-60 -16 -39 0
39 36 16 0
58 98 -53 0
10 98 86 0
-100 -95 42 0
14 -68 -56 0
12 23 -22 0
-39 95 92 0
-18 83 -90 0
-14 98 20 0
56 88 -2 0
44 77 97 0
-62 19 -43 0
-33 60 40 0
-71 19 49 0
9 -62 -81 0
9 -48 -58 0
96 -72 -13 0
85 -23 -32 0
36 98 10 0
79 -35 43 0
-88 100 -48 0
37 -76 13 0
37 -87 55 0
-6 -14 97 0
-50 55 99 0
-42 -10 50 0
89 32 26 0
64 -60 -10 0
96 -43 -33 0
-97 47 -29 0
-88 39 -65 0
23 72 27 0
99 -23 45 0
-16 22 71 0
46 -33 -2 0
49 -52 -37 0
-41 -12 -56 0
-94 22 11 0
-14 24 15 0
1 -51 -42 0
-11 4 77 0
-43 99 5 0
84 -11 -92 0
-39 -70 82 0
-3 -1 -18 0
-84 82 61 0
-50 37 35 0
86 95 99 0
-53 -65 28 0
-14 -23 -37 0
67 85 -89 0
-64 44 8 0
70 -99 97 0
-63 93 -83 0
19 -84 28 0
-55 86 -32 0
-63 -2 44 0
-90 -57 -38 0
39 2 54 0
-68 1 15 0
-59 73 1 0
-31 40 11 0
-9 66 3 0
100 -55 -22 0
45 79 -85 0
89 -35 -38 0
