p cnf 100 360
3 17 -94 0
63 -54 99 0
67 -82 73 0
-79 -89 -13 0
70 -94 100 0
-39 96 47 0
-37 47 -27 0
-93 22 -7 0
-25 -86 -98 0
-8 35 51 0
97 33 -74 0
-9 -73 11 0
-44 99 91 0
66 -1 -50 0
-22 79 34 0
-99 -33 58 0
10 -6 -90 0
-96 -17 -84 0
38 -13 -48 0
-26 -18 9 0
74 28 51 0
-88 -87 -91 0
-61 51 -44 0
92 95 -42 0
60 14 -40 0
-25 -97 -4 0
-92 23 72 0
-25 26 -23 0
49 3 80 0
-60 67 98 0
-45 21 36 0
33 68 65 0
-19 -62 79 0
-3 -79 -56 0
-85 -29 76 0
80 -64 -3 0
11 -74 -64 0
-28 -16 43 0
45 -48 16 0
89 64 78 0
28 -65 3 0
-86 -5 -36 0
-4 24 -3 0
63 65 -6 0
56 76 29 0
39 -74 73 0
61 33 -65 0
36 4 -51 0
52 -76 91 0
72 49 2 0
41 -93 75 0
89 -97 -71 0
5 46 -42 0
22 33 68 0
71 86 -3 0
-68 -57 -93 0
82 58 1 0
-75 81 -23 0
-28 -2 57 0
92 -40 32 0
-83 -26 -66 0
-6 -57 -63 0
31 -18 -15 0
-68 -19 10 0
22 -29 -18 0
5 96 33 0
26 25 -90 0
60 3 12 0
54 19 -3 0
-65 -99 53 0
-6 19 73 0
-76 68 -65 0
71 3 -12 0
-34 -51 -69 0
-85 -66 -99 0
-68 -98 -26 0
-50 37 63 0
-28 -45 2 0
86 -51 -24 0
-18 -70 57 0
-98 43 -27 0
-94 -53 -82 0
52 3 -36 0
58 100 56 0
11 10 -61 0
47 99 -65 0
-17 -28 21 0
-42 78 -58 0
-15 39 27 0
35 -50 -63 0
78 -54 -6 0
-48 22 59 0
41 -26 10 0
16 -73 37 0
88 -9 -95 0
14 -64 12 0
-12 39 96 0
-25 80 41 0
30 80 -74 0
21 -92 -76 0
99 -32 5 0
-5 -69 -29 0
-46 53 -38 0
-37 -56 -73 0
81 -74 -84 0
73 23 20 0
63 -97 39 0
-95 81 56 0
-21 5 27 0
-77 -85 83 0
-85 -57 -63 0
17 -74 71 0
-40 1 87 0
90 -11 67 0
-63 91 -98 0
38 -8 15 0
-57 -16 32 0
57 -10 -99 0
-23 -88 50 0
90 85 92 0
26 69 -86 0
-59 10 95 0
6 -52 -75 0
-25 76 10 0
-88 29 1 0
70 -58 -12 0
88 -32 -57 0
4 45 9 0
68 37 4 0
-93 15 26 0
60 72 -74 0
-27 -81 95 0
-21 51 -47 0
-19 63 -56 0
97 -21 73 0
-84 -22 -20 0
-87 33 -58 0
50 4 70 0
-8 -44 -19 0
53 -73 -3 0
-91 30 -3 0
-70 100 -26 0
4 -71 65 0
-60 -2 57 0
-43 -65 35 0
-37 81 55 0
-64 82 96 0
-5 95 42 0
-9 7 -13 0
60 -79 61 0
-6 54 -61 0
-81 34 -96 0
82 -24 -34 0
-1 93 -57 0
4 42 56 0
32 29 53 0
-30 97 -96 0
-31 -8 22 0
58 -29 70 0
-20 28 -47 0
61 -79 90 0
-29 -55 -100 0
-87 67 -6 0
-98 -100 -6 0
70 14 76 0
68 55 16 0
-62 2 10 0
-78 88 -71 0
51 -65 -67 0
70 7 -40 0
12 -52 66 0
-31 51 -34 0
-59 77 -19 0
-13 -92 35 0
-34 21 100 0
10 65 -1 0
-52 2 -20 0
16 -76 81 0
-19 -32 -3 0
-87 42 -76 0
-55 -24 -90 0
-75 -42 -94 0
-70 -32 85 0
-40 12 -57 0
-87 46 16 0
2 -11 35 0
26 98 -19 0
85 -70 -30 0
70 -77 -28 0
-6 53 2 0
-7 -10 59 0
89 -86 -39 0
19 -100 53 0
100 36 46 0
-85 63 -61 0
8 -77 57 0
-53 13 -68 0
59 -40 -98 0
-90 59 76 0
-43 -71 -33 0
59 -93 66 0
16 -81 -57 0
-86 83 -25 0
-5 -15 -1 0
-53 -63 42 0
-37 46 -17 0
39 -74 89 0
51 -44 -45 0
72 64 75 0
-9 53 -84 0
-10 -41 67 0
62 80 -92 0
-1 -2 -50 0
93 95 19 0
-27 15 -1 0
60 -12 -44 0
24 11 -76 0
13 -10 50 0
70 -89 59 0
-83 70 -48 0
56 -29 -20 0
-55 -22 58 0
-87 -13 96 0
-26 -31 57 0
43 -37 97 0
-23 -47 4 0
16 43 14 0
-24 12 56 0
-72 -46 -96 0
94 -24 37 0
-83 62 98 0
73 55 64 0
36 42 -81 0
-37 -5 -31 0
77 63 45 0
-4 -13 100 0
64 -16 -53 0
46 -32 -23 0
-97 38 -14 0
19 -62 90 0
-66 -57 -1 0
40 96 97 0
37 42 70 0
68 23 -5 0
45 22 76 0
44 -97 -16 0
-81 92 40 0
98 -15 79 0
-74 -52 76 0
-4 91 49 0
69 -25 29 0
1 -30 43 0
-90 -20 8 0
66 85 91 0
-93 -3 -29 0
35 -76 -25 0
71 29 -51 0
-72 -47 91 0
-27 45 63 0
79 -80 -93 0
96 14 91 0
100 -40 -11 0
-23 -11 81 0
-6 46 -55 0
61 -44 -80 0
-79 49 -2 0
9 26 -28 0
-94 -49 -93 0
19 27 4 0
30 61 26 0
19 31 15 0
-66 1 -74 0
-43 -36 55 0
21 -43 -94 0
-71 59 -27 0
96 -58 15 0
17 15 46 0
-42 16 79 0
-85 -74 -61 0
4 -64 91 0
-33 -85 3 0
-34 -27 -57 0
-72 99 91 0
82 56 25 0
90 21 -91 0
12 -47 88 0
-50 -76 31 0
70 60 83 0
43 29 -44 0
-34 -79 64 0
90 28 -19 0
-32 -81 -49 0
-77 61 -45 0
-35 24 -84 0
25 -86 -1 0
-69 -20 68 0
94 16 -57 0
72 58 56 0
96 -58 47 0
83 41 -93 0
54 -12 -13 0
-8 -63 -97 0
-35 -44 3 0
78 -44 2 0
-72 49 94 0
17 -90 22 0
-45 -54 -86 0
-96 -38 -9 0
52 67 -100 0
-16 9 46 0
-21 34 -85 0
-20 -81 25 0
90 -60 -98 0
47 13 -60 0
64 48 62 0
-77 -76 78 0
54 34 66 0
34 40 -62 0
-28 -66 -22 0
90 -23 51 0
-46 43 58 0
-69 -15 41 0
-3 89 100 0
-18 -16 44 0
-25 -66 54 0
-12 -84 -18 0
-44 82 -64 0
78 -83 44 0
51 6 -48 0
-65 -95 -39 0
64 -60 -92 0
65 87 60 0
97 75 -55 0
22 64 -89 0
4 3 44 0
93 -54 31 0
84 -44 28 0
78 81 -29 0
64 -20 -86 0
57 37 -55 0
-39 -20 95 0
25 23 -52 0
-34 75 36 0
-92 53 -15 0
93 -50 -13 0
9 -26 76 0
66 -41 16 0
-3 11 -43 0
87 -79 -66 0
97 -61 -88 0
-45 16 83 0
-52 -4 -42 0
-3 97 81 0
-83 65 46 0
31 -29 -35 0
38 2 14 0
18 19 -99 0
48 35 -54 0
-11 -62 -60 0
70 -44 18 0
