p cnf 100 360
87 -21 -48 0
17 57 10 0
-18 -27 -48 0
-19 72 -61 0
21 -45 -29 0
25 -32 28 0
6 -69 -50 0
-79 -36 -28 0
19 -64 -28 0
50 -88 -97 0
5 -54 -52 0
80 -31 -30 0
-99 93 -8 0
-77 96 -2 0
40 35 83 0
86 -56 -96 0
-74 59 -92 0
-85 99 -83 0
18 99 -2 0
-17 -76 40 0
6 48 -85 0
-51 37 44 0
14 -72 19 0
-95 49 -30 0
-90 15 7 0
-27 -63 -88 0
-61 69 27 0
-91 -31 20 0
44 -46 -39 0
-84 22 -26 0
78 19 34 0
-48 30 -94 0
99 23 90 0
58 -13 83 0
-84 75 -8 0
31 33 97 0
-66 56 -91 0
4 6 44 0
14 -12 75 0
-6 -8 68 0
61 85 12 0
39 65 -18 0
-66 -47 -22 0
-68 -67 16 0
81 -12 -34 0
100 31 -54 0
-60 17 -62 0
-37 -41 -74 0
22 -7 19 0
74 8 -1 0
14 -11 -54 0
13 -3 -97 0
9 -98 90 0
-75 3 11 0
71 72 -39 0
52 -99 98 0
-92 7 -24 0
-37 -12 -30 0
94 -44 -66 0
-23 -91 -57 0
70 -36 -77 0
66 -55 4 0
-37 -92 -83 0
-94 -58 53 0
-30 -24 -40 0
34 -61 -17 0
50 90 -15 0
31 8 69 0
-68 -83 81 0
-40 -16 85 0
-15 -81 61 0
53 -70 -19 0
70 27 78 0
-84 -6 55 0
-82 76 -2 0
10 76 -40 0
99 6 -16 0
76 -23 92 0
-63 99 9 0
-62 25 -78 0
44 6 52 0
51 -25 -36 0
77 -76 -23 0
95 -67 43 0
-35 85 -36 0
-49 -93 -11 0
-50 -55 68 0
-48 59 -27 0
-91 75 -54 0
49 36 -67 0
100 32 22 0
-72 49 47 0
27 69 37 0
31 -38 26 0
-15 -73 10 0
-30 8 -80 0
-70 -21 46 0
95 23 90 0
9 -74 41 0
30 63 -84 0
95 -59 -37 0
-62 -6 27 0
84 41 93 0
-61 -18 -96 0
28 30 -53 0
-65 74 44 0
-60 95 -44 0
16 88 -21 0
-97 -87 -5 0
35 -9 98 0
48 41 -68 0
-48 -23 41 0
97 -26 99 0
-67 -99 -34 0
70 47 36 0
53 4 60 0
73 -29 -84 0
-61 89 44 0
82 51 -76 0
95 89 80 0
73 -54 82 0
83 34 -29 0
-86 12 -4 0
-8 17 -92 0
-70 -27 15 0
68 -46 66 0
-37 -62 -47 0
-62 94 29 0
-45 -73 -77 0
-50 3 23 0
-46 57 44 0
50 29 52 0
-58 -41 -50 0
-4 -46 92 0
-100 -83 -43 0
48 -90 98 0
-93 -9 -20 0
-89 -45 30 0
-84 -7 58 0
15 -52 27 0
-18 97 -90 0
-46 -32 72 0
-70 25 59 0
-66 -65 -47 0
-38 -40 27 0
31 97 -76 0
72 40 -91 0
33 -72 -30 0
8 69 -89 0
72 64 -45 0
-36 -81 78 0
-93 -18 41 0
21 -25 16 0
-6 12 25 0
-96 -20 57 0
4 28 -21 0
-73 43 62 0
-28 -97 -72 0
-13 72 -99 0
48 -52 -77 0
-87 -19 4 0
36 -18 -14 0
-42 11 -78 0
27 -83 -84 0
-14 -3 -2 0
10 -51 -77 0
57 64 34 0
-95 -38 84 0
81 38 -85 0
-77 85 -18 0
-60 -69 53 0
26 80 -54 0
15 83 -11 0
-96 -1 -30 0
80 -82 -95 0
-11 61 60 0
72 -49 46 0
-14 -55 -32 0
-45 -26 -62 0
-60 10 41 0
48 37 20 0
82 -88 19 0
-66 -2 -25 0
10 -67 29 0
76 60 49 0
-24 -89 70 0
-1 -100 45 0
16 22 -14 0
4 1 -24 0
82 -64 92 0
-39 -52 55 0
-30 -91 1 0
-54 77 -16 0
-25 -81 -98 0
98 -56 32 0
-27 -6 23 0
62 -52 -69 0
24 57 50 0
42 -36 14 0
-42 45 8 0
-38 -6 -56 0
36 -58 33 0
-53 -14 62 0
-42 95 -36 0
33 -83 -89 0
31 49 -57 0
18 -63 96 0
9 -72 12 0
95 30 67 0
88 -76 15 0
-53 -48 -23 0
-50 -58 -99 0
73 2 -37 0
70 -65 86 0
-64 45 61 0
-50 1 16 0
25 -41 -55 0
89 96 17 0
20 -70 -85 0
40 -7 -39 0
70 -9 5 0
5 -10 48 0
40 -94 22 0
50 -82 -36 0
-37 -16 27 0
-83 3 88 0
91 -50 -85 0
-92 99 4 0
64 -42 77 0
76 -90 -44 0
-18 53 -29 0
20 -12 40 0
30 -85 -75 0
37 -71 2 0
-13 69 34 0
-1 -19 25 0
-81 -67 98 0
75 -60 80 0
-84 -76 59 0
69 -12 -4 0
78 -34 24 0
-80 1 30 0
-29 -86 -34 0
-66 41 -34 0
94 33 -62 0
66 -44 -87 0
-2 -77 18 0
15 49 -22 0
12 7 -8 0
51 100 84 0
-22 56 9 0
-22 87 -54 0
-80 93 47 0
-51 50 -67 0
-19 -94 46 0
50 70 -16 0
2 28 -72 0
11 7 40 0
37 -48 -75 0
51 61 -62 0
20 40 100 0
-64 -18 85 0
-100 42 -43 0
-39 -60 -41 0
-40 61 -46 0
9 55 -64 0
22 1 32 0
-77 61 66 0
1 27 48 0
-70 44 -90 0
-49 90 65 0
36 -48 -47 0
10 91 25 0
-97 15 -53 0
14 -93 56 0
-4 -38 14 0
-69 54 -22 0
-86 -89 59 0
8 12 52 0
79 -53 -33 0
70 31 74 0
80 -11 18 0
23 -35 18 0
-72 42 -27 0
80 -63 97 0
-75 -72 68 0
-28 -34 -71 0
80 -11 -29 0
4 -3 -69 0
5 -99 -80 0
94 51 -2 0
-70 89 65 0
-35 36 72 0
75 51 58 0
-45 -57 -84 0
-34 -43 -39 0
-100 51 -48 0
-55 67 -72 0
40 27 18 0
-22 15 -77 0
60 91 -87 0
-8 -7 46 0
-51 59 -34 0
9 54 -85 0
-53 -68 67 0
5 -12 87 0
-16 43 -11 0
58 -74 -73 0
77 7 81 0
54 12 17 0
-72 -37 41 0
54 32 -41 0
65 74 90 0
-86 30 87 0
92 -10 40 0
40 -78 -17 0
61 83 -100 0
-50 -1 -6 0
73 30 63 0
37 -72 -5 0
-24 55 12 0
-12 -44 27 0
-99 -42 68 0
69 -75 55 0
85 -89 71 0
-70 63 -12 0
30 -5 34 0
-38 12 -44 0
52 -26 -57 0
61 9 46 0
48 50 80 0
-13 -45 -72 0
44 36 3 0
63 9 -51 0
85 11 37 0
-89 60 -74 0
47 -97 -61 0
89 70 -35 0
71 23 -36 0
-57 -8 27 0
15 41 -51 0
-62 97 -6 0
81 -6 -67 0
5 -81 32 0
-88 85 -68 0
-19 25 -13 0
-16 96 32 0
94 -26 -21 0
82 -10 79 0
-87 -17 -26 0
77 99 -30 0
-97 68 100 0
-81 60 44 0
100 27 91 0
-24 -83 94 0
8 50 -60 0
-94 47 -52 0
-64 -74 -17 0
10 -86 -63 0
29 -3 -95 0
