p cnf 100 360
-22 -27 -58 0
-35 -97 51 0
62 -40 52 0
-80 -25 71 0
91 -43 12 0
28 -55 -92 0
-5 -64 -51 0
76 19 -6 0
-55 5 2 0
-26 -90 31 0
-30 -17 33 0
18 77 -12 0
1 -59 40 0
66 42 75 0
-73 19 -26 0
-67 -43 88 0
-10 -26 45 0
14 -94 -8 0
-43 -23 8 0
32 66 85 0
-92 -80 -49 0
54 -70 -92 0
74 -73 71 0
69 96 18 0
-73 10 37 0
-19 -57 98 0
-80 -5 -54 0
92 -36 57 0
-61 97 -78 0
4 -96 -94 0
-8 62 -72 0
-50 1 -22 0
-19 50 6 0
-9 93 22 0
43 9 -42 0
-8 34 5 0
-79 51 -60 0
53 -12 82 0
-36 49 60 0
74 39 97 0
23 -62 -42 0
68 95 -93 0
7 55 -53 0
23 -2 95 0
-3 -79 8 0
-75 83 -99 0
36 -2 -35 0
-51 -12 72 0
62 -31 1 0
24 13 37 0
-64 -53 60 0
-1 38 91 0
-98 -38 29 0
-74 58 -60 0
-52 -19 97 0
88 56 25 0
39 -3 -16 0
-28 43 12 0
-35 62 -48 0
71 3 83 0
94 2 16 0
35 99 -45 0
-48 8 37 0
-18 99 -65 0
-75 -36 -44 0
73 94 87 0
29 -83 30 0
53 1 14 0
-9 -62 33 0
98 -26 72 0
-37 28 -78 0
-80 -58 -10 0
-93 -32 11 0
-93 -60 42 0
84 -14 -47 0
-28 -14 66 0
38 -19 -92 0
-80 -3 -74 0
59 -29 42 0
92 4 -41 0
63 -31 36 0
91 94 12 0
-44 68 53 0
37 9 85 0
-51 -87 -64 0
-64 36 -84 0
52 -8 3 0
65 40 -51 0
78 -3 -95 0
66 -85 -40 0
21 2 76 0
11 -96 -57 0
-9 94 -27 0
98 2 26 0
8 -65 63 0
25 -51 17 0
-47 93 33 0
32 76 69 0
36 -6 -37 0
-83 -66 65 0
97 -50 53 0
-81 30 14 0
-68 2 -22 0
-57 -67 -82 0
-58 -52 -95 0
36 59 -31 0
-26 -60 86 0
84 96 -99 0
-31 -72 -64 0
78 62 -73 0
49 50 -99 0
-85 86 -15 0
-25 76 -77 0
54 77 4 0
26 -58 -11 0
58 -20 43 0
-39 -96 -21 0
-93 3 52 0
38 67 22 0
-94 25 -56 0
-2 52 95 0
-98 44 -51 0
42 -74 27 0
-50 -67 98 0
22 -77 19 0
49 53 -42 0
-86 41 -7 0
-49 17 -21 0
64 -75 -76 0
57 10 56 0
-31 69 13 0
-93 -51 62 0
-96 63 -69 0
11 61 26 0
-28 -79 92 0
-92 34 100 0
88 -30 -90 0
15 -62 57 0
-90 16 -34 0
-72 56 -89 0
-80 10 -79 0
-55 -96 -73 0
31 -66 53 0
11 -55 -100 0
-24 -30 76 0
-84 -75 -38 0
91 -83 20 0
-6 96 36 0
-9 99 -19 0
-56 -92 -87 0
26 -61 64 0
11 6 -89 0
14 -41 -36 0
-59 -42 98 0
-79 57 46 0
43 6 -88 0
75 84 -63 0
-20 -85 -5 0
55 42 48 0
81 39 38 0
82 66 25 0
-11 21 56 0
50 -22 71 0
41 -40 46 0
-75 81 -87 0
78 -38 -28 0
37 40 -90 0
90 -68 -93 0
53 -44 68 0
44 -8 86 0
-51 91 -94 0
-26 86 -69 0
41 -70 -78 0
-31 -95 -5 0
14 48 -22 0
-51 46 30 0
17 44 -15 0
-90 -93 -96 0
-36 -37 -79 0
-65 58 -94 0
91 -81 67 0
100 28 -88 0
-23 -7 -9 0
23 -8 89 0
71 -55 -84 0
36 20 -97 0
-89 -42 7 0
80 -69 -55 0
58 -74 -40 0
9 92 -44 0
96 35 -75 0
69 -53 -61 0
-49 31 25 0
-34 -41 54 0
36 -54 -89 0
-6 -47 -89 0
43 55 -56 0
90 -94 27 0
-36 18 97 0
-76 -73 99 0
80 63 -34 0
-98 -11 -47 0
-77 -49 10 0
64 -21 53 0
6 49 83 0
-62 72 -69 0
-62 84 -26 0
16 47 94 0
35 -9 -83 0
-42 -25 -85 0
70 8 -16 0
79 65 95 0
80 65 54 0
-72 46 12 0
-62 -8 80 0
71 -7 18 0
29 92 89 0
-1 79 21 0
-65 -57 -29 0
39 -17 92 0
-80 31 85 0
-47 -43 72 0
-11 -27 34 0
21 -48 60 0
-52 -3 22 0
-93 73 39 0
32 95 12 0
-26 38 46 0
91 30 -38 0
-3 -54 22 0
-87 -59 52 0
60 95 22 0
-2 -21 -10 0
-22 -98 -13 0
2 -82 -100 0
71 90 86 0
-100 -32 80 0
24 80 -29 0
15 48 -50 0
-5 16 6 0
43 52 35 0
53 71 25 0
-78 52 71 0
-9 -84 20 0
-55 84 7 0
34 -29 90 0
-91 68 32 0
-36 2 72 0
-95 -80 -8 0
17 -66 53 0
71 -99 12 0
98 -76 70 0
-32 -27 16 0
57 -26 -71 0
-11 -12 -26 0
19 45 4 0
-51 82 -29 0
51 73 -2 0
86 -1 -99 0
19 57 24 0
-68 -82 -51 0
80 -20 26 0
-78 23 -86 0
29 -62 9 0
4 95 51 0
-78 -69 -36 0
21 -40 -27 0
-72 69 -54 0
-8 85 -81 0
-24 -56 55 0
-97 -10 85 0
10 -20 26 0
-29 85 -78 0
73 18 -33 0
23 42 91 0
-59 -98 36 0
-67 -90 6 0
-7 38 -75 0
-3 85 -73 0
48 5 50 0
-21 11 -27 0
-37 91 -72 0
23 82 -40 0
-20 7 -91 0
-30 67 -25 0
12 -72 9 0
5 -54 -13 0
-89 -61 82 0
-6 -44 -24 0
64 -13 -82 0
-72 -65 -11 0
6 -38 -36 0
-48 30 -11 0
82 21 -46 0
11 -48 -23 0
-13 67 27 0
-84 -29 53 0
3 34 -54 0
59 80 -91 0
80 -89 -93 0
34 -63 62 0
21 86 -59 0
-59 -30 43 0
-41 88 56 0
72 80 36 0
8 35 31 0
42 21 26 0
63 42 -58 0
15 -72 86 0
-88 -9 30 0
95 -69 -76 0
84 60 23 0
-1 36 -35 0
-70 62 -11 0
-3 -16 -64 0
95 46 -42 0
-37 -67 -13 0
-67 79 32 0
16 -38 23 0
-29 -85 40 0
24 57 33 0
-5 73 -21 0
73 -7 -68 0
8 -37 -19 0
-8 -100 85 0
33 -93 9 0
-5 95 -12 0
-94 -26 55 0
-46 80 -57 0
-72 -54 16 0
91 10 -40 0
100 22 78 0
-36 -48 -19 0
100 67 63 0
-3 -90 52 0
-58 -79 -90 0
54 -92 88 0
63 9 -5 0
79 -41 -5 0
-44 -89 -6 0
-10 -73 -93 0
-71 41 -55 0
-8 -12 -31 0
-59 -47 12 0
-38 -29 47 0
-80 -53 -32 0
57 -37 -32 0
11 -79 -6 0
27 97 91 0
-75 -97 86 0
-31 -77 -9 0
95 37 -40 0
-15 -69 -91 0
29 -40 -73 0
92 31 12 0
54 79 -25 0
39 -59 61 0
-27 43 51 0
33 1 90 0
-27 -75 -39 0
