p cnf 100 415
-93 69 -2 0
74 -13 -19 0
-64 -1 18 0
-38 37 -33 0
55 15 73 0
42 35 -3 0
31 14 -39 0
64 58 -88 0
75 13 29 0
-86 -91 94 0
-50 -85 -44 0
51 -72 -28 0
72 -8 -41 0
-72 98 74 0
7 18 46 0
82 94 -46 0
11 72 -13 0
17 94 80 0
39 -50 48 0
-75 -38 89 0
78 23 -90 0
-12 44 100 0
55 93 45 0
100 68 61 0
84 -88 45 0
86 51 14 0
-96 -4 41 0
-59 -73 -83 0
-26 32 4 0
-63 31 -46 0
55 98 54 0
99 -21 96 0
-17 42 -6 0
-72 20 64 0
40 -52 -35 0
-88 32 -94 0
29 -68 48 0
-44 -81 -30 0
-75 81 -15 0
-9 -31 -55 0
7 34 -92 0
-9 11 4 0
67 -100 45 0
65 -52 -20 0
-78 -10 -3 0
29 -13 -99 0
55 -77 31 0
-11 -38 73 0
51 72 34 0
23 -20 46 0
59 -32 100 0
3 -70 83 0
-27 -29 -62 0
-55 -38 41 0
-67 -9 -93 0
-4 -53 -45 0
-89 -100 -64 0
68 -30 -66 0
-99 55 19 0
29 -52 -91 0
-54 57 12 0
-17 -85 88 0
-10 64 55 0
30 82 -10 0
51 91 -28 0
-39 -9 -75 0
17 -80 83 0
-32 -57 34 0
29 65 -30 0
-11 -46 -16 0
-84 100 -24 0
68 26 44 0
-6 40 -38 0
38 52 -56 0
62 79 49 0
52 19 -61 0
-39 -18 -44 0
56 -19 82 0
-20 -70 -35 0
55 -59 85 0
9 -73 -21 0
93 58 -40 0
72 38 -18 0
-1 -98 16 0
-98 -12 66 0
-14 38 -22 0
-88 -48 -98 0
-79 64 35 0
-89 79 -86 0
19 -65 43 0
-52 -30 -42 0
87 80 55 0
-1 43 -17 0
-72 36 71 0
-37 19 -61 0
-63 -84 -15 0
60 26 19 0
97 -31 38 0
17 -71 -38 0
45 80 83 0
95 100 14 0
92 82 -47 0
-97 43 63 0
7 -21 -64 0
27 -32 67 0
38 -14 87 0
-38 28 55 0
-13 -36 -31 0
89 -10 -9 0
-46 -66 -44 0
83 -96 76 0
47 -36 54 0
-9 -32 -95 0
19 -41 58 0
-23 32 25 0
37 31 62 0
2 100 -84 0
70 42 12 0
6 11 98 0
21 59 -10 0
94 93 78 0
40 -41 69 0
27 51 -84 0
54 82 40 0
-72 -93 42 0
-32 -27 69 0
50 -63 -72 0
-9 24 95 0
73 -57 -85 0
61 18 -25 0
20 -45 41 0
-84 42 8 0
86 22 -10 0
4 -60 64 0
79 56 45 0
-100 70 92 0
-2 24 -71 0
-94 -56 22 0
16 -90 25 0
-87 -81 89 0
-62 5 -12 0
79 18 -98 0
-12 72 93 0
99 83 98 0
-1 -53 68 0
61 74 -50 0
-18 -31 -55 0
14 84 54 0
-83 -32 35 0
-82 57 -50 0
-44 -64 15 0
32 98 -78 0
97 22 -34 0
1 91 15 0
30 38 96 0
-67 16 -40 0
46 -73 74 0
-74 -56 -98 0
-77 74 -3 0
90 -86 -38 0
82 71 83 0
-30 -91 21 0
12 -72 -73 0
-11 40 81 0
-1 85 -55 0
-83 67 -45 0
34 -7 5 0
93 30 94 0
99 15 12 0
97 22 69 0
25 -96 19 0
-61 7 57 0
36 4 60 0
-11 99 -42 0
17 -30 46 0
41 -17 31 0
-44 -52 33 0
29 74 42 0
19 31 36 0
-57 19 -46 0
62 73 -93 0
57 -92 74 0
-72 -15 -81 0
74 31 -77 0
23 -24 84 0
-8 6 -55 0
-18 34 -4 0
-69 -98 -87 0
81 38 -37 0
-60 -31 -76 0
57 -35 -36 0
86 93 21 0
53 -44 -21 0
-45 10 15 0
-54 27 58 0
58 -56 23 0
-58 11 10 0
69 2 68 0
18 41 -85 0
92 -43 28 0
52 -34 46 0
76 57 -65 0
85 -35 46 0
47 -4 -58 0
48 74 -42 0
82 73 -35 0
-60 -40 65 0
19 -34 -81 0
-9 -45 -67 0
33 -55 12 0
29 21 38 0
85 94 91 0
36 90 10 0
-12 84 85 0
-4 65 -93 0
30 -57 -45 0
84 2 -73 0
54 75 -71 0
-13 73 -69 0
-82 26 85 0
-66 27 -57 0
93 25 100 0
26 -82 16 0
59 50 -47 0
-38 65 75 0
-86 -27 92 0
-56 74 21 0
25 -70 -68 0
-39 18 27 0
99 52 -50 0
49 -20 -4 0
20 -23 31 0
34 44 -17 0
3 96 -50 0
93 -62 -98 0
-22 94 80 0
58 16 4 0
94 84 -56 0
-82 69 -47 0
-26 -28 6 0
-6 -48 -63 0
-92 -10 -83 0
-70 60 64 0
15 -1 -16 0
-90 12 75 0
42 -17 -58 0
3 -77 -16 0
5 -52 57 0
-9 -59 71 0
-4 77 53 0
-55 -3 -65 0
6 89 59 0
-41 -15 20 0
-27 -48 77 0
-89 65 -43 0
60 -51 -84 0
-55 -59 30 0
-69 -41 -36 0
-99 82 45 0
75 -61 -67 0
-25 -47 80 0
58 53 75 0
47 -3 96 0
31 -85 44 0
-45 -20 -69 0
25 -79 68 0
-92 74 -86 0
-72 -49 31 0
-28 75 19 0
87 -44 93 0
-18 72 -4 0
88 -25 -54 0
96 -47 48 0
76 -59 75 0
58 -76 -8 0
-78 68 94 0
82 60 -84 0
-87 -91 -21 0
1 78 63 0
43 -78 -38 0
-82 67 -58 0
59 -73 -7 0
25 -52 -50 0
-53 82 55 0
-65 -83 80 0
-8 -87 12 0
37 98 -54 0
-16 38 -73 0
34 -73 4 0
-43 -63 -16 0
-63 -83 -46 0
-45 91 88 0
-88 -45 6 0
83 59 61 0
73 -93 97 0
-21 -61 53 0
-64 39 -43 0
20 -92 30 0
49 -77 -33 0
46 -56 9 0
-20 -1 -80 0
-36 81 -60 0
-18 20 49 0
-59 -41 -63 0
98 -100 44 0
-45 -3 19 0
-48 66 82 0
-99 -28 92 0
37 -63 88 0
40 23 68 0
-10 -76 -18 0
-45 48 3 0
90 -76 4 0
15 -83 90 0
-31 73 41 0
-68 -85 -25 0
-55 11 -67 0
-13 -38 -36 0
62 54 87 0
-78 47 -24 0
-21 30 -53 0
86 30 53 0
-78 -38 -19 0
74 48 98 0
-3 -12 75 0
-3 -78 14 0
-86 65 2 0
76 38 -42 0
61 72 1 0
47 -43 -75 0
61 54 -96 0
-38 -1 -39 0
-78 -100 88 0
-45 31 73 0
5 87 45 0
-52 -6 63 0
36 -90 -95 0
48 3 -30 0
-48 -28 -98 0
-46 20 8 0
-59 14 -22 0
70 89 -79 0
16 -80 21 0
43 -20 97 0
-4 64 -99 0
-85 26 78 0
-33 12 -9 0
47 35 45 0
30 14 11 0
-36 -45 17 0
76 64 -91 0
50 3 43 0
77 -20 -38 0
18 44 51 0
53 -30 13 0
86 28 -69 0
70 23 7 0
-78 -74 -95 0
85 55 40 0
-54 90 -60 0
27 19 38 0
-56 -59 86 0
-91 -56 -89 0
75 -34 93 0
80 55 60 0
-93 -35 -96 0
-50 -22 -39 0
85 88 -33 0
-99 90 -10 0
100 37 86 0
-82 13 12 0
22 -11 -10 0
38 2 75 0
74 -66 36 0
27 -67 -69 0
30 91 -34 0
-62 26 39 0
64 23 -16 0
91 -1 45 0
38 -10 -82 0
55 -69 73 0
-16 82 -9 0
-61 -13 -37 0
94 -19 -53 0
-79 7 -83 0
34 -35 -91 0
86 -12 -67 0
23 9 -73 0
18 67 -38 0
-78 -49 -100 0
-10 12 23 0
92 -89 -34 0
-77 46 86 0
-11 -69 -54 0
-20 -75 -35 0
80 56 -90 0
86 66 59 0
14 46 16 0
41 -1 -8 0
49 -100 56 0
84 -7 31 0
-73 -32 -51 0
45 -41 -65 0
-71 -43 50 0
-84 -93 -21 0
38 -26 -9 0
-11 -1 -96 0
38 19 -96 0
33 86 -74 0
63 -3 -21 0
-54 -91 2 0
-55 -90 -93 0
86 84 18 0
91 44 -65 0
-77 10 -20 0
