p cnf 500 1275
177 -9 -92 0
397 -30 -208 0
-340 -149 455 0
-163 422 38 0
-209 318 358 0
-65 371 264 0
190 -267 -110 0
-254 335 472 0
-263 -225 454 0
311 62 42 0
-106 431 259 0
-453 1 216 0
-400 -368 373 0
89 492 -290 0
232 -150 -457 0
-98 19 -265 0
-155 117 -96 0
-258 282 121 0
160 -166 294 0
-295 240 164 0
141 -121 409 0
-371 133 -313 0
-252 -432 -245 0
63 56 -99 0
-2 480 185 0
-99 179 34 0
392 -178 55 0
-322 319 -23 0
-64 65 -136 0
-158 207 -258 0
-64 -254 -439 0
-279 -147 210 0
-102 204 214 0
372 335 -434 0
137 -293 151 0
375 480 271 0
-14 55 266 0
-402 -101 33 0
-209 -241 -478 0
-431 -192 83 0
-50 -137 196 0
-343 446 -33 0
-447 -481 -468 0
75 194 51 0
223 -317 -200 0
-77 -22 -346 0
79 202 -320 0
-69 476 78 0
-321 -123 335 0
177 -309 376 0
62 427 322 0
52 -318 -321 0
257 31 -333 0
406 -39 -2 0
308 -209 488 0
-301 255 335 0
65 336 108 0
188 118 -443 0
-380 -395 492 0
-339 -149 49 0
-122 159 -166 0
161 306 -136 0
-297 116 32 0
100 98 -420 0
-222 -383 220 0
474 -450 -84 0
-64 255 245 0
55 -486 314 0
464 32 297 0
-464 138 -474 0
205 -486 -75 0
-274 356 -165 0
275 -432 31 0
404 170 24 0
477 -74 226 0
-126 -373 99 0
406 460 -143 0
275 -390 313 0
362 400 -321 0
-449 -21 -215 0
-6 80 -401 0
-364 269 13 0
-50 145 -183 0
7 -48 54 0
-266 -210 -215 0
453 -207 118 0
115 -421 127 0
74 -401 142 0
-319 366 324 0
7 -129 -224 0
150 -116 -283 0
125 -133 382 0
-278 424 -498 0
224 -113 149 0
-262 82 -450 0
427 80 -361 0
61 498 -15 0
151 -326 117 0
-359 -11 99 0
-433 -24 452 0
444 71 437 0
-376 -398 -417 0
8 -100 228 0
447 324 -209 0
320 374 -495 0
133 -307 -439 0
1 216 296 0
491 -380 -122 0
337 342 -73 0
-426 -266 185 0
-397 347 168 0
-412 -58 -273 0
-131 -313 -267 0
249 476 300 0
297 -19 -364 0
-244 -309 -427 0
463 255 197 0
-488 100 373 0
454 361 409 0
-379 3 -224 0
-127 -102 -90 0
-315 -84 -122 0
-339 16 -425 0
-481 -389 -476 0
432 -108 293 0
342 255 -236 0
465 30 270 0
373 -313 -168 0
-397 -115 269 0
250 -153 396 0
-95 -494 404 0
358 281 -246 0
72 281 421 0
114 52 428 0
-192 -79 202 0
-48 108 343 0
249 247 -143 0
-58 34 281 0
421 390 -99 0
492 287 278 0
-125 -345 243 0
89 -444 53 0
-150 134 -142 0
-335 245 246 0
58 43 477 0
-134 -396 -199 0
-200 457 -153 0
-332 237 -395 0
-481 -473 446 0
-225 286 -157 0
250 243 -495 0
34 -263 -328 0
-160 -241 -109 0
-250 -88 -151 0
-307 227 -16 0
-361 455 -244 0
384 -319 -309 0
182 -476 -446 0
-350 -451 -277 0
165 -40 234 0
-31 -145 -114 0
269 306 -454 0
-383 23 -331 0
-143 -348 160 0
-388 118 -130 0
-307 -58 -422 0
295 5 302 0
-462 207 -292 0
-69 442 -66 0
287 250 464 0
342 494 -305 0
6 290 322 0
275 271 91 0
-301 -355 231 0
318 396 -334 0
328 24 -500 0
-156 -181 -337 0
-405 -325 -230 0
-305 -70 -141 0
-220 400 251 0
352 -284 -328 0
-71 -479 -306 0
255 481 -331 0
139 70 59 0
-292 -18 245 0
304 -59 -193 0
450 -381 64 0
50 482 374 0
105 371 -475 0
370 -26 469 0
498 -303 176 0
-286 -374 -363 0
-267 -388 283 0
387 317 -223 0
-387 7 -199 0
-156 332 -185 0
407 -206 -466 0
181 -179 322 0
-432 224 -245 0
-470 -408 -126 0
-8 -355 482 0
-32 -39 -394 0
160 -213 -333 0
345 -99 -470 0
-245 88 -37 0
181 471 -274 0
-225 -143 61 0
497 102 438 0
-326 -335 305 0
405 150 280 0
471 125 -212 0
224 -455 -153 0
-171 94 -133 0
211 373 -223 0
-192 -90 -63 0
76 -170 304 0
56 -48 263 0
-228 -201 -171 0
155 -252 -437 0
-95 -306 -71 0
-371 -245 347 0
-308 269 -477 0
-496 407 -44 0
-102 394 -403 0
145 -253 -464 0
-75 372 -136 0
-452 475 451 0
16 380 -325 0
-447 -28 383 0
-218 69 -79 0
-93 485 -195 0
430 -185 -31 0
-311 19 -36 0
6 -72 332 0
165 -286 209 0
288 212 295 0
-314 260 37 0
-228 407 484 0
-481 -289 410 0
-109 131 -342 0
389 106 -10 0
406 386 408 0
202 -480 401 0
-392 16 276 0
309 -138 -416 0
-158 -234 -32 0
-422 384 -369 0
-151 214 -125 0
-15 258 301 0
243 -19 -319 0
402 352 -228 0
136 -465 495 0
68 -55 260 0
61 -454 -331 0
-357 -109 -295 0
-313 -386 -443 0
296 69 21 0
97 68 327 0
-76 -23 -398 0
-217 82 -245 0
404 -345 -78 0
-94 82 -6 0
118 344 -300 0
-389 -78 76 0
-418 -229 113 0
-276 328 459 0
495 -156 251 0
491 -306 -286 0
-418 -37 204 0
-86 329 -500 0
-235 152 -169 0
-58 257 40 0
-116 100 -113 0
213 -307 216 0
-65 485 -272 0
82 416 84 0
67 -342 79 0
-476 87 1 0
-454 40 -180 0
48 -308 232 0
472 -36 -291 0
257 -458 97 0
42 111 -234 0
430 -404 -93 0
128 -276 -382 0
253 481 36 0
-231 -237 -188 0
-211 411 -327 0
-165 -75 -138 0
-117 329 -43 0
-285 -166 -25 0
-84 334 -240 0
-81 278 321 0
-38 104 -42 0
7 -436 -279 0
45 -148 -182 0
-291 122 73 0
138 -462 -253 0
-348 -487 -128 0
-178 -85 -330 0
94 460 100 0
-325 -136 376 0
107 120 -398 0
-153 104 215 0
57 243 109 0
467 -321 -25 0
-245 253 108 0
469 194 -204 0
-411 81 -352 0
297 -317 421 0
-391 -202 -242 0
374 -477 277 0
280 -199 308 0
48 212 -306 0
-106 -112 31 0
-198 107 -129 0
-402 155 51 0
123 -3 113 0
-485 204 90 0
153 -1 380 0
455 -446 -375 0
-384 -388 453 0
55 -469 -104 0
488 -490 -167 0
-3 326 -136 0
-347 -16 -459 0
366 379 220 0
-261 -358 123 0
414 -134 -389 0
-212 -175 231 0
-460 -119 50 0
-348 -459 -41 0
-262 -71 420 0
-371 303 -199 0
-71 -5 -134 0
-169 -211 372 0
-161 -40 -302 0
237 363 -399 0
356 -310 456 0
276 -255 122 0
-36 469 -101 0
-85 -473 187 0
-60 -448 30 0
-139 112 -81 0
341 -405 411 0
-117 -58 219 0
449 352 -369 0
167 318 -58 0
399 -26 392 0
-59 176 64 0
-218 -219 262 0
-314 23 170 0
-204 -67 480 0
-500 497 -463 0
272 473 38 0
-14 8 -322 0
-352 338 -277 0
-129 -468 190 0
118 87 -297 0
421 -298 403 0
422 -323 -321 0
-134 -38 -405 0
-423 370 391 0
347 100 -19 0
178 269 -379 0
263 -243 -440 0
85 353 268 0
-456 396 488 0
-499 -45 4 0
271 126 392 0
5 162 -14 0
-335 457 -329 0
351 -57 67 0
60 32 83 0
491 110 -248 0
264 -118 -128 0
224 -280 -335 0
-209 -364 185 0
-131 -57 -166 0
-212 43 -460 0
221 24 356 0
256 -112 -162 0
206 297 -196 0
-348 136 107 0
75 190 362 0
469 32 -306 0
-492 117 321 0
-68 252 191 0
142 337 276 0
420 -496 429 0
-84 119 365 0
-77 -11 -403 0
-346 -21 250 0
253 60 -478 0
115 -8 208 0
201 328 174 0
163 132 -14 0
-108 306 -53 0
-119 -276 218 0
416 -194 400 0
300 -197 -284 0
-67 205 261 0
301 220 312 0
20 -144 -299 0
-169 17 -304 0
-124 429 -189 0
-421 -115 -414 0
61 -348 377 0
305 -85 67 0
-44 -328 -43 0
-407 432 95 0
-329 -227 352 0
132 -52 -134 0
-270 473 182 0
47 409 229 0
-212 -288 418 0
-311 -172 33 0
5 -106 -299 0
-386 279 -16 0
-85 -316 -87 0
-175 392 -206 0
81 -44 105 0
-371 -260 -194 0
-306 329 -52 0
-380 228 210 0
-378 -363 -487 0
352 -19 55 0
-144 -439 301 0
50 282 -195 0
-336 -231 348 0
238 -101 191 0
-326 309 499 0
-196 -300 -498 0
-183 367 271 0
-234 79 -438 0
33 -361 437 0
301 -57 -83 0
-343 -25 71 0
384 437 3 0
48 -136 -156 0
111 -431 -247 0
-50 -44 -215 0
-245 267 -141 0
-106 -256 -19 0
-252 168 -15 0
-142 -129 21 0
-236 -288 192 0
180 -244 126 0
-205 439 -489 0
-304 120 -340 0
106 289 346 0
174 -109 217 0
-61 -304 -449 0
478 187 245 0
-205 100 -491 0
-181 11 304 0
-298 431 -498 0
-457 99 -142 0
-262 451 428 0
-408 -153 416 0
455 -248 -46 0
287 -6 200 0
6 239 -289 0
-379 287 -393 0
-440 149 -302 0
-422 -453 -67 0
-416 -205 -88 0
-230 -68 -173 0
484 73 -182 0
340 494 -116 0
318 448 305 0
-434 -156 317 0
482 320 223 0
199 249 75 0
45 -182 -105 0
-335 -208 427 0
-35 -325 46 0
-220 287 -206 0
-300 -380 146 0
390 125 87 0
-97 -273 -454 0
-252 -477 -184 0
-484 -308 -275 0
-152 -481 -171 0
241 -263 -375 0
-197 288 -285 0
340 256 -307 0
-111 -141 -257 0
-37 -43 -159 0
-84 -397 -128 0
225 117 366 0
126 215 379 0
162 -312 -109 0
217 -59 -220 0
-474 -355 352 0
317 182 -223 0
-95 -87 18 0
-176 -270 316 0
277 -460 -68 0
413 426 -10 0
-282 353 418 0
-343 127 195 0
-241 -300 67 0
94 341 -13 0
-208 -459 -32 0
-442 -262 -129 0
36 134 187 0
-470 -6 -320 0
-299 379 393 0
-259 18 320 0
424 381 227 0
-58 -97 -475 0
71 334 -164 0
11 219 -213 0
-8 -209 -278 0
-7 -62 204 0
-59 328 -159 0
-90 -364 -217 0
-419 370 -1 0
346 303 487 0
89 188 -473 0
-351 251 352 0
-443 -199 234 0
475 -312 -39 0
482 464 -223 0
-204 -79 -69 0
387 31 371 0
-437 77 462 0
392 166 426 0
301 398 -357 0
429 -409 441 0
11 -184 12 0
-243 -180 -164 0
-212 -429 -42 0
-284 402 365 0
407 -231 57 0
-21 325 -212 0
475 -388 -204 0
460 166 27 0
-494 261 -75 0
442 -266 -377 0
410 440 -149 0
-467 -318 -275 0
411 -453 203 0
-169 227 430 0
-359 -144 -183 0
363 331 -53 0
-423 -299 -466 0
-49 287 31 0
-390 227 -447 0
-19 348 156 0
24 417 251 0
75 262 498 0
-295 -243 414 0
-388 -494 -485 0
-147 55 336 0
29 442 -93 0
431 450 -416 0
-489 -274 73 0
-469 -82 323 0
-105 487 414 0
82 -444 116 0
-295 187 155 0
6 -157 199 0
-63 -15 -24 0
127 277 -240 0
-334 9 483 0
209 385 -44 0
319 100 218 0
491 394 -128 0
372 195 341 0
-170 188 -57 0
473 -414 -273 0
84 435 448 0
-44 -134 336 0
230 357 -289 0
-440 -80 -256 0
342 253 483 0
-319 -447 -151 0
-432 -118 -351 0
394 -137 -1 0
-309 459 215 0
-90 1 159 0
-432 2 -25 0
-188 183 373 0
-391 138 -315 0
-320 -271 341 0
-480 168 196 0
-467 57 334 0
379 108 -199 0
-48 -117 -382 0
-373 133 391 0
-484 -446 -32 0
-4 460 -238 0
421 459 -441 0
-120 -385 164 0
-244 -40 -302 0
344 -423 -333 0
-275 409 -475 0
50 246 68 0
-398 84 118 0
11 -247 183 0
205 240 -440 0
70 316 488 0
170 -340 -200 0
-384 -55 -245 0
-417 292 -435 0
130 -329 372 0
248 -306 484 0
-325 414 175 0
-111 487 439 0
-78 253 355 0
-314 270 204 0
147 -342 -96 0
-84 -460 150 0
45 78 -147 0
362 -383 327 0
-105 321 -326 0
302 -324 -198 0
-116 -281 -218 0
-308 -262 -460 0
-162 -112 -15 0
203 448 -76 0
65 357 319 0
175 332 -150 0
467 -202 462 0
102 -368 -301 0
-261 117 428 0
-314 357 466 0
331 363 -292 0
-174 -99 255 0
96 -498 -116 0
165 -168 -414 0
314 -419 -424 0
162 182 475 0
165 -469 459 0
28 -260 -209 0
281 -228 90 0
416 -332 497 0
209 469 -234 0
350 383 190 0
444 -272 1 0
-424 -415 -334 0
62 -276 259 0
-198 -340 200 0
-86 -493 244 0
441 271 297 0
-339 376 4 0
220 -367 262 0
109 444 -216 0
-50 -440 -198 0
320 451 -403 0
-432 15 -52 0
-499 500 -234 0
-170 -86 348 0
-255 442 470 0
441 -408 43 0
-52 -302 214 0
422 445 -351 0
-226 362 46 0
-29 -401 380 0
96 243 262 0
311 367 168 0
-158 441 -31 0
288 307 31 0
-9 -243 -335 0
420 -226 -470 0
499 283 72 0
-242 -146 62 0
97 -346 -459 0
-387 -99 -83 0
136 -105 -348 0
-416 -359 -486 0
141 136 324 0
464 104 473 0
338 492 -57 0
403 319 428 0
205 485 36 0
71 184 421 0
-447 -497 -444 0
-343 -46 361 0
-309 -428 189 0
379 217 -236 0
-74 -381 -487 0
467 493 60 0
448 -484 364 0
-350 344 -327 0
120 365 -364 0
-387 228 -406 0
-83 157 -286 0
30 -466 13 0
-272 342 -382 0
-297 285 364 0
171 -380 205 0
364 -76 -92 0
82 -179 480 0
224 195 485 0
-410 -299 -205 0
24 392 94 0
-289 215 254 0
304 -134 380 0
-261 140 -318 0
457 -361 -237 0
-118 -139 -459 0
67 -134 -25 0
-325 69 343 0
-79 496 -432 0
-398 131 -440 0
-325 -91 136 0
107 -254 92 0
71 58 -99 0
9 -91 169 0
476 441 -446 0
-481 -187 -142 0
-309 -37 -40 0
-284 -278 -266 0
-144 -99 321 0
-19 192 -189 0
-99 397 -491 0
26 -342 -500 0
223 88 479 0
-231 54 -81 0
-258 479 -129 0
158 -354 485 0
462 -102 342 0
-476 -121 -292 0
-397 416 -88 0
-403 175 -210 0
416 -147 -13 0
-281 -106 -2 0
39 -456 -131 0
-185 -120 -33 0
484 386 -87 0
-315 268 -363 0
70 -188 -218 0
-73 -226 388 0
-475 -392 305 0
-348 -80 475 0
373 -155 117 0
381 378 454 0
473 216 308 0
-291 -342 -123 0
-105 -263 49 0
274 -46 39 0
256 244 325 0
-390 327 -187 0
10 -299 -369 0
280 -209 346 0
322 416 211 0
-72 -177 323 0
-249 -21 -224 0
-397 251 -253 0
34 -211 -59 0
407 318 428 0
-260 248 -169 0
-68 -259 373 0
-459 -133 -429 0
197 223 -155 0
-299 338 370 0
-240 -303 285 0
271 38 -223 0
340 329 -128 0
64 242 21 0
-473 -60 499 0
-376 331 287 0
-165 -211 488 0
-426 -207 -134 0
-30 -295 -473 0
248 246 -288 0
280 -334 -1 0
271 495 -155 0
20 -278 -432 0
145 5 45 0
235 317 348 0
-413 20 -434 0
-353 446 -346 0
-226 -104 -371 0
-392 5 206 0
252 -146 355 0
-327 460 -206 0
414 443 386 0
-103 -118 397 0
495 -458 120 0
122 244 448 0
-445 -426 -382 0
-31 354 -257 0
-139 289 269 0
391 362 410 0
331 -237 14 0
-162 388 -105 0
-470 -210 487 0
366 468 127 0
-249 -107 384 0
-418 -335 -309 0
-323 -239 -467 0
-249 -193 299 0
443 -288 7 0
302 268 -15 0
-11 -143 130 0
-245 -225 494 0
376 -87 499 0
94 460 289 0
-232 -298 127 0
-301 -246 464 0
52 -141 1 0
50 -309 236 0
-119 -443 313 0
376 366 -143 0
324 -407 -481 0
-468 -467 281 0
-307 -325 299 0
-389 277 98 0
341 16 -285 0
-459 -368 -469 0
-36 -234 210 0
-91 -226 419 0
-264 180 -456 0
-377 84 -330 0
24 -487 432 0
-188 -17 -123 0
32 -21 214 0
-269 -353 7 0
-435 453 -279 0
181 -255 145 0
-463 364 -316 0
60 -36 -50 0
330 415 317 0
-421 61 122 0
197 228 -142 0
-328 -166 -462 0
4 -82 -491 0
-190 -253 275 0
10 -17 272 0
165 -265 167 0
-131 -191 -24 0
177 384 -271 0
127 -387 -410 0
446 -127 263 0
265 65 108 0
-20 -128 -217 0
19 26 430 0
-341 292 -299 0
150 -385 -113 0
448 246 -124 0
-477 -243 -190 0
-201 -172 -452 0
101 380 -261 0
-498 196 -345 0
-327 -266 -195 0
-426 46 -187 0
50 -431 2 0
403 -311 394 0
-63 -494 455 0
474 -140 -275 0
-174 -163 176 0
-132 -327 -252 0
8 495 -348 0
380 -361 -248 0
-468 496 -166 0
413 289 156 0
402 -264 247 0
417 -90 -280 0
380 328 48 0
-430 228 494 0
309 288 482 0
219 294 -154 0
440 -134 -285 0
213 174 -368 0
280 85 255 0
12 35 253 0
-203 426 118 0
-181 97 326 0
436 500 -119 0
-84 -449 148 0
-107 -74 -245 0
372 202 -314 0
-123 -416 -22 0
-50 173 269 0
240 -273 -480 0
268 45 -324 0
179 -294 74 0
269 -68 332 0
260 -206 466 0
-359 -25 -179 0
-288 -255 383 0
264 345 -169 0
-404 -52 -467 0
378 -231 385 0
-218 301 113 0
417 286 -157 0
-202 115 -389 0
419 -145 192 0
373 31 353 0
-48 -27 -421 0
128 -498 247 0
-76 271 -316 0
-339 338 -412 0
-115 212 -162 0
-177 -141 476 0
81 -195 59 0
147 49 456 0
369 146 -141 0
219 153 23 0
-478 241 79 0
282 89 -164 0
-164 -279 414 0
321 236 324 0
264 -239 175 0
-433 -271 158 0
-333 259 -160 0
-154 -249 252 0
270 -464 -256 0
-257 186 -340 0
162 -290 -406 0
-312 -279 -350 0
458 -165 -130 0
-490 232 -227 0
54 -218 78 0
442 31 -128 0
-394 -228 121 0
374 -134 -125 0
-53 492 46 0
439 -460 194 0
-434 -109 -387 0
100 338 -420 0
-246 -158 -3 0
287 185 -112 0
346 -95 -188 0
-114 -491 365 0
318 -104 -252 0
-263 -227 -19 0
-225 316 155 0
-9 435 -51 0
-79 130 -470 0
-319 -480 3 0
334 430 -254 0
116 -183 433 0
-9 462 -495 0
255 -171 75 0
-66 -493 205 0
201 213 226 0
442 380 -290 0
333 -431 -371 0
184 -127 358 0
234 -376 -141 0
19 166 462 0
298 30 -95 0
-397 -16 -453 0
82 362 311 0
-366 -416 99 0
-122 271 -136 0
-184 -257 -419 0
-449 -224 2 0
51 79 21 0
-419 -211 -469 0
331 459 -277 0
402 -100 190 0
-131 -73 62 0
88 249 216 0
-386 477 384 0
-276 -109 352 0
-268 487 217 0
373 206 461 0
-324 155 -342 0
409 1 440 0
453 43 461 0
320 -197 -449 0
411 -79 392 0
-405 107 13 0
-469 17 234 0
-289 -433 210 0
-176 -390 -183 0
71 244 84 0
23 -152 62 0
337 -318 245 0
359 194 -89 0
-25 467 253 0
241 -367 -157 0
-348 -178 106 0
490 478 211 0
387 266 -344 0
-168 472 -222 0
-31 -452 163 0
420 -462 -6 0
175 62 -127 0
173 360 -487 0
239 303 -72 0
386 166 443 0
272 83 -50 0
-354 328 304 0
-406 236 63 0
355 -230 243 0
125 182 187 0
200 418 149 0
-199 -427 -198 0
356 99 -270 0
-33 -354 23 0
-63 -467 443 0
-270 -350 367 0
-335 -17 -58 0
423 -189 -361 0
36 474 133 0
-297 -399 -317 0
441 138 103 0
182 -168 -269 0
-403 -221 119 0
-124 -62 -202 0
51 -191 -307 0
-341 464 378 0
402 -435 73 0
259 148 352 0
-142 372 -498 0
138 -387 -133 0
57 15 -175 0
88 -275 93 0
-490 -340 230 0
-150 -99 415 0
-361 -124 -48 0
-383 471 -311 0
-435 -249 -483 0
-214 93 185 0
-190 -243 -201 0
-38 -157 492 0
-245 67 120 0
257 -370 51 0
-14 270 -315 0
384 330 -374 0
117 380 445 0
43 -349 -66 0
88 -246 391 0
451 350 -161 0
-410 217 24 0
-281 221 -259 0
-7 -184 -51 0
-49 -232 240 0
-353 181 173 0
-432 277 -318 0
181 359 -361 0
-181 -313 -303 0
132 258 493 0
-286 194 -134 0
201 466 -39 0
-199 -240 -397 0
-495 -457 -79 0
-135 -170 462 0
424 -47 144 0
235 -387 143 0
461 268 314 0
-58 110 -123 0
108 -361 -63 0
51 333 455 0
48 -465 211 0
388 -29 256 0
-61 37 -50 0
469 334 53 0
179 414 62 0
-481 301 26 0
366 -295 413 0
85 -23 304 0
237 -337 -343 0
419 -383 258 0
-45 -194 -16 0
27 -416 203 0
104 -90 371 0
235 274 301 0
200 -39 369 0
-320 -165 120 0
277 -465 -417 0
-55 242 -223 0
134 166 -401 0
175 -329 -322 0
95 110 30 0
55 248 127 0
351 396 -249 0
-156 -101 -476 0
256 -126 44 0
496 -100 -122 0
-277 -283 220 0
-68 -76 -101 0
-109 -405 167 0
233 203 184 0
498 -351 9 0
465 -369 -431 0
-462 -79 70 0
-476 -394 95 0
241 396 179 0
-89 -28 100 0
-217 3 -415 0
230 -491 376 0
-230 -58 367 0
-335 -285 -18 0
368 120 462 0
329 312 -22 0
-264 242 -32 0
-453 236 -388 0
-275 -345 -306 0
271 265 146 0
-202 -494 -204 0
-215 422 -55 0
-347 295 -212 0
447 -216 11 0
23 62 -434 0
-125 -171 -398 0
286 -317 445 0
402 173 -419 0
-417 447 493 0
-338 -378 196 0
121 -462 -165 0
3 473 -137 0
-169 -128 -450 0
199 447 -353 0
352 1 -437 0
-442 -327 -106 0
48 262 33 0
-100 3 -243 0
306 -83 299 0
-417 138 486 0
465 -277 95 0
209 -351 203 0
226 486 -63 0
-120 -28 477 0
-455 377 39 0
279 -421 -426 0
-69 128 -281 0
-289 -1 67 0
130 311 131 0
-357 109 -21 0
469 133 -84 0
-414 99 125 0
-22 151 407 0
-251 185 -56 0
-440 495 -278 0
183 -479 129 0
25 -146 -194 0
-458 485 312 0
-62 -87 -429 0
482 -9 -190 0
146 -484 162 0
466 27 -145 0
-176 214 448 0
135 -160 -44 0
384 -368 485 0
-197 -424 366 0
282 -212 -434 0
-39 340 21 0
-446 -44 452 0
-122 -456 -455 0
-162 -133 183 0
-480 -432 -97 0
200 -304 438 0
-429 21 -486 0
237 312 273 0
75 435 -30 0
-500 -463 91 0
367 191 -132 0
196 -177 1 0
-95 -498 -26 0
470 195 407 0
447 48 14 0
-226 223 -424 0
166 48 -298 0
317 420 -460 0
-102 265 178 0
-175 420 -337 0
416 287 365 0
-14 -200 383 0
237 -398 77 0
239 -32 9 0
-329 258 494 0
-303 335 243 0
-162 118 392 0
13 63 -191 0
197 -69 -422 0
312 -485 40 0
-310 164 -417 0
-407 178 281 0
-231 2 121 0
-395 215 101 0
289 -264 -55 0
183 367 358 0
-471 -296 29 0
177 367 -324 0
446 -385 204 0
51 126 431 0
-453 -188 498 0
-353 385 52 0
-158 -38 -497 0
-304 -466 -260 0
-191 -457 427 0
293 264 -315 0
322 297 -416 0
-410 -13 -372 0
-328 -336 451 0
483 -284 155 0
271 -93 -368 0
-324 -118 72 0
289 -437 -369 0
357 -359 -304 0
-399 -51 -17 0
200 100 -430 0
489 -358 -242 0
179 398 -399 0
341 -224 151 0
-5 -354 166 0
54 -87 -124 0
446 411 261 0
338 -363 404 0
-383 69 181 0
-36 6 -78 0
161 300 -398 0
-82 -303 396 0
456 -392 -8 0
445 -476 119 0
-5 203 -13 0
151 458 -246 0
141 325 -63 0
238 202 -387 0
-111 97 -88 0
33 21 320 0
-292 -399 256 0
135 -218 313 0
-478 -455 -315 0
477 35 -121 0
43 104 425 0
-437 -141 357 0
-41 298 -463 0
425 -26 159 0
-356 65 198 0
-378 99 78 0
-171 236 106 0
491 -106 217 0
-306 44 338 0
70 -340 442 0
-164 -405 -382 0
-213 300 263 0
-341 198 -194 0
105 -121 174 0
-40 481 -275 0
201 -211 156 0
80 108 -96 0
384 -38 -429 0
-355 432 -356 0
-222 244 -77 0
317 251 381 0
-272 463 497 0
388 441 -465 0
215 197 53 0
-120 -362 258 0
-157 202 -88 0
-114 -44 9 0
-226 185 -71 0
-100 477 226 0
34 360 -288 0
137 275 216 0
495 132 33 0
277 384 -59 0
-206 497 -216 0
165 -100 211 0
405 -260 366 0
-110 -360 19 0
287 402 167 0
284 -443 395 0
464 171 189 0
-12 -496 337 0
-170 -342 279 0
-108 160 -197 0
-312 -406 -36 0
-82 190 -198 0
230 202 -148 0
-195 -348 -361 0
415 -315 -358 0
-493 -291 288 0
339 -295 -173 0
29 -190 71 0
-169 410 -8 0
