p cnf 100 240
67 78 76 0
-80 63 -29 0
82 -80 34 0
-97 -82 -6 0
35 -61 18 0
66 88 -36 0
-23 -14 -53 0
66 58 46 0
58 17 -51 0
61 -34 -66 0
80 -38 -23 0
-74 85 11 0
70 -56 -78 0
-48 -17 -74 0
36 -28 57 0
98 -40 39 0
62 -45 78 0
-39 47 12 0
45 50 14 0
48 68 -95 0
-26 65 34 0
93 8 -39 0
-51 86 87 0
-100 -8 26 0
48 -95 19 0
-34 -63 93 0
-96 4 27 0
-21 -44 69 0
-1 -31 85 0
29 -6 20 0
60 -32 27 0
-35 80 -33 0
-84 16 93 0
85 -29 -77 0
79 -88 -70 0
-54 23 76 0
-65 16 79 0
-7 97 62 0
39 31 28 0
64 92 22 0
-29 85 -37 0
-36 -2 89 0
15 -40 -19 0
65 -52 -33 0
83 93 75 0
-70 -33 9 0
-29 59 -78 0
29 31 -95 0
3 30 -52 0
83 40 -91 0
-93 17 66 0
65 35 -74 0
100 54 -23 0
-71 93 -30 0
-64 -14 85 0
-99 -98 50 0
-59 -92 19 0
-7 17 52 0
76 -63 -95 0
-53 86 -33 0
42 64 -22 0
83 35 -48 0
-53 46 -49 0
1 -72 68 0
19 -20 64 0
-88 -27 -65 0
-59 -85 -37 0
-7 -27 64 0
-94 -70 51 0
49 -28 -17 0
17 24 -55 0
93 92 95 0
79 94 28 0
-21 -47 -29 0
22 -92 47 0
1 -43 19 0
14 18 -37 0
-40 -11 -53 0
-50 85 58 0
-90 22 -62 0
-38 -51 -83 0
-63 17 -70 0
-63 -94 -78 0
-95 52 11 0
18 -66 -30 0
45 -78 -3 0
83 84 8 0
95 -2 -48 0
-15 57 -39 0
-28 -20 -62 0
-27 -73 80 0
89 -33 -9 0
52 -42 -21 0
-79 6 -93 0
72 11 -92 0
38 19 93 0
70 65 69 0
8 5 62 0
-24 77 -2 0
-53 -81 41 0
-34 50 20 0
29 25 -64 0
46 13 5 0
88 89 74 0
17 90 73 0
61 13 -98 0
-62 -52 -34 0
93 -47 62 0
-26 81 -13 0
-73 16 -55 0
8 -99 -12 0
-67 42 -40 0
41 -37 91 0
-39 69 -19 0
35 71 94 0
11 90 -72 0
-5 -55 -38 0
-97 71 -17 0
34 -52 11 0
-67 -68 10 0
-16 25 45 0
28 38 -54 0
23 -52 64 0
4 -59 -65 0
-29 84 -85 0
57 -32 -14 0
3 -82 -14 0
-32 -82 -20 0
-36 -4 34 0
-86 76 62 0
18 -8 17 0
20 82 -26 0
-82 -17 79 0
47 17 -22 0
100 -44 82 0
-7 -24 -67 0
33 90 36 0
-49 24 14 0
-29 -4 86 0
16 -59 62 0
-55 -35 89 0
-31 -23 50 0
-48 6 -2 0
57 -40 14 0
57 -89 25 0
91 100 28 0
-94 88 60 0
-79 -47 71 0
-34 32 79 0
-38 4 -67 0
-31 -34 -49 0
27 -9 -59 0
-2 -100 -73 0
5 -68 -12 0
-77 -32 -35 0
-52 90 -63 0
60 -77 -78 0
32 84 57 0
72 95 -23 0
-43 -50 42 0
-76 -9 -93 0
-91 52 22 0
-39 -8 2 0
-55 66 -4 0
10 -84 -86 0
-76 74 -28 0
-26 -68 29 0
-13 -31 -69 0
-21 -61 -45 0
35 83 31 0
85 100 -59 0
-87 -53 21 0
-40 15 3 0
71 -93 -3 0
-80 93 -100 0
-8 -66 37 0
-89 -46 28 0
77 -26 66 0
94 73 22 0
24 -48 -6 0
-43 54 -100 0
29 74 -63 0
18 61 -73 0
17 90 10 0
62 -85 94 0
-31 -95 -22 0
78 -45 -63 0
60 -51 -86 0
23 -16 -6 0
-32 67 60 0
97 30 83 0
24 -55 -68 0
57 -38 -15 0
73 -62 28 0
81 17 93 0
-71 -64 33 0
56 -41 -67 0
-24 97 -3 0
-3 78 -74 0
33 83 81 0
-7 -22 39 0
-87 95 38 0
10 13 -57 0
-74 -4 76 0
-38 -39 23 0
16 41 -57 0
25 -9 -7 0
-74 27 -37 0
66 10 59 0
-100 -31 -15 0
20 -63 60 0
46 -38 -98 0
-75 1 13 0
13 23 14 0
9 44 7 0
75 11 -19 0
98 17 -24 0
-55 -36 -27 0
-77 -95 60 0
-17 -63 31 0
-91 -15 -79 0
99 47 -61 0
78 61 46 0
57 -33 -17 0
6 74 30 0
-22 83 26 0
61 -10 -85 0
80 78 52 0
63 -51 -34 0
36 -29 -53 0
-26 -6 53 0
32 -8 74 0
46 96 -59 0
44 -2 69 0
-67 60 -97 0
58 -27 1 0
-68 86 -95 0
-8 68 72 0
-51 20 5 0
-44 -64 80 0
