p cnf 500 1925
318 -490 -33 0
-485 217 -189 0
-405 -472 423 0
-322 -97 453 0
491 -480 -80 0
324 400 490 0
-172 -157 486 0
-27 -226 240 0
24 -76 273 0
447 143 209 0
450 -438 -124 0
-387 -402 -421 0
-2 324 -223 0
372 -77 -82 0
-242 434 -255 0
111 39 458 0
-455 326 -411 0
447 -168 -307 0
448 -240 22 0
-299 103 -485 0
-76 213 97 0
243 -142 -110 0
-439 -261 -386 0
218 340 95 0
101 -454 159 0
390 379 347 0
-298 -239 -118 0
86 57 -118 0
71 12 -476 0
-105 55 488 0
-370 7 -41 0
-277 -324 376 0
-279 -455 -467 0
216 302 129 0
-139 146 248 0
102 -38 -7 0
-260 -303 489 0
146 -445 -376 0
-264 332 -60 0
-13 477 107 0
408 170 41 0
-404 -212 -158 0
351 299 172 0
-167 146 -103 0
245 -277 -152 0
375 -50 84 0
-161 480 -271 0
-334 46 -287 0
355 12 -420 0
-223 231 -431 0
152 -439 -20 0
-304 -333 -54 0
-197 156 403 0
-361 293 -210 0
237 386 -290 0
300 225 444 0
-205 -214 -447 0
-210 238 -19 0
422 -247 168 0
-489 -377 -234 0
-233 455 -264 0
-130 274 -96 0
-30 -485 -242 0
445 -51 73 0
-148 -477 219 0
159 -325 400 0
-349 -61 292 0
113 351 188 0
315 -370 -246 0
161 1 -202 0
95 -389 236 0
-298 -66 -149 0
187 499 272 0
-18 443 -394 0
-1 -124 -476 0
-315 129 20 0
-495 -19 357 0
-15 -106 -273 0
-370 258 -458 0
288 -165 206 0
331 -357 -18 0
69 33 274 0
236 -363 206 0
-476 188 282 0
-469 -220 461 0
116 -179 365 0
-475 33 118 0
188 415 -431 0
-495 456 -353 0
229 -415 -338 0
-11 -48 156 0
-292 -98 256 0
266 348 -122 0
-311 -461 -318 0
-271 -94 292 0
232 -269 179 0
-130 -465 464 0
-441 -453 -445 0
165 -326 -122 0
432 -433 384 0
347 78 -159 0
383 377 -472 0
-201 479 19 0
-346 303 265 0
350 -297 392 0
-127 58 -197 0
375 35 114 0
406 -444 -234 0
-117 -281 -374 0
-308 -467 50 0
-461 -239 -125 0
-143 -255 -307 0
137 -223 -383 0
-93 257 317 0
-312 157 424 0
325 178 315 0
-102 -476 -71 0
-164 -178 -146 0
-326 292 129 0
470 369 -9 0
-81 -33 349 0
-48 -40 256 0
-252 309 -500 0
-474 83 493 0
-187 405 213 0
-283 118 -173 0
-337 327 -361 0
366 441 375 0
-392 -484 -272 0
-454 3 25 0
-6 -202 19 0
-11 -74 -496 0
447 6 63 0
118 -62 410 0
134 -76 -441 0
73 -478 -213 0
194 -100 -380 0
292 -318 -200 0
-181 -40 -18 0
-78 473 152 0
229 179 157 0
-130 483 -19 0
-414 -71 -351 0
188 195 313 0
-66 273 -336 0
-191 -59 -77 0
-291 90 -437 0
-451 -150 466 0
-102 14 196 0
127 320 -380 0
-348 -86 -423 0
398 479 -99 0
482 -87 279 0
247 -375 298 0
385 -99 343 0
-422 -174 176 0
-392 347 -296 0
461 464 117 0
-492 -460 -342 0
-139 -189 -463 0
-126 35 -27 0
146 -365 67 0
395 -143 386 0
-96 345 422 0
-391 353 376 0
444 -146 -197 0
-25 293 432 0
449 187 120 0
34 411 -24 0
215 -366 304 0
-214 -81 272 0
109 262 -308 0
490 403 -146 0
-69 237 65 0
-307 292 -146 0
148 -76 404 0
317 66 -394 0
330 -277 -111 0
333 478 398 0
15 241 337 0
373 393 -488 0
-351 -490 -36 0
-280 -493 -29 0
-341 -94 -158 0
56 -222 -369 0
217 -28 -358 0
152 452 411 0
443 -398 333 0
192 -32 116 0
405 500 -116 0
-89 410 -61 0
398 -385 362 0
-301 -308 -177 0
-103 -327 -244 0
237 414 203 0
385 182 -123 0
469 -161 424 0
318 -311 -191 0
-409 314 351 0
-399 13 183 0
-145 240 480 0
-138 436 481 0
327 141 -389 0
-49 -436 -465 0
132 315 409 0
139 -9 311 0
-397 -160 239 0
15 140 -464 0
298 -187 -331 0
-315 -30 76 0
-325 302 429 0
-126 -370 -89 0
-292 -273 -89 0
-315 -273 218 0
-347 48 262 0
150 -4 -366 0
-157 -160 -394 0
-412 -222 474 0
226 -440 167 0
83 138 24 0
-417 -461 -208 0
-365 -6 398 0
-400 469 299 0
-379 -87 -486 0
183 431 220 0
-301 406 153 0
-69 -291 265 0
84 -334 215 0
410 311 -90 0
290 -168 -215 0
34 382 -301 0
259 -42 54 0
-116 -343 238 0
144 -340 396 0
289 242 -456 0
235 452 -377 0
12 -229 80 0
390 -249 39 0
-189 337 -197 0
-20 -369 362 0
88 -59 492 0
-57 -190 -468 0
-186 212 -9 0
482 383 229 0
-362 180 -202 0
102 165 -453 0
341 337 -58 0
346 -467 -230 0
-410 368 -125 0
-500 -431 -467 0
302 419 80 0
-433 107 93 0
90 -285 -417 0
-23 180 412 0
-395 165 -364 0
301 -103 69 0
-437 281 349 0
-318 249 -255 0
-174 -114 -68 0
295 167 369 0
332 24 429 0
-236 -349 348 0
-481 -274 -171 0
207 150 190 0
-12 349 -451 0
-247 57 77 0
-291 496 -15 0
235 346 -5 0
52 -231 -242 0
417 -329 -295 0
-399 92 -114 0
411 -284 -21 0
-178 -411 -4 0
52 469 -315 0
-119 -282 -350 0
-120 -96 -366 0
204 174 5 0
-193 -175 -482 0
-227 -167 108 0
433 -34 -217 0
110 275 -162 0
338 132 429 0
183 343 -480 0
-119 488 -92 0
-203 -223 198 0
-310 -106 272 0
-35 -292 -198 0
339 58 -374 0
175 -55 441 0
494 -92 -140 0
15 335 271 0
-318 -205 -406 0
-492 258 393 0
-295 494 168 0
-464 -145 -326 0
292 286 -183 0
-287 443 -338 0
288 153 -369 0
202 283 376 0
348 131 177 0
464 -287 -376 0
-8 -405 289 0
-304 -35 129 0
-401 56 -398 0
-23 386 -148 0
23 -32 258 0
-500 -194 -408 0
81 -252 486 0
383 354 199 0
-89 -195 95 0
27 -386 -41 0
305 -359 -46 0
374 303 34 0
-173 -500 -241 0
-403 -210 422 0
-465 409 -112 0
-46 -279 -459 0
-38 143 496 0
-219 229 347 0
-52 -138 199 0
339 -356 -156 0
-177 367 -276 0
-284 -481 -449 0
-167 180 -465 0
-14 99 89 0
-56 1 222 0
-138 -76 230 0
113 481 60 0
-372 -444 380 0
-389 -261 169 0
-362 -280 101 0
235 69 213 0
71 -110 -136 0
382 -375 -358 0
449 -326 201 0
391 280 482 0
-376 15 -224 0
-453 -449 65 0
-408 280 462 0
-469 419 -216 0
175 -348 180 0
378 156 -225 0
-346 -370 257 0
313 -328 162 0
242 189 187 0
-373 -449 -124 0
96 -32 31 0
6 -352 281 0
419 -352 358 0
221 261 443 0
356 -124 152 0
-465 386 -157 0
-242 244 -280 0
-449 -403 280 0
-436 388 444 0
-201 440 332 0
-57 -270 371 0
-322 -217 -255 0
270 449 -371 0
-287 -237 -118 0
-297 80 345 0
71 485 386 0
-284 -181 484 0
101 483 -356 0
-197 483 -459 0
-214 143 462 0
-282 412 449 0
-266 153 -393 0
-104 -147 -382 0
488 -218 343 0
-273 -285 -136 0
-111 -70 -49 0
387 354 494 0
154 491 -107 0
376 -269 71 0
273 312 460 0
-114 -87 109 0
-105 -448 -134 0
-451 -290 -327 0
213 13 71 0
453 301 323 0
-426 -183 -328 0
311 -326 -238 0
37 -18 -91 0
377 28 -177 0
-363 213 -339 0
42 303 432 0
102 -33 273 0
-22 217 366 0
97 -92 272 0
183 488 245 0
-436 323 -480 0
52 90 -424 0
-499 -329 -385 0
-244 -163 -95 0
-193 309 -340 0
236 94 251 0
466 -346 211 0
135 -64 -2 0
-255 -303 -208 0
252 -436 356 0
-418 224 35 0
132 -482 2 0
495 389 192 0
395 95 86 0
-234 -275 261 0
-496 -41 -316 0
-124 -183 -52 0
477 -149 260 0
-174 309 -252 0
-20 -202 102 0
-396 -72 -141 0
-391 22 172 0
294 242 -166 0
343 424 -4 0
-22 -489 -15 0
-335 -159 53 0
3 109 439 0
116 -64 -45 0
400 98 369 0
-322 -469 -364 0
-411 200 -329 0
99 485 369 0
296 -363 18 0
-377 93 -487 0
176 -394 -17 0
-425 475 -122 0
-184 49 -139 0
25 14 -253 0
69 229 -413 0
474 -133 117 0
227 323 -173 0
-398 -21 325 0
488 290 129 0
-78 -186 -43 0
401 -250 208 0
-272 -46 28 0
456 112 -165 0
40 -316 -77 0
454 249 -104 0
56 -62 418 0
-272 312 -133 0
-367 -257 463 0
-497 -70 225 0
337 -55 -114 0
326 -237 294 0
-421 -350 384 0
-287 -159 -294 0
171 13 68 0
-128 -378 -82 0
-448 168 449 0
-310 464 -95 0
183 237 -435 0
-377 -123 47 0
3 -484 348 0
424 90 -469 0
330 -277 25 0
-107 40 335 0
-376 -315 -179 0
-321 29 94 0
354 -48 -77 0
-260 -85 -287 0
102 -431 -289 0
464 170 261 0
-426 250 -498 0
13 -396 21 0
-195 -293 207 0
300 -380 8 0
-81 -286 -145 0
191 12 165 0
484 100 441 0
-303 -314 69 0
340 154 -342 0
-65 207 -341 0
-99 -389 -248 0
24 -441 -74 0
-294 -440 -471 0
441 -59 -440 0
13 244 491 0
-240 -345 279 0
221 133 227 0
-390 -309 -96 0
-421 163 -346 0
155 -440 93 0
-254 -202 337 0
355 -165 345 0
176 -486 244 0
-412 495 152 0
-21 10 -340 0
299 -213 190 0
-275 -326 262 0
481 289 -303 0
459 -146 23 0
469 -16 76 0
-346 133 36 0
274 168 145 0
-150 147 368 0
308 -490 -464 0
267 -13 454 0
330 -279 -208 0
263 -452 -398 0
387 172 340 0
434 240 115 0
-157 -469 -241 0
-351 -71 -299 0
396 -228 434 0
-268 -211 -41 0
-370 -292 -24 0
266 449 275 0
-191 -254 -206 0
-145 158 194 0
96 45 208 0
-376 400 -249 0
-443 -8 -75 0
137 -62 32 0
352 356 432 0
-410 -154 393 0
460 364 57 0
-217 -194 408 0
367 158 -170 0
289 321 -463 0
338 -47 -376 0
-313 204 299 0
423 224 278 0
238 -53 131 0
266 -51 281 0
303 -475 397 0
156 131 -168 0
-462 -385 -228 0
46 385 -374 0
-221 416 -234 0
-259 253 -272 0
135 -109 -366 0
-351 -224 -53 0
-96 217 80 0
300 183 348 0
479 317 159 0
-187 -246 -341 0
-477 152 143 0
124 -497 396 0
18 -115 165 0
-229 -199 -1 0
-390 51 241 0
292 143 369 0
457 -411 455 0
-430 -492 216 0
-108 -303 -69 0
308 -370 -175 0
-443 -339 246 0
-395 207 116 0
-324 238 167 0
-158 -416 -420 0
-266 277 110 0
-433 -214 435 0
-207 342 -295 0
-328 -144 139 0
-96 400 -343 0
471 -56 78 0
154 364 267 0
-28 95 -342 0
313 452 -148 0
-90 -410 429 0
465 -441 -65 0
280 310 406 0
157 432 270 0
244 -97 181 0
-335 113 -375 0
415 -293 -265 0
177 -302 87 0
-59 1 468 0
203 43 -109 0
-115 -434 302 0
37 463 120 0
476 -413 -85 0
-383 -154 -293 0
459 -408 -340 0
-324 -341 -500 0
358 -273 -488 0
-94 106 119 0
116 -69 -442 0
-79 370 50 0
306 -421 175 0
22 -76 -443 0
-312 407 308 0
306 -445 -319 0
-232 427 -255 0
-267 -120 -280 0
407 -188 386 0
-370 -176 128 0
407 -13 -116 0
-497 236 -356 0
-4 -164 -362 0
354 195 -94 0
338 -409 -117 0
-132 -461 -240 0
460 -499 -228 0
-241 144 -293 0
-177 191 -274 0
371 -330 -416 0
28 -479 -485 0
277 -146 394 0
-72 -87 84 0
168 401 390 0
-18 -241 231 0
323 192 333 0
47 -479 -498 0
-324 -493 -89 0
295 455 175 0
43 -141 -425 0
184 -216 -205 0
-226 -319 -332 0
-268 256 142 0
437 99 118 0
-36 256 308 0
59 -222 195 0
224 16 -257 0
271 -373 449 0
83 39 26 0
34 261 -349 0
-486 107 -377 0
243 149 165 0
-104 410 -415 0
-232 266 148 0
298 409 245 0
-110 -95 331 0
-121 -130 27 0
-284 230 -76 0
394 -245 437 0
279 -291 401 0
-11 -447 -148 0
453 139 -3 0
-167 500 182 0
-482 436 -58 0
174 -495 -321 0
306 46 459 0
-171 297 -320 0
-194 -476 -105 0
-123 396 -267 0
480 -241 258 0
-7 44 117 0
193 -212 -464 0
-292 250 381 0
-85 190 301 0
-246 -217 267 0
-203 -490 -356 0
102 -88 -390 0
371 453 -433 0
-72 -112 144 0
-161 -204 486 0
-99 60 -6 0
-480 -364 101 0
-221 -216 -182 0
-473 -363 92 0
226 -393 -314 0
-216 -377 70 0
415 -38 280 0
191 171 173 0
-146 54 -449 0
-202 -403 167 0
328 309 450 0
368 471 411 0
-262 210 384 0
-168 14 311 0
269 -111 -322 0
451 224 -210 0
-456 -176 103 0
-372 472 -71 0
-168 -83 88 0
321 -301 -134 0
68 378 -206 0
341 276 30 0
432 -285 -150 0
-500 229 494 0
171 141 31 0
-364 12 -107 0
-20 -19 369 0
-160 70 209 0
50 -22 281 0
255 -164 -15 0
-385 189 -277 0
495 354 -7 0
-298 -395 -227 0
220 -379 -290 0
268 -16 391 0
45 58 -4 0
328 500 391 0
206 432 -384 0
384 418 -224 0
-181 220 255 0
457 222 -227 0
-141 -197 -235 0
-280 279 89 0
228 -487 13 0
-270 365 287 0
180 -276 314 0
458 -290 -300 0
487 -259 202 0
62 -364 242 0
-13 289 122 0
141 -477 432 0
355 -312 -402 0
136 -33 349 0
285 427 -313 0
152 418 -257 0
-84 471 188 0
-246 -401 320 0
374 -131 -444 0
369 -162 75 0
-85 -451 29 0
185 -332 -251 0
-312 407 447 0
-475 194 378 0
349 252 -469 0
-11 -2 99 0
210 230 309 0
474 -159 42 0
56 476 223 0
-320 -435 148 0
-107 -5 178 0
482 193 -234 0
331 223 -236 0
-289 24 474 0
-383 325 376 0
-284 -316 -19 0
204 -281 -74 0
341 -386 -67 0
44 108 429 0
-376 308 86 0
132 107 -116 0
-283 2 111 0
-266 -184 241 0
-479 -281 -101 0
-493 -195 316 0
169 382 454 0
-149 96 252 0
-469 220 299 0
290 -174 126 0
-224 227 -53 0
-76 214 -443 0
65 -363 59 0
-285 422 -391 0
381 -437 2 0
111 -237 -76 0
360 35 4 0
-172 -257 -51 0
260 -357 265 0
220 230 -210 0
64 -375 253 0
-270 -420 171 0
178 44 177 0
92 189 -280 0
-459 -41 -448 0
-436 280 -188 0
-317 -23 236 0
134 -13 -62 0
-494 305 473 0
-34 146 404 0
311 -278 -78 0
-77 108 -43 0
430 27 30 0
34 -140 -96 0
-426 -20 338 0
134 -357 -435 0
-352 -378 15 0
220 59 -489 0
375 300 -383 0
-83 -1 -449 0
7 -471 322 0
-138 400 -66 0
-284 308 -100 0
365 483 -419 0
-464 -104 114 0
183 -249 -190 0
-204 258 40 0
-249 25 -80 0
-194 491 397 0
481 20 -490 0
-157 57 314 0
370 402 150 0
320 -24 -494 0
105 363 -289 0
-253 -67 -167 0
87 33 225 0
-292 -68 465 0
465 -248 -412 0
-124 -206 387 0
321 496 381 0
-190 174 157 0
194 -177 130 0
-278 328 -56 0
465 190 57 0
68 -433 400 0
263 -148 -258 0
450 -398 486 0
207 -271 -475 0
-297 -427 -108 0
269 -318 352 0
100 -265 -194 0
-473 42 -373 0
461 370 143 0
260 -13 -258 0
-446 341 -69 0
448 319 -27 0
-403 -297 -89 0
-266 143 159 0
73 -396 -75 0
-184 143 97 0
476 -126 -29 0
-362 -35 408 0
-409 -372 -343 0
-384 -292 -186 0
-53 -146 130 0
184 -165 210 0
-476 62 124 0
-189 20 35 0
274 -114 420 0
43 -128 307 0
142 -402 -81 0
491 99 6 0
-410 -322 -470 0
18 -445 45 0
-49 368 220 0
-262 -332 -355 0
-312 118 434 0
156 -231 -407 0
320 133 198 0
-420 124 -18 0
-456 52 -117 0
24 -297 372 0
162 286 6 0
51 -238 233 0
-156 -160 456 0
463 492 -483 0
366 199 -217 0
-200 -449 490 0
287 -440 -378 0
-264 -412 224 0
30 22 400 0
326 315 425 0
272 -41 451 0
-473 204 306 0
-158 -479 -463 0
-135 442 -7 0
-269 -235 14 0
85 -262 -436 0
-218 310 -131 0
-190 -313 93 0
58 -422 -350 0
34 -6 397 0
263 -239 -205 0
4 30 198 0
281 -250 -180 0
82 22 -411 0
435 -375 -292 0
41 -143 129 0
405 -14 -227 0
95 101 -364 0
429 19 346 0
-41 -36 286 0
-10 -368 -167 0
249 -108 -18 0
-342 142 -61 0
-381 -306 185 0
5 -378 164 0
-198 -242 425 0
180 468 355 0
-206 -316 -353 0
10 387 331 0
-443 -375 -480 0
274 87 328 0
-246 99 -198 0
376 -158 -160 0
423 -443 32 0
379 292 -294 0
132 415 12 0
17 25 418 0
-145 271 -304 0
343 391 -422 0
-467 -188 -104 0
14 -333 70 0
231 -165 -288 0
-444 424 -344 0
377 14 -16 0
-323 156 283 0
281 443 -63 0
279 -37 -296 0
168 -331 457 0
30 202 376 0
391 -149 317 0
-436 -306 -438 0
97 33 14 0
73 117 -381 0
-111 77 470 0
403 -343 -463 0
177 -118 -307 0
44 63 143 0
120 92 -428 0
-264 222 360 0
-222 404 -262 0
-132 -234 330 0
7 -16 -86 0
-424 -216 -325 0
-474 242 -464 0
-368 -160 -180 0
180 -226 -168 0
327 407 -395 0
-109 429 -364 0
-360 446 272 0
219 78 -15 0
34 -72 330 0
-64 229 -357 0
-253 -73 70 0
106 -367 360 0
-462 -20 -58 0
95 -478 -40 0
205 280 -15 0
490 437 -229 0
-279 -326 343 0
-232 -115 220 0
-293 -22 488 0
-306 348 452 0
173 -101 -172 0
-185 180 -32 0
-139 -351 246 0
-166 -392 -46 0
34 295 116 0
321 -16 -395 0
-475 241 262 0
214 -491 -101 0
41 31 -437 0
391 39 -357 0
178 -369 96 0
393 164 352 0
185 83 346 0
118 279 -335 0
-105 -455 -16 0
-124 6 -401 0
-317 433 -166 0
-294 197 230 0
188 28 278 0
374 9 314 0
184 476 -13 0
-261 221 -203 0
63 -17 -213 0
-133 -181 456 0
405 -264 -218 0
132 173 -419 0
182 132 -92 0
492 -321 -126 0
271 215 -450 0
-447 -409 404 0
-190 397 -276 0
-355 138 -148 0
499 -405 32 0
-398 297 279 0
73 365 -149 0
-481 -456 266 0
-212 239 105 0
73 486 -360 0
-5 -227 86 0
343 -462 231 0
212 119 -79 0
-92 -217 167 0
-498 -389 -35 0
-494 -497 -173 0
363 227 401 0
141 486 -87 0
100 -29 -467 0
44 -413 -17 0
86 -206 -100 0
-376 -472 487 0
-237 -223 -62 0
128 -286 -9 0
-391 455 -125 0
-362 391 177 0
-239 -300 185 0
-198 -161 -294 0
433 -221 356 0
-121 -116 -19 0
-263 -54 92 0
303 184 48 0
412 -454 48 0
-390 -25 317 0
-446 194 271 0
-381 299 -287 0
-39 -109 -494 0
-416 369 258 0
-166 165 34 0
67 -377 -110 0
51 -456 -351 0
-253 53 -72 0
-50 493 -426 0
-10 125 393 0
387 -164 -223 0
45 -312 -75 0
-87 80 298 0
22 420 385 0
479 -497 308 0
63 -156 106 0
-428 -237 -35 0
-391 229 -195 0
-378 -133 262 0
488 306 -466 0
141 450 217 0
60 201 -454 0
-497 205 -74 0
232 459 -373 0
-334 -240 78 0
11 -30 -223 0
-247 -104 130 0
131 -343 -360 0
421 13 51 0
374 -150 97 0
-461 -418 -174 0
-461 431 498 0
171 306 369 0
-111 326 233 0
480 440 391 0
-54 -415 -369 0
321 153 -261 0
-28 -165 -271 0
260 -182 -468 0
-24 -319 -88 0
-281 320 -443 0
-95 378 -97 0
-10 91 37 0
316 166 -233 0
-275 -78 -454 0
-261 -139 137 0
407 96 -11 0
-302 -334 301 0
-436 264 -333 0
-278 483 322 0
-470 -307 6 0
264 -126 -455 0
206 -466 -376 0
-266 197 390 0
-175 -199 490 0
-179 -139 36 0
-3 -183 -308 0
22 86 332 0
-274 -373 -184 0
-217 270 44 0
446 420 -147 0
250 458 -491 0
-8 -417 80 0
-8 -138 -40 0
320 -421 -329 0
-145 304 291 0
-391 -56 253 0
-389 -276 -33 0
-442 86 -379 0
139 475 -345 0
-112 108 333 0
14 392 -366 0
481 454 270 0
243 -496 245 0
-232 -159 -21 0
-321 -343 -239 0
-68 49 135 0
381 479 -104 0
-119 -130 -5 0
231 -173 368 0
-324 -382 -45 0
-393 -6 444 0
-228 212 -234 0
285 244 178 0
493 -257 -358 0
-71 408 -27 0
-399 -83 285 0
-1 336 197 0
-152 -465 -209 0
-302 213 -287 0
412 -323 -359 0
7 428 -128 0
-366 -43 286 0
-425 238 -293 0
-427 -463 -183 0
422 -256 -143 0
203 -141 490 0
205 66 211 0
-159 -454 441 0
209 -45 419 0
-61 -118 -387 0
281 381 251 0
-63 188 225 0
-5 461 -473 0
201 -312 -68 0
475 310 -378 0
-401 -186 31 0
-487 -448 287 0
83 229 2 0
284 206 415 0
415 91 -280 0
-275 265 187 0
457 -469 472 0
437 82 -4 0
-234 -289 115 0
-240 -18 118 0
133 413 -196 0
-482 -342 112 0
-362 176 -81 0
-215 -276 -328 0
371 341 499 0
46 392 -461 0
-136 -482 151 0
-226 320 -107 0
-499 474 23 0
49 -226 -454 0
-292 -217 241 0
-96 52 -160 0
61 -372 164 0
-240 492 -437 0
4 -384 -202 0
327 -60 496 0
-383 -421 -491 0
-271 360 -280 0
-357 -301 -294 0
-287 3 159 0
401 400 -273 0
409 -263 407 0
215 14 8 0
-162 127 26 0
75 -255 -98 0
246 -280 58 0
244 -187 -419 0
231 -226 -464 0
57 -439 224 0
-194 15 -332 0
-155 288 -319 0
470 149 -352 0
152 280 -297 0
-167 205 198 0
174 -111 194 0
-142 285 23 0
281 184 -75 0
-236 490 29 0
-408 -54 -474 0
291 -21 353 0
-351 -39 165 0
352 -349 -66 0
15 -57 -185 0
-304 228 -424 0
137 -167 249 0
44 420 288 0
-232 -143 -37 0
36 -460 489 0
222 -298 -450 0
-153 152 455 0
-372 378 174 0
-162 -70 -275 0
50 -169 -356 0
-282 -393 444 0
-22 30 -1 0
-125 -420 120 0
67 375 -281 0
77 396 -187 0
288 -443 -320 0
321 316 212 0
346 112 196 0
-118 410 258 0
70 -291 -83 0
19 149 -76 0
-28 435 -340 0
-182 -313 -75 0
-161 77 240 0
10 -271 476 0
-365 419 255 0
-288 -426 85 0
-421 -72 -3 0
-484 -371 -77 0
492 258 -50 0
236 -437 482 0
312 169 55 0
411 155 196 0
-259 -94 42 0
388 422 428 0
-252 -494 45 0
494 -423 -365 0
407 -61 409 0
-115 -274 -238 0
454 441 -355 0
-189 -401 138 0
300 322 -496 0
86 -34 -295 0
294 -73 -49 0
-312 -59 -227 0
125 -113 -324 0
-12 1 264 0
302 -498 198 0
64 -487 364 0
109 -396 -401 0
335 150 -104 0
-450 -151 432 0
25 255 378 0
-40 377 -450 0
-219 -4 464 0
-312 500 394 0
51 292 -269 0
185 -87 26 0
-340 82 280 0
297 289 292 0
-140 -207 332 0
359 286 -245 0
224 269 351 0
88 234 444 0
-223 21 -69 0
187 -179 331 0
57 119 18 0
-434 314 144 0
-390 -455 285 0
-320 -191 460 0
-203 383 83 0
-385 -407 403 0
102 -31 -1 0
-246 -322 251 0
175 470 337 0
270 456 -495 0
141 397 431 0
-355 420 272 0
-28 -298 -463 0
-201 -146 -119 0
-98 36 -385 0
-382 165 217 0
188 351 270 0
-41 467 -410 0
-380 -9 -161 0
419 271 -3 0
-190 -408 -394 0
-246 92 88 0
-340 92 400 0
89 367 -405 0
-178 377 364 0
210 91 -19 0
-14 -97 -282 0
461 -332 -39 0
-401 -9 500 0
-280 267 352 0
286 303 87 0
379 -30 -46 0
-393 235 271 0
158 -7 292 0
-68 220 316 0
-228 -154 42 0
-256 -86 -445 0
167 88 -126 0
375 190 -335 0
-138 384 -34 0
-335 -404 -331 0
-494 413 -491 0
86 -184 -133 0
294 -313 -293 0
-370 473 120 0
-378 -132 -481 0
141 -102 56 0
-226 202 231 0
-364 221 -418 0
-202 362 386 0
106 -108 -256 0
228 -152 337 0
369 -309 290 0
-221 -316 34 0
-97 291 138 0
85 -207 -387 0
-93 188 401 0
-185 274 -298 0
263 -48 82 0
-28 133 151 0
-415 185 43 0
-54 -316 500 0
-107 -219 460 0
-171 -236 -302 0
449 399 -460 0
-134 -187 -198 0
57 -465 356 0
367 254 -470 0
-252 -359 130 0
-396 285 -401 0
-423 480 -417 0
-370 109 286 0
-373 334 437 0
268 -191 -88 0
-182 -255 -160 0
87 -358 -387 0
485 -366 24 0
52 -466 213 0
69 -123 -429 0
398 -477 -459 0
-110 276 484 0
-483 277 -378 0
37 228 300 0
-334 229 -407 0
-401 -344 -296 0
160 -412 -416 0
196 -56 77 0
12 -334 -183 0
-206 170 -319 0
332 -33 145 0
-392 -342 -339 0
134 -239 -363 0
283 375 -164 0
-231 -51 119 0
-49 -321 -338 0
488 -37 258 0
409 -148 473 0
30 -134 468 0
86 -413 113 0
-494 -2 85 0
199 263 366 0
54 -55 334 0
-39 -455 414 0
118 278 341 0
22 -499 221 0
289 -355 -341 0
440 -58 -161 0
-428 -365 295 0
-398 -296 -385 0
1 24 -377 0
-432 423 316 0
466 256 35 0
-464 228 -207 0
-302 -161 -5 0
148 433 342 0
-211 -235 -321 0
-265 -472 -413 0
-255 174 323 0
356 494 -80 0
-193 -91 -70 0
476 218 97 0
327 -252 -372 0
-273 72 -129 0
-149 405 422 0
-32 -442 -445 0
409 31 -410 0
293 275 -23 0
-433 39 -275 0
360 -495 2 0
491 -215 -123 0
118 94 -104 0
-165 252 32 0
-197 -333 104 0
99 370 104 0
77 -16 283 0
-217 -415 -88 0
25 393 -430 0
-45 -26 404 0
-405 104 -277 0
433 -492 156 0
404 159 343 0
17 -152 66 0
-65 -487 82 0
-482 -358 438 0
-72 -46 268 0
-495 73 261 0
-99 209 247 0
417 77 -92 0
231 11 -462 0
484 158 -401 0
200 498 -365 0
-450 263 -278 0
313 242 399 0
195 -476 253 0
165 493 -498 0
-428 233 -272 0
-190 377 -415 0
-299 -313 22 0
-381 -157 417 0
-236 31 343 0
113 392 -61 0
194 349 -110 0
-104 -242 244 0
-453 -12 -222 0
-202 -301 138 0
94 215 218 0
383 -306 451 0
-322 -492 136 0
452 -225 -500 0
-451 34 -307 0
19 -257 123 0
377 68 -314 0
230 189 -310 0
-276 218 -258 0
-91 -349 -180 0
323 108 -466 0
221 187 51 0
-451 444 281 0
248 -167 187 0
478 163 -276 0
472 -357 426 0
-199 402 -125 0
405 -196 428 0
155 498 47 0
-241 -56 -295 0
295 -277 71 0
-387 -475 383 0
-32 -229 -227 0
210 56 -60 0
70 -472 -440 0
331 72 99 0
465 194 200 0
-92 -330 -498 0
156 382 -441 0
275 60 407 0
-464 -356 305 0
-488 -252 250 0
248 -217 -232 0
465 377 419 0
-108 367 -202 0
327 278 368 0
-157 -411 -420 0
129 -4 94 0
-264 479 75 0
-194 -123 -375 0
-475 283 195 0
307 -329 -324 0
-33 60 175 0
-369 -188 218 0
-257 -9 456 0
-90 406 -109 0
410 346 138 0
-139 -177 -184 0
497 -50 -160 0
-170 480 253 0
-138 -418 -291 0
430 -38 -136 0
-356 158 -106 0
178 116 466 0
287 -143 -171 0
283 -457 300 0
185 313 324 0
-415 18 401 0
418 484 403 0
46 6 172 0
347 123 408 0
-184 62 -448 0
315 45 -202 0
109 246 237 0
-130 -201 333 0
-247 -481 351 0
391 -467 396 0
-443 -389 -243 0
-161 204 337 0
117 -470 40 0
-202 150 18 0
-358 139 -319 0
372 452 -278 0
388 251 -65 0
105 479 -457 0
-467 -321 -170 0
302 -279 316 0
-74 146 -242 0
-190 144 -69 0
-110 367 310 0
-498 173 303 0
237 -88 430 0
-125 -388 -494 0
-61 250 -342 0
12 390 290 0
-483 19 -378 0
288 -74 175 0
478 -9 212 0
-161 103 -380 0
-389 420 -184 0
282 351 90 0
177 -371 494 0
-413 -72 59 0
-187 -98 -165 0
-326 99 371 0
-125 174 27 0
72 355 316 0
-42 -185 -119 0
438 51 -408 0
124 276 462 0
-182 -191 99 0
240 358 396 0
-51 287 -340 0
136 -181 -338 0
183 322 -55 0
-377 483 203 0
1 231 -83 0
-274 -2 259 0
371 205 -372 0
-325 -474 299 0
321 -209 184 0
-436 -317 -187 0
411 -327 -379 0
-260 338 -224 0
474 498 -97 0
500 -122 289 0
-330 449 400 0
233 13 277 0
-260 -296 -15 0
354 -452 -398 0
-38 -367 126 0
-231 -3 463 0
107 409 -278 0
-136 474 133 0
-125 368 -239 0
-426 10 -71 0
471 4 174 0
-187 222 -221 0
-287 -289 -346 0
-366 -129 -206 0
499 371 80 0
-228 -81 -319 0
-344 88 -423 0
166 429 -97 0
-26 -288 -36 0
474 441 -144 0
484 -380 -94 0
-174 -213 -324 0
243 167 -140 0
362 482 -115 0
-248 89 -337 0
-464 -156 -492 0
-274 137 227 0
-439 -391 141 0
37 -410 435 0
-359 38 3 0
-169 -452 -359 0
-342 35 -194 0
-435 115 3 0
361 -380 -72 0
229 -263 -293 0
102 -307 -225 0
-392 -340 -11 0
-271 -284 89 0
5 76 -2 0
451 57 -356 0
399 416 397 0
320 -121 -359 0
-261 172 221 0
472 117 -481 0
-138 291 -410 0
-15 -493 -411 0
-152 299 -172 0
-312 182 184 0
-30 -233 -350 0
-132 -363 -107 0
-226 488 -122 0
-124 348 -191 0
-378 274 -4 0
254 -294 480 0
-235 134 -373 0
-465 37 287 0
232 50 93 0
186 -278 283 0
-97 -330 343 0
209 93 -215 0
82 -300 193 0
-94 469 384 0
-130 -281 -220 0
-43 -477 86 0
62 -484 -235 0
-396 -197 -124 0
203 -396 -96 0
-494 -167 465 0
-379 -72 -41 0
-423 270 470 0
-237 470 262 0
-210 67 -382 0
-306 11 338 0
-332 417 -298 0
-306 -404 328 0
-495 -294 463 0
-123 427 -19 0
-218 89 -303 0
-381 -92 396 0
454 -440 125 0
-90 37 -54 0
429 -202 448 0
-263 -412 -157 0
-154 444 -207 0
323 330 -474 0
-268 -105 133 0
-386 -173 -169 0
-360 44 -58 0
163 422 -119 0
-232 418 -179 0
-432 297 98 0
451 29 -190 0
15 300 -110 0
26 35 -269 0
-129 -318 48 0
21 -23 -11 0
-235 234 412 0
-404 -484 470 0
283 -163 138 0
-74 -179 -49 0
-387 -38 -398 0
300 194 -500 0
-307 -155 -268 0
-63 295 -264 0
-215 -35 -362 0
-184 -117 385 0
-291 -334 14 0
395 149 438 0
-453 161 -336 0
140 -327 -477 0
287 -278 76 0
-135 -166 -256 0
10 38 -338 0
-305 -159 -18 0
-286 -302 -295 0
316 117 -187 0
450 -186 305 0
119 211 345 0
206 -72 -136 0
315 137 274 0
20 15 -304 0
52 320 -421 0
54 -393 -242 0
-215 6 435 0
-472 -108 317 0
-342 5 418 0
-485 -51 484 0
386 268 -54 0
-439 -188 -425 0
61 -204 -482 0
451 -190 -244 0
183 90 345 0
-89 -151 -299 0
-477 -6 -339 0
-352 68 -80 0
-238 -50 -52 0
-462 -81 222 0
113 -454 117 0
386 -315 370 0
210 207 -396 0
-212 -188 -123 0
310 -26 -245 0
297 -22 26 0
297 -373 -451 0
-260 207 -178 0
28 92 481 0
82 -140 173 0
-287 -486 -459 0
96 -187 186 0
396 -213 136 0
-15 -257 -162 0
116 318 -174 0
52 140 271 0
-376 120 -316 0
-298 -420 264 0
-418 335 285 0
-137 -259 487 0
31 409 -310 0
-204 440 217 0
-80 118 -179 0
425 -4 -273 0
147 361 -231 0
-208 -282 91 0
-256 -89 166 0
-143 296 -63 0
286 282 -283 0
-316 497 -174 0
328 431 -301 0
-452 421 -182 0
466 428 337 0
-416 -290 322 0
346 428 240 0
-32 -83 479 0
-339 410 -454 0
100 -480 -410 0
-294 -16 -349 0
-374 -106 -212 0
-195 -136 239 0
207 -44 190 0
87 472 -461 0
334 -371 474 0
33 -45 -477 0
-318 -138 307 0
418 -9 460 0
-327 128 321 0
137 -417 390 0
343 237 -123 0
-217 -379 -248 0
227 425 -396 0
168 -343 84 0
-366 -153 -16 0
244 -148 488 0
26 485 165 0
73 -457 -487 0
467 -325 -11 0
317 241 -440 0
273 -349 479 0
-238 287 -450 0
-155 369 -75 0
-248 -2 -59 0
311 55 24 0
-208 195 319 0
408 -372 -23 0
-433 -183 -86 0
374 319 301 0
243 -340 267 0
117 -411 -240 0
-136 -454 481 0
-188 169 256 0
474 -69 -485 0
-64 97 -279 0
171 -404 382 0
431 -432 416 0
391 429 -154 0
-242 385 62 0
-50 -8 481 0
-303 484 157 0
-168 14 -409 0
123 -7 -445 0
259 -4 221 0
44 -254 167 0
-131 -141 119 0
-107 -497 491 0
318 6 264 0
40 -183 85 0
316 -190 184 0
301 -477 94 0
-312 -224 464 0
106 -27 436 0
261 -220 -293 0
-257 35 -475 0
13 -335 -121 0
-447 387 -161 0
492 416 -49 0
-160 460 -367 0
24 -438 284 0
416 -256 150 0
-97 95 435 0
-333 -458 294 0
-310 224 304 0
70 437 195 0
204 -192 237 0
454 9 -50 0
275 -197 460 0
362 -168 407 0
-280 18 -286 0
-137 -29 217 0
123 354 383 0
474 -30 -152 0
271 -263 -452 0
-236 449 296 0
74 -19 -118 0
99 -129 439 0
-489 381 -384 0
-72 -203 -84 0
-63 -457 -139 0
443 -13 -390 0
-378 -81 -250 0
468 -82 -394 0
-305 -262 -488 0
-118 91 -303 0
208 -360 262 0
-399 323 -384 0
67 -455 449 0
451 -84 -308 0
262 -77 69 0
255 -90 153 0
-97 -426 -151 0
150 279 -73 0
-489 287 324 0
149 161 -357 0
165 42 79 0
-283 138 -183 0
-208 -166 345 0
-378 70 65 0
-187 125 472 0
450 428 -185 0
225 -187 230 0
101 -357 -25 0
-422 59 -194 0
-302 188 253 0
293 132 -473 0
-227 209 55 0
-81 315 380 0
39 86 -1 0
-120 -313 73 0
322 -46 -379 0
335 -462 -315 0
-20 387 455 0
-97 -227 349 0
-466 -210 390 0
-478 290 -247 0
375 231 262 0
-254 354 -136 0
-20 456 -163 0
456 170 307 0
-419 203 -337 0
-440 85 -41 0
-438 251 -46 0
-296 -16 -279 0
-309 -45 341 0
403 -442 -29 0
73 180 -260 0
192 -250 146 0
318 172 -150 0
-8 -347 -172 0
1 -25 -394 0
-5 -348 466 0
445 -252 -440 0
484 -83 166 0
-306 78 -407 0
-212 59 -493 0
31 -366 263 0
-321 -377 -421 0
2 -369 -160 0
-400 -270 232 0
379 -388 -55 0
306 -40 -179 0
-105 229 -277 0
-257 -397 -281 0
194 267 439 0
-284 -455 263 0
412 -152 -100 0
8 -223 -471 0
299 -7 418 0
-100 336 27 0
95 -433 -375 0
-213 434 396 0
-181 -112 485 0
-493 277 251 0
39 -445 -446 0
-24 397 289 0
-177 135 178 0
-192 163 -26 0
-20 379 -321 0
459 -171 31 0
-455 102 -167 0
-284 -169 -442 0
182 180 -296 0
-35 -120 71 0
37 54 110 0
74 147 403 0
-412 24 -460 0
-388 312 -425 0
494 -343 439 0
-238 -207 -61 0
328 296 -132 0
-157 475 169 0
-20 113 460 0
-270 178 60 0
291 -147 442 0
-247 433 55 0
-294 447 72 0
-174 316 -72 0
376 173 -166 0
-300 42 -294 0
-457 233 476 0
10 -187 -471 0
-12 -50 -78 0
420 -381 23 0
-311 465 -193 0
-320 469 -421 0
-113 383 12 0
-424 28 -85 0
-324 -434 500 0
-327 55 74 0
181 -434 -18 0
475 -374 116 0
-179 -215 -50 0
-358 -277 -29 0
264 231 324 0
153 322 181 0
353 449 -60 0
104 -191 24 0
-389 415 229 0
-384 -210 267 0
204 240 -295 0
3 -493 -309 0
-342 -72 86 0
208 199 -280 0
-487 -322 -332 0
171 -42 -224 0
-5 115 -237 0
19 -9 -156 0
-391 -248 -3 0
229 19 285 0
357 293 250 0
372 -229 267 0
66 -475 29 0
104 -60 395 0
20 -451 24 0
-241 145 453 0
492 -71 484 0
449 81 283 0
358 -425 45 0
-258 -61 -264 0
162 -291 -22 0
22 387 -136 0
302 13 -323 0
-90 142 -346 0
1 -27 261 0
296 174 -384 0
-194 9 479 0
-445 414 306 0
-119 -287 448 0
-488 -118 -267 0
-452 -237 -332 0
65 37 -267 0
142 301 -329 0
-149 61 -51 0
53 -424 81 0
-87 2 -115 0
186 -234 147 0
-223 -28 53 0
411 304 284 0
49 445 -11 0
-498 373 38 0
-493 347 448 0
65 -76 -224 0
228 121 1 0
-185 -362 351 0
333 -331 187 0
-500 -52 134 0
136 -383 -418 0
254 -419 153 0
-426 -487 77 0
-398 -137 95 0
-223 -300 -398 0
-231 447 335 0
-499 -145 -320 0
280 -153 414 0
-208 445 -80 0
-49 -296 35 0
65 27 388 0
-175 -306 414 0
402 -146 105 0
