p cnf 200 770
-13 84 -141 0
-26 177 -69 0
50 -121 41 0
-38 6 -128 0
-147 -34 -80 0
117 18 -8 0
-92 113 -153 0
-147 74 -157 0
-175 131 177 0
180 -58 -119 0
32 -137 193 0
101 -102 106 0
-2 167 163 0
200 -39 45 0
109 -45 32 0
163 49 -22 0
-83 182 194 0
11 175 167 0
11 -74 -66 0
94 70 198 0
13 -2 113 0
-62 -136 -11 0
-100 162 75 0
-41 -39 6 0
69 193 -18 0
22 -57 51 0
4 85 176 0
193 161 -180 0
133 -43 164 0
-45 72 -178 0
179 131 7 0
102 -41 189 0
-183 38 186 0
89 -123 -171 0
165 -156 57 0
-77 15 -54 0
-99 -135 -149 0
52 11 -103 0
100 -9 30 0
70 148 -111 0
176 -49 189 0
159 -101 103 0
18 140 -170 0
177 -54 200 0
-78 108 -3 0
-139 164 -31 0
62 149 100 0
20 61 -62 0
-139 2 -5 0
176 -197 185 0
-21 -124 -175 0
68 6 -17 0
179 84 123 0
-50 -99 115 0
94 170 149 0
74 -67 -21 0
-33 -77 134 0
133 83 -106 0
167 -107 63 0
-191 29 -83 0
4 -64 86 0
114 188 73 0
-121 21 -42 0
-78 -76 20 0
71 133 148 0
-94 -196 32 0
-69 -74 158 0
-22 -162 7 0
-71 -161 -181 0
-43 -70 73 0
-142 128 -143 0
-84 -158 -34 0
-88 -37 -6 0
59 -155 -64 0
-96 -177 192 0
-119 124 150 0
3 58 -39 0
28 -195 11 0
-9 -142 4 0
57 -50 -25 0
65 -152 198 0
-153 49 -141 0
-54 -66 7 0
-54 -29 -16 0
39 84 72 0
181 143 155 0
-80 -56 -171 0
159 182 -139 0
-145 21 174 0
-124 91 -160 0
38 -137 13 0
141 -96 -189 0
-163 195 15 0
-73 -79 112 0
142 -173 -16 0
176 -23 -179 0
122 20 -64 0
-9 -77 -72 0
72 -95 -2 0
184 -76 17 0
106 133 -194 0
152 149 -97 0
19 -40 154 0
-5 123 169 0
114 -43 -121 0
-19 -167 -173 0
-180 -176 139 0
188 -163 -78 0
-193 3 172 0
-147 -8 6 0
162 -177 -19 0
-94 86 44 0
113 -185 136 0
85 -39 -78 0
-172 -108 -101 0
39 90 -54 0
-156 66 166 0
-110 -105 185 0
19 -145 -138 0
-116 -68 -117 0
42 -3 70 0
119 -123 -13 0
29 1 -174 0
57 36 -122 0
33 -112 75 0
179 -131 -15 0
-68 -150 134 0
35 24 159 0
114 130 151 0
-150 -126 28 0
-31 116 117 0
125 -73 -83 0
94 18 -57 0
-168 20 -36 0
27 65 -167 0
-155 -81 161 0
155 57 173 0
66 -56 6 0
196 3 56 0
-82 100 11 0
91 141 4 0
131 193 -108 0
-151 -67 171 0
130 -74 100 0
118 -157 127 0
162 -98 -106 0
-34 81 -182 0
-103 -186 -134 0
-59 96 81 0
161 183 -146 0
103 182 -116 0
-31 -167 184 0
101 13 -158 0
145 -87 -34 0
29 107 186 0
33 -100 -140 0
-98 -142 -36 0
-198 -35 -100 0
-79 -38 -22 0
-78 179 152 0
33 -65 126 0
-75 154 -64 0
-7 32 76 0
57 -78 197 0
-30 -79 40 0
75 -112 180 0
139 -45 -170 0
-150 39 -42 0
-197 -43 114 0
162 -58 -92 0
-185 -93 97 0
-62 -191 46 0
-154 -82 -165 0
-162 171 187 0
17 53 64 0
45 27 -114 0
99 133 42 0
-27 156 -97 0
145 -73 -43 0
-107 -176 -18 0
-31 -172 117 0
-194 -74 54 0
-163 179 -19 0
-131 129 138 0
-105 -88 155 0
-83 198 100 0
-193 110 60 0
96 42 27 0
-95 26 -119 0
198 -73 151 0
-80 -164 139 0
55 188 -162 0
-96 -22 150 0
-76 -45 -79 0
139 -102 67 0
-78 -79 -120 0
2 -195 -198 0
-173 -40 -128 0
152 -10 -179 0
-38 180 88 0
11 -49 135 0
-102 -30 62 0
67 -64 -90 0
-26 -149 129 0
-91 73 92 0
61 -21 183 0
-145 115 -171 0
-186 129 167 0
52 180 -104 0
90 -45 -8 0
-125 -129 -144 0
89 -164 -181 0
-103 -146 -70 0
75 19 -4 0
16 125 118 0
90 -141 -80 0
-162 117 -79 0
-100 -39 -57 0
46 -131 86 0
-153 129 -184 0
191 -57 118 0
188 -12 -25 0
160 13 151 0
-131 -85 198 0
147 -42 -30 0
157 75 199 0
-90 68 96 0
-48 -94 63 0
-196 -141 105 0
144 -175 -64 0
-150 103 -67 0
142 175 199 0
7 -49 -153 0
-87 -90 -31 0
-85 -32 26 0
-119 -95 -185 0
173 174 -33 0
15 -133 -32 0
196 68 -51 0
197 189 193 0
-77 145 -11 0
96 49 120 0
113 194 150 0
165 -161 124 0
119 -6 -186 0
-39 125 64 0
109 -78 -112 0
42 -62 123 0
154 109 -14 0
-86 -151 -16 0
-50 177 -44 0
-84 -26 46 0
196 -35 90 0
196 177 -153 0
-134 88 -174 0
-138 -152 -91 0
-157 -83 183 0
66 -140 130 0
84 53 140 0
-23 77 -120 0
-40 -60 -167 0
-127 160 163 0
-146 -170 -14 0
31 -166 107 0
-62 -11 -155 0
180 -175 172 0
42 183 82 0
36 -61 65 0
-94 -5 189 0
-129 181 -134 0
-162 50 108 0
-142 146 -135 0
-187 147 20 0
-197 20 42 0
84 -181 35 0
-72 -145 -158 0
-91 32 186 0
-42 82 18 0
-191 -28 -7 0
-95 18 -21 0
-115 -89 111 0
143 135 77 0
107 9 79 0
48 9 156 0
-46 153 11 0
-87 -188 6 0
-185 84 -77 0
-10 -95 -75 0
116 -189 -91 0
168 -68 186 0
-62 -167 123 0
143 -132 166 0
48 152 -35 0
12 -17 -27 0
-48 -97 51 0
-195 -83 -165 0
-105 134 -196 0
115 128 -139 0
169 -139 28 0
-47 77 -133 0
-33 132 159 0
74 -138 -8 0
-143 104 -99 0
41 -192 -107 0
125 -40 -15 0
-185 129 21 0
124 42 24 0
-195 6 124 0
-79 107 -192 0
-130 77 126 0
141 191 -134 0
-9 181 -94 0
127 90 -36 0
54 179 -109 0
36 -187 152 0
53 177 9 0
76 10 118 0
22 84 33 0
-53 -100 -140 0
-120 -142 103 0
-54 -15 -58 0
136 -96 111 0
-34 69 -174 0
-71 -99 -192 0
31 139 79 0
-39 -117 -131 0
-27 -116 98 0
-104 -200 -46 0
131 37 -80 0
141 -127 -90 0
190 19 2 0
52 -77 -34 0
-116 -105 14 0
-122 144 -5 0
-184 -94 -171 0
112 85 -144 0
-126 -63 13 0
39 -10 163 0
30 -196 114 0
-68 -155 148 0
-86 40 -77 0
-177 -113 -129 0
-27 -193 192 0
95 118 146 0
-34 100 3 0
35 -3 -116 0
9 -169 124 0
-188 -86 -73 0
96 69 -181 0
129 148 -125 0
-122 146 -99 0
107 128 53 0
47 -33 159 0
162 -37 -111 0
-187 -120 112 0
-29 -160 -99 0
-101 40 165 0
50 -115 93 0
149 90 -148 0
-148 93 164 0
-102 -197 180 0
46 11 -112 0
89 -135 118 0
120 -127 -150 0
-27 -176 -22 0
184 130 8 0
116 -21 17 0
-138 -188 172 0
164 -128 119 0
82 87 -13 0
-12 -68 28 0
185 126 44 0
-195 46 -18 0
56 -38 -64 0
50 112 -83 0
-175 181 95 0
40 154 97 0
189 -60 39 0
-144 -151 -141 0
-140 -161 -60 0
-49 192 164 0
-38 100 -73 0
-32 38 165 0
-86 31 -55 0
-23 81 -166 0
116 16 157 0
-59 77 -120 0
-68 108 -34 0
-91 -85 -151 0
-37 23 134 0
-81 -46 188 0
139 157 -135 0
134 159 -180 0
-63 50 148 0
-109 -59 -120 0
191 88 124 0
153 -199 -116 0
156 145 -90 0
-43 170 -120 0
-171 -158 81 0
116 115 156 0
24 -89 26 0
179 38 175 0
-127 115 -109 0
-117 -162 70 0
199 -51 -173 0
-179 70 175 0
195 -81 -28 0
-112 -76 -57 0
61 -12 -71 0
86 158 -145 0
-181 -134 -24 0
29 -151 114 0
172 46 -13 0
-149 158 159 0
93 99 176 0
-33 -63 145 0
-187 -62 -121 0
67 160 -140 0
-11 -26 -15 0
-104 155 119 0
9 118 92 0
176 -115 -25 0
-65 -139 130 0
48 -66 -186 0
105 -170 52 0
-194 18 23 0
-39 -140 102 0
15 -152 -154 0
138 -6 -193 0
199 161 -169 0
36 -31 46 0
-44 174 -125 0
67 191 140 0
-141 5 -121 0
-72 43 -78 0
-57 -103 -5 0
113 23 120 0
-141 -113 183 0
85 200 -161 0
79 115 -150 0
-131 41 -160 0
183 -166 -116 0
-91 122 -136 0
-14 100 -41 0
-15 -131 -167 0
74 -115 -133 0
49 18 -10 0
-90 152 185 0
165 175 -142 0
-91 193 -160 0
94 128 6 0
131 -120 -162 0
-30 -3 -164 0
-106 95 164 0
-30 -167 -88 0
104 74 63 0
108 -129 -109 0
149 140 -79 0
-40 41 -105 0
140 -181 -147 0
61 98 -32 0
-187 -166 -98 0
17 -57 42 0
-170 -56 -149 0
61 88 134 0
-111 -115 119 0
-196 192 -198 0
-42 -61 -83 0
-95 122 -56 0
70 54 136 0
-10 -51 57 0
-73 63 -136 0
41 78 -32 0
40 2 -199 0
-110 -130 -44 0
-158 -90 133 0
39 -141 4 0
189 193 -181 0
186 -108 -49 0
55 178 104 0
82 184 -177 0
117 151 -83 0
-116 -155 98 0
-10 -32 -39 0
174 171 33 0
-107 -127 -4 0
-36 -183 -166 0
-70 -86 151 0
37 62 152 0
162 144 3 0
-172 -24 78 0
137 -64 32 0
172 89 -154 0
-62 181 84 0
2 127 46 0
-175 73 -42 0
-162 -74 -39 0
42 25 96 0
-17 5 -188 0
-70 -21 127 0
141 -172 35 0
93 88 78 0
77 90 178 0
178 -51 194 0
-66 2 103 0
-153 16 161 0
90 -196 -162 0
-97 72 -169 0
110 -13 -113 0
6 1 -124 0
139 44 -152 0
100 -46 -186 0
-79 -111 86 0
83 121 -135 0
-75 151 -81 0
58 99 -157 0
-193 23 198 0
152 -113 -82 0
172 156 130 0
83 16 -197 0
56 -18 -12 0
167 155 -183 0
-29 178 135 0
148 18 -175 0
-50 -114 107 0
-24 -29 -25 0
92 -30 196 0
31 29 -168 0
90 56 32 0
-121 -46 32 0
156 -150 -3 0
61 -93 190 0
71 192 6 0
-41 -144 -79 0
65 43 53 0
-45 -25 57 0
-69 -61 -47 0
-102 67 -116 0
99 37 -9 0
-164 193 185 0
-197 195 -170 0
22 -143 81 0
-38 -140 23 0
35 -195 -102 0
89 -110 -171 0
-111 -129 -24 0
180 57 24 0
-40 -95 116 0
22 113 151 0
-173 110 189 0
-116 50 103 0
-97 130 10 0
-100 -84 94 0
-90 -42 89 0
-70 90 73 0
167 1 -55 0
164 -11 -107 0
-47 -58 -50 0
-143 72 94 0
-28 -104 -149 0
-165 76 180 0
8 -46 174 0
-145 74 53 0
-71 51 115 0
-102 -126 166 0
-84 -179 -159 0
104 183 -76 0
161 -67 29 0
192 -103 136 0
-195 -168 17 0
80 100 -87 0
109 -71 188 0
-175 35 200 0
171 -188 157 0
155 -180 23 0
-180 184 162 0
-195 -67 79 0
-22 -37 111 0
111 -47 -105 0
109 49 -115 0
145 -52 -138 0
-141 85 25 0
-22 -181 166 0
-168 -169 -9 0
-103 -86 156 0
50 195 149 0
-199 57 38 0
74 -67 37 0
106 -36 -13 0
64 -16 1 0
-192 -102 170 0
-150 134 11 0
-72 -106 -68 0
-104 117 -180 0
121 112 -182 0
-42 -130 48 0
64 -197 45 0
42 -14 118 0
-198 14 180 0
56 -143 -195 0
-78 -97 99 0
-186 106 10 0
93 -148 -79 0
-147 -23 -24 0
-44 80 -101 0
-19 -138 34 0
-23 147 64 0
169 176 109 0
-61 50 156 0
30 37 -176 0
-43 -69 -108 0
70 129 115 0
58 135 69 0
42 -24 -22 0
-101 -79 186 0
-82 -102 -188 0
185 34 -166 0
116 -69 186 0
-17 -154 -125 0
-178 -12 89 0
-134 79 135 0
-54 -30 41 0
143 37 -191 0
-108 -58 -193 0
-41 -5 33 0
-176 -76 20 0
155 -101 82 0
129 -158 190 0
7 181 -172 0
-36 77 -190 0
67 11 16 0
-143 -18 -130 0
166 -101 -58 0
45 60 -55 0
-186 161 -183 0
166 54 -60 0
93 79 80 0
-174 130 -87 0
-84 -144 -131 0
-124 179 -164 0
-40 107 -73 0
169 -148 -164 0
9 -158 -181 0
149 90 30 0
-85 -181 -62 0
102 -124 -44 0
-160 -74 -104 0
111 -200 -17 0
-191 83 -164 0
38 -198 -85 0
195 -106 -80 0
43 31 -27 0
-76 -84 -90 0
-54 -18 43 0
-86 -188 -187 0
-143 168 23 0
-96 196 153 0
39 -138 -121 0
-141 -188 183 0
122 11 -142 0
11 -25 183 0
-23 -98 1 0
-68 -49 -17 0
-23 64 -127 0
-173 -52 -109 0
-30 176 -90 0
3 94 -145 0
181 -41 -83 0
40 -17 -175 0
68 -117 51 0
177 32 161 0
83 -138 -38 0
-132 131 200 0
145 -129 147 0
184 -105 -109 0
166 -133 -190 0
-168 37 80 0
135 -76 63 0
114 17 -163 0
41 -24 178 0
5 -142 -145 0
157 51 -33 0
63 -181 -156 0
-185 -81 42 0
-80 20 -17 0
71 93 70 0
-36 -37 131 0
50 68 -74 0
-174 199 -122 0
172 57 118 0
192 160 146 0
-65 18 -40 0
61 -166 -171 0
185 -86 169 0
160 -130 -138 0
-92 160 30 0
-136 140 -151 0
85 146 99 0
-129 -54 84 0
-90 -128 186 0
-69 196 -154 0
2 87 -121 0
-177 -175 -149 0
-85 -169 75 0
-56 62 -191 0
26 131 -55 0
-193 109 164 0
-65 -18 51 0
-85 9 -33 0
107 -136 -200 0
126 -163 -181 0
7 72 -115 0
-21 -127 48 0
157 -48 -195 0
-17 -91 -54 0
-27 173 -157 0
-147 37 20 0
37 61 125 0
58 -183 12 0
-114 144 169 0
-86 -80 -108 0
-11 9 90 0
198 142 174 0
170 -196 -95 0
13 -70 -112 0
-78 92 200 0
-147 -2 -85 0
-69 179 180 0
57 -151 69 0
-44 -186 -13 0
77 80 -58 0
168 -70 187 0
134 130 166 0
-199 -146 173 0
-197 -162 -145 0
-72 190 125 0
-12 127 -156 0
-146 -137 -17 0
-147 58 104 0
73 105 -75 0
-26 -200 129 0
189 -99 7 0
-106 159 40 0
-161 30 -49 0
140 -197 -157 0
124 -52 -21 0
-61 -43 -14 0
89 139 142 0
106 114 -142 0
-8 -62 -171 0
-52 129 142 0
-93 154 12 0
-136 -30 8 0
80 -100 181 0
-198 77 141 0
-88 -38 81 0
36 6 -69 0
-182 24 -49 0
152 61 196 0
168 157 -71 0
-113 192 -59 0
141 -158 -182 0
-61 22 -124 0
59 49 152 0
60 61 -122 0
40 -165 79 0
18 30 -164 0
155 19 195 0
102 -178 138 0
