p cnf 100 400
-27 -45 -15 0
7 -92 98 0
-9 41 -60 0
-79 48 -49 0
98 -94 -34 0
-47 5 72 0
72 -66 -64 0
-99 55 -24 0
88 41 43 0
19 -76 87 0
-65 93 75 0
23 -2 62 0
-48 89 -49 0
100 72 33 0
8 -46 -65 0
14 -12 -98 0
78 77 -17 0
47 8 65 0
-50 -15 44 0
38 -35 16 0
-45 21 53 0
-79 55 96 0
-54 99 -29 0
-87 -25 14 0
60 -86 -13 0
53 -62 -48 0
26 -87 -93 0
-84 12 -25 0
56 -99 -57 0
26 62 67 0
64 65 -75 0
-18 -89 76 0
68 -27 -57 0
-97 -25 89 0
-19 -31 33 0
85 42 -99 0
-85 55 -73 0
60 -95 -26 0
24 -43 -63 0
-52 10 77 0
-80 -53 -2 0
23 88 30 0
-44 79 84 0
81 -4 83 0
38 -97 -81 0
-44 -45 50 0
85 39 1 0
-52 65 -54 0
79 -29 -100 0
64 -73 -88 0
-65 -34 -25 0
-10 98 97 0
84 -44 -40 0
-5 10 -53 0
-81 -30 35 0
18 -48 -70 0
-73 58 94 0
-76 -71 -63 0
94 54 6 0
-10 26 70 0
89 -96 -68 0
-50 67 -68 0
-22 -86 -67 0
-96 55 28 0
-78 1 31 0
-93 6 -24 0
-34 85 5 0
-14 36 -40 0
14 -12 -100 0
3 -98 -94 0
17 -30 -96 0
-87 -94 -5 0
-24 35 28 0
-9 100 -59 0
-94 -22 82 0
25 -79 -80 0
-13 -43 76 0
-63 -36 55 0
32 -95 -82 0
89 -41 38 0
-2 -1 4 0
25 -93 -76 0
-20 -97 33 0
-71 73 1 0
9 -24 62 0
-47 -4 -76 0
-6 -54 -91 0
-89 -7 -63 0
-64 76 -67 0
-10 -39 -73 0
11 -86 75 0
8 -58 -36 0
23 13 85 0
-39 -58 9 0
89 45 18 0
56 -68 69 0
66 -13 -88 0
48 32 -14 0
65 -76 17 0
-99 -55 6 0
-63 62 24 0
-99 14 -5 0
78 77 11 0
-70 84 2 0
86 -32 -72 0
-30 55 25 0
-14 92 42 0
-66 -7 51 0
-29 -36 -48 0
-64 71 79 0
-27 -90 -18 0
93 74 -36 0
-75 -62 28 0
-97 41 -30 0
25 8 2 0
1 -83 -74 0
16 -63 11 0
-55 -25 65 0
-63 31 -24 0
17 -66 -85 0
-17 -31 -86 0
60 2 -38 0
82 67 66 0
24 -42 96 0
-44 98 -49 0
-31 -82 -83 0
-89 -10 -1 0
10 -24 -20 0
73 -80 -19 0
-46 -88 30 0
5 -11 72 0
-74 72 66 0
2 -29 -80 0
-14 -37 17 0
-48 -94 36 0
-91 -45 -59 0
51 16 55 0
67 -39 -87 0
-78 -61 60 0
53 87 -89 0
-66 64 -51 0
-42 95 5 0
-59 -62 15 0
82 28 72 0
88 -37 -85 0
-33 37 10 0
-58 60 -73 0
55 -72 -43 0
31 10 80 0
64 48 84 0
-45 -35 92 0
-38 -66 -7 0
66 52 -76 0
-38 -61 9 0
84 1 98 0
-4 -18 30 0
48 16 -96 0
70 -77 25 0
-45 13 -42 0
-89 -29 -44 0
-31 44 10 0
91 86 -60 0
9 73 -84 0
-93 -99 -92 0
-88 -71 93 0
99 29 -3 0
-74 -71 -55 0
-31 -16 98 0
12 85 -62 0
-66 92 99 0
47 39 -5 0
-36 -72 20 0
-17 -84 5 0
100 -66 2 0
-17 -43 67 0
-4 -77 -38 0
94 -4 -24 0
12 26 64 0
-43 46 -17 0
17 84 -82 0
-25 97 -72 0
67 76 53 0
60 -99 -9 0
-29 37 40 0
-28 42 -43 0
90 89 70 0
-95 3 -28 0
-81 91 -45 0
15 -78 -14 0
-2 15 35 0
-76 -100 -25 0
24 -11 99 0
-80 24 -15 0
33 -74 40 0
56 -36 19 0
9 60 -21 0
-56 -52 -99 0
-93 -66 -7 0
28 98 89 0
3 99 -19 0
52 -93 -61 0
-47 28 38 0
-30 -48 -19 0
4 20 -1 0
59 -18 -7 0
57 2 -63 0
100 -13 -40 0
-96 -90 81 0
-41 -3 -40 0
-86 -45 -41 0
-28 54 59 0
95 -84 -73 0
-97 -5 -64 0
-70 -28 -90 0
-73 77 -19 0
36 98 -42 0
-79 6 -61 0
-32 -58 -35 0
92 -78 -30 0
-39 53 -75 0
66 83 22 0
-59 44 -65 0
-67 75 -26 0
-43 75 -74 0
67 -80 62 0
-75 -84 -36 0
-87 16 89 0
-41 70 -2 0
-69 -15 -48 0
-48 88 37 0
-64 -96 -83 0
-59 31 7 0
1 -17 -20 0
-57 -11 31 0
94 46 57 0
-79 -28 15 0
-71 -84 44 0
-46 69 35 0
-90 85 -82 0
33 63 55 0
43 11 86 0
19 44 -27 0
83 -69 -81 0
27 64 59 0
4 -47 -7 0
-22 2 -67 0
-52 -3 97 0
-19 -6 85 0
26 65 -51 0
-35 -34 -50 0
-1 -81 37 0
15 -68 -14 0
66 5 -31 0
-81 -67 -20 0
95 36 -12 0
62 84 -55 0
97 5 -71 0
10 3 29 0
-94 -62 31 0
76 -2 8 0
-72 -77 21 0
-86 -26 79 0
8 -81 95 0
-87 -19 -96 0
-94 -70 13 0
-38 -42 -95 0
60 -51 -83 0
-27 -63 -70 0
34 35 86 0
-11 -33 8 0
-68 -99 31 0
-54 92 -86 0
8 38 -50 0
-79 57 30 0
-66 70 -95 0
-65 85 -75 0
-66 10 -38 0
-8 -86 12 0
27 21 76 0
3 -62 -77 0
-18 -46 -11 0
-22 28 86 0
94 -76 -63 0
78 87 40 0
43 -94 -20 0
-21 -91 -17 0
-22 -26 -90 0
35 -49 -42 0
20 85 86 0
-20 90 -47 0
-18 32 15 0
64 96 51 0
-39 -61 29 0
64 72 97 0
-15 88 73 0
21 -12 35 0
-2 -80 9 0
-58 -52 1 0
-53 -81 4 0
44 61 3 0
97 31 -57 0
69 -63 55 0
97 14 3 0
32 -94 -71 0
94 30 -55 0
8 33 -67 0
-90 -92 -89 0
6 -38 -71 0
-17 -93 -35 0
35 71 74 0
99 -5 64 0
-88 -63 -23 0
-96 24 -79 0
39 43 11 0
-54 -94 -78 0
-74 -26 72 0
36 -95 -80 0
33 27 100 0
-80 -92 -81 0
-59 -57 7 0
-13 33 -88 0
53 20 60 0
88 86 95 0
85 31 -12 0
17 35 46 0
51 -33 -42 0
37 -85 -28 0
-71 -73 -48 0
13 -95 -57 0
12 -69 18 0
-28 -23 93 0
-94 99 -36 0
-13 94 8 0
89 -98 49 0
90 -81 -82 0
27 33 96 0
36 6 80 0
3 12 -93 0
57 91 -1 0
-49 -5 15 0
-24 -74 -2 0
-53 -72 -6 0
-27 -32 -52 0
-26 -72 81 0
42 -37 18 0
-12 -34 -90 0
-52 -5 10 0
-40 -99 87 0
82 -46 -4 0
90 39 40 0
-76 36 -29 0
55 54 93 0
-91 -46 -40 0
1 39 -68 0
37 -41 15 0
54 16 -46 0
-47 -86 21 0
-34 47 -40 0
-70 -83 -9 0
-46 75 -47 0
37 -38 70 0
13 4 73 0
-36 -21 -70 0
-55 3 -63 0
100 60 -54 0
63 34 25 0
-84 -71 64 0
-34 10 49 0
93 -7 -8 0
-86 94 8 0
-13 20 85 0
43 64 -91 0
-49 4 -86 0
73 61 55 0
-39 -60 -26 0
70 46 -62 0
-35 -1 -41 0
-23 3 -41 0
18 1 92 0
-20 34 12 0
-45 -14 4 0
-9 -28 82 0
5 3 32 0
-93 -16 70 0
-27 -19 -11 0
-22 -64 -55 0
71 -5 68 0
-40 1 -4 0
56 94 76 0
63 36 -52 0
49 -97 10 0
-28 -75 -16 0
97 95 65 0
-87 -82 45 0
-91 -44 3 0
11 47 -60 0
-47 18 16 0
-57 -84 10 0
-39 23 83 0
93 -57 -27 0
