p cnf 100 365
9 -76 80 0
-38 -44 -81 0
29 11 44 0
15 -43 26 0
-88 -70 -87 0
33 36 -75 0
-77 -14 -83 0
22 42 -70 0
-16 -93 26 0
-13 75 -53 0
24 -53 -73 0
-21 37 53 0
88 -65 36 0
-79 50 28 0
-83 68 -82 0
71 -52 6 0
-31 51 52 0
80 -64 -50 0
-80 -92 82 0
-24 49 38 0
-97 -50 -40 0
-1 68 -94 0
21 47 15 0
-52 -10 11 0
60 -50 75 0
47 68 45 0
32 16 -48 0
-45 -49 -47 0
25 48 21 0
72 -85 37 0
-80 94 -5 0
59 75 76 0
39 -92 -61 0
-15 -49 10 0
38 72 79 0
68 76 63 0
77 -19 -71 0
-2 31 79 0
-5 -98 -41 0
-72 -34 -90 0
83 -27 -9 0
-1 -90 39 0
-89 -79 -100 0
-3 31 -20 0
73 -91 58 0
-30 -18 51 0
100 -92 26 0
65 -72 -16 0
56 -3 93 0
-75 -26 -47 0
-43 78 83 0
-42 88 13 0
16 89 -63 0
26 10 4 0
91 68 -40 0
-34 -18 -30 0
-38 93 73 0
-96 -59 -93 0
3 25 41 0
-97 88 69 0
-94 -45 70 0
-22 37 -32 0
88 25 100 0
-26 76 -87 0
15 44 50 0
-18 -14 -74 0
75 -73 -71 0
-37 -31 35 0
36 -20 -15 0
-91 -51 -19 0
73 -63 30 0
-27 12 52 0
-89 -39 43 0
55 -62 46 0
-54 -63 31 0
-29 36 91 0
65 -52 -48 0
87 26 93 0
22 3 -94 0
-60 93 -53 0
61 49 13 0
34 -61 14 0
-92 -32 -8 0
10 29 -33 0
-79 51 -37 0
-2 25 -98 0
-9 -99 -45 0
41 9 -4 0
-17 -52 29 0
9 -10 28 0
57 77 36 0
-88 -73 -66 0
-52 17 43 0
18 -25 -86 0
-49 70 12 0
-49 30 -56 0
98 5 -63 0
91 61 -38 0
55 2 52 0
52 -55 25 0
37 8 -64 0
75 -56 -26 0
78 -94 22 0
-85 -33 36 0
-15 18 27 0
-77 -6 -50 0
39 -17 -31 0
45 80 65 0
-53 -62 -31 0
42 50 -73 0
18 81 -23 0
-3 43 93 0
36 41 -57 0
95 63 -62 0
3 94 49 0
20 -82 94 0
79 -96 49 0
-7 12 -75 0
62 -10 6 0
-11 74 -39 0
14 -100 -25 0
38 -86 -58 0
-33 -72 36 0
-92 98 46 0
45 -64 38 0
-10 54 63 0
97 35 37 0
70 3 -14 0
-61 99 100 0
38 76 -1 0
15 78 100 0
59 45 99 0
-96 -2 -41 0
-6 -95 61 0
65 39 -83 0
35 -18 70 0
-16 57 4 0
-93 -81 96 0
55 -75 84 0
-84 1 58 0
-72 10 -22 0
3 35 80 0
64 -45 -90 0
74 30 94 0
-12 19 27 0
41 -86 6 0
-47 -38 79 0
7 -87 -69 0
72 88 82 0
-93 -45 -85 0
-9 28 -2 0
54 -44 55 0
39 42 -53 0
72 88 5 0
-25 21 51 0
-66 5 -37 0
-67 -86 -18 0
-53 -5 88 0
-87 52 45 0
90 69 76 0
26 -11 60 0
-86 -17 94 0
-28 -26 -6 0
27 86 -34 0
-74 37 -16 0
-37 62 -31 0
-94 8 -44 0
37 32 -16 0
55 -16 -27 0
-59 9 45 0
-75 42 -41 0
6 2 -22 0
28 -73 -47 0
-28 29 64 0
-46 -67 -48 0
-90 -84 -78 0
-38 23 -70 0
45 -37 23 0
-18 81 49 0
-89 23 -8 0
-87 -23 98 0
75 66 33 0
80 63 43 0
-93 -81 16 0
63 -69 42 0
39 20 -27 0
-83 46 -20 0
18 99 47 0
45 32 49 0
-87 98 -8 0
6 57 36 0
75 85 -32 0
60 -66 69 0
16 2 9 0
-96 -48 2 0
57 -83 -46 0
-87 100 60 0
-98 66 95 0
99 22 49 0
-30 91 2 0
-21 92 -76 0
24 82 43 0
-65 -18 -11 0
33 10 -37 0
70 24 -36 0
17 80 -60 0
15 12 -43 0
-52 41 -90 0
-18 -54 -34 0
50 49 -32 0
-56 57 -54 0
10 5 47 0
39 42 2 0
-93 -71 42 0
-25 14 -72 0
85 -69 -35 0
68 72 -4 0
-29 -45 -47 0
-100 -39 98 0
57 50 19 0
-36 -58 -79 0
76 19 21 0
-57 16 -18 0
66 24 32 0
68 -53 -43 0
70 -66 75 0
-71 47 -10 0
34 71 -91 0
67 2 -64 0
-6 -34 -98 0
-76 -58 55 0
-92 -50 13 0
-71 75 -70 0
75 81 -95 0
54 70 -96 0
-6 -53 -13 0
-50 97 -46 0
-20 -12 53 0
45 91 53 0
-91 -47 99 0
-78 68 -100 0
73 -47 54 0
-59 -73 -64 0
-30 84 77 0
66 87 24 0
45 -100 -95 0
-5 -98 19 0
37 30 -25 0
83 1 69 0
-43 -63 -13 0
73 -92 24 0
30 -8 87 0
-3 94 -20 0
76 -73 21 0
15 58 62 0
-84 13 -54 0
-27 -16 -98 0
52 -100 98 0
34 -50 -24 0
95 11 27 0
28 -18 90 0
92 58 7 0
-2 -23 -10 0
-6 -18 80 0
99 9 -81 0
32 -69 -66 0
47 1 -51 0
-90 57 30 0
-65 32 74 0
31 -57 33 0
-31 -84 -20 0
-21 94 57 0
92 -9 -48 0
1 40 -3 0
50 41 -44 0
-21 -17 41 0
-83 33 -89 0
-70 -7 12 0
92 29 44 0
59 29 -14 0
59 50 -19 0
3 63 17 0
98 16 -29 0
54 -68 79 0
-90 -33 30 0
54 -83 92 0
52 17 78 0
11 -86 -54 0
-90 -93 5 0
27 -65 -61 0
37 -28 -87 0
11 -4 15 0
6 4 -85 0
-82 -15 99 0
-9 62 63 0
68 48 -23 0
-98 46 -71 0
-3 -53 72 0
-5 -83 -69 0
69 -33 83 0
-65 -89 24 0
-62 -81 49 0
-41 76 -64 0
97 100 36 0
68 -97 45 0
11 47 75 0
80 -13 38 0
21 78 41 0
-46 -55 63 0
-14 -8 18 0
65 -79 -46 0
44 -53 46 0
-69 10 -70 0
-19 -42 -54 0
80 -90 21 0
1 58 -38 0
60 -94 58 0
-94 52 27 0
-94 -26 10 0
71 -72 26 0
-29 27 71 0
52 65 99 0
-58 -93 71 0
-77 53 73 0
-47 36 14 0
-90 55 83 0
82 63 45 0
-14 -5 -95 0
22 86 -65 0
-53 -81 -33 0
-78 -90 -96 0
36 -35 96 0
9 48 -36 0
-33 52 -48 0
58 -47 -38 0
-26 95 -76 0
90 -36 70 0
-60 34 -62 0
-35 18 -47 0
53 -34 6 0
-86 -82 42 0
52 -79 -30 0
-47 88 65 0
-28 97 52 0
76 -97 -87 0
77 67 50 0
-20 -47 88 0
-75 -48 79 0
22 23 -76 0
-63 3 42 0
-93 -46 32 0
50 -90 -75 0
-35 -37 60 0
-79 -3 93 0
24 36 72 0
-10 64 31 0
74 3 -97 0
-90 -47 -68 0
-29 76 69 0
9 -27 -10 0
-61 83 70 0
8 -34 -22 0
-23 -80 42 0
83 6 -39 0
-10 88 -81 0
