p cnf 100 365
-36 9 -30 0
74 -22 69 0
65 -56 44 0
-99 -9 -6 0
99 25 1 0
-31 -14 89 0
89 -16 -22 0
-3 52 47 0
63 1 -3 0
-83 -10 86 0
6 -62 -88 0
49 9 -30 0
-98 10 100 0
74 56 -27 0
67 -100 -38 0
-52 -57 -70 0
-45 -19 34 0
-47 -48 87 0
-1 -72 39 0
44 -34 69 0
74 -54 -13 0
-44 -23 -85 0
-11 -26 -66 0
-85 -24 63 0
78 -39 -34 0
29 85 -97 0
-38 52 1 0
-65 2 -17 0
55 -54 85 0
16 -55 50 0
-71 51 62 0
-67 -54 84 0
96 -28 2 0
-19 -56 95 0
20 11 -46 0
65 75 91 0
-72 41 2 0
68 49 23 0
-67 -14 -98 0
-46 86 35 0
-21 70 95 0
-42 -13 -89 0
-71 31 46 0
67 12 -13 0
96 -3 -43 0
-81 16 -51 0
-80 -45 16 0
-80 -19 -49 0
86 -60 -93 0
-93 8 51 0
-90 9 -8 0
-13 43 -65 0
-55 85 38 0
-98 24 -76 0
78 5 -94 0
23 54 -26 0
43 -50 -3 0
38 -19 -65 0
20 -96 -85 0
-93 84 -39 0
-2 61 -35 0
75 -99 34 0
-13 -77 86 0
93 15 21 0
-20 2 71 0
84 -36 64 0
-86 -34 16 0
-31 76 41 0
47 -32 -49 0
-6 70 49 0
-62 -17 64 0
72 -31 -99 0
-81 45 -59 0
3 -97 -88 0
79 -12 64 0
55 16 80 0
-77 61 28 0
-25 24 -32 0
-50 64 98 0
-53 48 68 0
81 64 91 0
-71 -1 -85 0
19 32 45 0
-98 -54 -19 0
-27 52 -99 0
30 84 50 0
48 50 -62 0
73 -9 -7 0
55 -49 -67 0
30 88 85 0
-62 53 -86 0
22 -79 99 0
11 98 -96 0
90 88 18 0
50 52 -69 0
-32 -2 1 0
59 -3 -37 0
-53 -61 66 0
79 99 93 0
21 73 78 0
-16 47 -11 0
-50 -8 -1 0
-94 -91 -18 0
67 -16 -50 0
-47 -40 -98 0
-84 -42 -46 0
-46 -9 -81 0
-52 -97 -7 0
-14 -99 -48 0
-10 -44 93 0
-16 91 -82 0
70 8 35 0
-85 -38 87 0
56 26 -63 0
-78 -16 -58 0
66 -83 49 0
13 -47 -76 0
81 -84 5 0
90 25 -91 0
-97 38 -54 0
10 52 -6 0
17 7 -85 0
-44 42 -25 0
-57 -99 -12 0
-13 -61 12 0
1 -46 75 0
-12 -84 -87 0
86 96 -57 0
19 49 79 0
-24 -5 -64 0
-98 -10 4 0
15 34 62 0
-82 27 29 0
-52 -79 16 0
34 25 88 0
-36 48 93 0
-4 17 -24 0
34 59 -22 0
80 90 -39 0
-68 4 34 0
29 81 23 0
-51 -3 -99 0
-28 38 -71 0
-22 88 5 0
9 42 -96 0
16 -33 -9 0
-4 85 14 0
21 -89 -64 0
80 65 37 0
67 2 -44 0
-22 -95 100 0
11 -35 26 0
-55 -64 61 0
-50 -6 89 0
26 -56 -84 0
-28 91 40 0
87 -70 6 0
81 -21 58 0
-94 -31 34 0
48 3 50 0
4 -68 -1 0
-13 -37 -26 0
74 -29 90 0
-27 -19 85 0
-13 58 -36 0
-64 70 -67 0
-23 9 97 0
46 -50 -32 0
12 -81 -13 0
24 -77 78 0
-60 52 36 0
44 -55 88 0
-53 34 -31 0
28 -23 -21 0
14 52 45 0
58 1 10 0
-74 -5 41 0
90 -2 79 0
-50 39 99 0
23 32 -43 0
24 -18 73 0
-88 -59 -29 0
-23 75 24 0
64 -58 -88 0
-65 77 44 0
-65 -55 90 0
-18 3 27 0
-46 -41 12 0
53 -69 -48 0
-61 92 -23 0
64 -47 74 0
8 48 37 0
96 18 64 0
38 68 99 0
24 50 -13 0
-84 31 51 0
-66 3 87 0
-33 -81 95 0
-15 53 62 0
52 -83 -73 0
-45 -15 -20 0
63 57 -86 0
-88 -51 39 0
-56 -71 70 0
-34 64 -95 0
90 61 64 0
56 37 91 0
33 -49 39 0
54 -74 -39 0
51 -28 -57 0
12 -6 73 0
79 2 -15 0
-77 49 25 0
34 -86 2 0
-32 21 40 0
2 81 61 0
-55 -79 -58 0
4 -33 86 0
-89 15 29 0
62 -81 -49 0
64 5 47 0
-73 -40 -30 0
74 69 64 0
71 4 -32 0
39 56 -40 0
-47 -44 22 0
-24 -63 67 0
80 32 -67 0
53 12 16 0
-7 11 28 0
-45 -80 12 0
-44 -9 -21 0
-5 -29 96 0
87 73 61 0
97 -55 -85 0
36 -25 95 0
85 68 -86 0
-82 12 -33 0
-15 -58 -23 0
78 -86 -9 0
23 -56 55 0
31 91 33 0
-38 67 7 0
-58 -44 -88 0
-23 7 -89 0
41 35 -100 0
-98 79 -39 0
-22 87 12 0
-39 -79 88 0
-15 -87 100 0
29 32 -52 0
34 31 -78 0
65 -16 10 0
-91 4 -64 0
50 -53 -44 0
33 -87 -4 0
-18 93 75 0
4 -15 76 0
49 61 -31 0
-63 70 -1 0
18 35 -32 0
-96 95 -3 0
55 -10 -65 0
-13 -5 96 0
-15 -73 -62 0
-48 40 100 0
21 -72 49 0
77 71 -44 0
12 53 -97 0
43 -76 84 0
-45 50 63 0
-81 -93 60 0
59 30 33 0
-81 -1 24 0
32 46 55 0
79 22 13 0
-29 -69 99 0
-28 -49 36 0
-2 -12 58 0
-65 9 73 0
-43 29 -97 0
57 -18 11 0
19 -45 25 0
-8 -75 97 0
34 16 -36 0
67 -48 -82 0
-68 5 -88 0
21 44 7 0
-44 -10 -75 0
-19 -33 71 0
72 -90 -60 0
-8 -70 -80 0
50 87 -42 0
11 74 1 0
-91 -84 -73 0
-80 81 97 0
82 12 33 0
4 -47 72 0
-12 61 89 0
51 97 73 0
-47 12 -83 0
-46 82 29 0
-21 91 89 0
-8 18 75 0
-53 71 -70 0
-49 -43 48 0
-59 93 90 0
59 -88 26 0
-97 35 13 0
-2 -74 38 0
1 47 -77 0
-39 -59 -78 0
-22 -92 95 0
-96 -81 13 0
-45 90 -58 0
-76 -85 52 0
-6 -76 56 0
36 -40 61 0
-31 -46 -66 0
-88 -97 -75 0
-43 -28 17 0
-92 -84 -58 0
28 30 -81 0
94 -54 44 0
80 20 46 0
88 61 56 0
6 -65 -79 0
-96 49 -58 0
-20 98 12 0
63 -24 48 0
46 99 100 0
99 -5 -23 0
-94 100 -67 0
78 -51 57 0
-2 96 -75 0
-67 -37 43 0
-7 77 -67 0
30 -67 -90 0
55 22 90 0
72 35 52 0
-5 8 -86 0
89 90 -49 0
-94 -61 -76 0
-69 -15 -51 0
-89 -44 -12 0
16 97 -27 0
40 13 -51 0
-87 -75 -20 0
-90 -34 -73 0
-94 3 98 0
68 23 -8 0
-68 80 -35 0
36 64 90 0
100 -37 -77 0
-82 -91 -75 0
23 -91 -11 0
45 -49 64 0
92 -18 -85 0
-83 -21 89 0
96 -97 -80 0
31 27 45 0
11 -17 -42 0
-61 6 -24 0
71 -33 66 0
28 20 -94 0
