p cnf 200 700
-11 -29 160 0
-191 53 79 0
167 -170 -132 0
32 -65 66 0
-94 -126 52 0
-187 -196 -71 0
-104 196 26 0
-116 65 193 0
-140 -167 -163 0
95 -11 61 0
-26 -114 -199 0
30 -183 176 0
-126 -61 -51 0
-102 126 -52 0
-49 -31 -168 0
-43 -147 -161 0
-79 21 93 0
-149 -155 138 0
-49 26 181 0
178 197 -36 0
-28 124 146 0
-107 -65 -99 0
25 -44 184 0
-57 -41 116 0
-142 151 -104 0
111 157 -39 0
33 -73 151 0
164 -65 -186 0
-11 -24 -25 0
-75 -77 -13 0
-24 60 72 0
3 -176 112 0
-169 -191 -30 0
184 182 23 0
-38 196 139 0
29 -73 -107 0
43 158 103 0
33 61 -124 0
-95 45 27 0
75 159 -194 0
47 148 -14 0
59 -122 61 0
9 -103 171 0
8 -74 147 0
-89 83 -73 0
-7 -163 -172 0
44 77 -3 0
143 46 -175 0
78 153 140 0
-195 76 27 0
-29 78 1 0
11 66 23 0
107 -138 177 0
110 -18 60 0
-87 -141 -194 0
-9 112 -31 0
-127 -20 -79 0
-118 179 143 0
-119 137 -70 0
-194 9 -174 0
92 -45 -131 0
-27 -106 21 0
69 105 157 0
158 -101 -94 0
-107 48 157 0
54 -79 83 0
176 143 20 0
-86 -2 116 0
-27 168 -47 0
47 100 -43 0
-110 63 185 0
49 160 -135 0
127 142 -140 0
-122 -16 -77 0
109 19 98 0
-167 -188 184 0
-72 86 89 0
-121 -165 2 0
-11 136 71 0
65 -101 -57 0
-126 -27 40 0
133 -23 24 0
134 -189 -84 0
-38 -22 85 0
-151 138 -142 0
3 153 78 0
27 96 95 0
146 -127 -5 0
-112 -76 75 0
-172 51 -85 0
151 -99 -79 0
-169 154 196 0
194 144 -190 0
200 -195 132 0
190 189 106 0
66 -61 199 0
-50 89 84 0
128 -155 112 0
-156 -2 145 0
-98 -112 169 0
46 22 99 0
50 -160 46 0
-184 -135 -33 0
162 -172 -174 0
168 -122 77 0
-118 151 196 0
94 -39 -60 0
118 27 -90 0
142 -117 -113 0
87 145 -16 0
-125 -111 182 0
-22 -101 -80 0
42 -11 76 0
-167 78 121 0
112 -45 -60 0
-174 65 -104 0
26 -58 54 0
86 53 55 0
-46 61 13 0
200 -169 134 0
104 184 189 0
108 155 -62 0
-22 -119 96 0
-11 24 127 0
164 99 35 0
-198 90 -28 0
124 -21 -77 0
-199 -110 -97 0
-166 -61 133 0
-1 -121 113 0
-91 12 130 0
-6 -133 -54 0
-162 94 -116 0
-163 -124 -4 0
119 -77 -148 0
-162 -120 94 0
179 19 -71 0
-152 -16 -94 0
-29 9 189 0
-64 -57 168 0
65 -147 -129 0
-97 102 126 0
-72 -97 -39 0
61 143 -19 0
-193 -140 138 0
121 39 -56 0
-177 198 -4 0
-119 -170 81 0
22 -57 115 0
-5 46 -189 0
62 -41 157 0
115 178 -36 0
-171 123 -69 0
123 -74 -97 0
30 29 124 0
-196 151 -40 0
167 4 60 0
194 18 -172 0
89 -143 -34 0
44 -102 -114 0
15 155 21 0
-195 -26 -66 0
-89 43 -144 0
84 27 35 0
61 31 105 0
32 122 31 0
14 -55 -20 0
-89 23 33 0
23 -110 92 0
22 58 157 0
-14 -74 30 0
-194 -21 -59 0
135 61 143 0
-46 -15 -115 0
-13 -122 -42 0
-67 -86 62 0
-39 -171 16 0
-93 15 -135 0
92 153 162 0
72 -139 -116 0
31 -25 14 0
-28 84 166 0
151 -198 39 0
-158 -74 -100 0
106 -98 -176 0
181 68 -154 0
24 199 198 0
-63 -195 3 0
-10 -179 -149 0
145 175 41 0
-93 -45 -87 0
2 12 99 0
139 -90 -156 0
1 59 102 0
184 3 -195 0
54 -197 -56 0
-48 -184 -151 0
-169 -149 -107 0
-25 42 -103 0
159 -175 14 0
-94 49 118 0
-40 -22 69 0
-198 2 181 0
12 84 -100 0
86 -127 -24 0
162 -149 -97 0
139 -161 197 0
76 53 56 0
33 87 -169 0
51 128 -70 0
71 14 33 0
190 -44 14 0
70 90 189 0
-106 -177 -181 0
-24 -78 44 0
96 -19 -33 0
-65 172 -184 0
178 22 -62 0
-148 150 -121 0
-136 -187 -141 0
-197 74 128 0
-92 18 -22 0
-178 9 -59 0
-129 79 -107 0
-16 112 -14 0
-164 -138 146 0
184 45 172 0
13 108 96 0
98 -150 68 0
45 -75 -63 0
-85 40 118 0
118 165 -160 0
142 171 52 0
-191 -47 -193 0
-89 -65 -178 0
-102 137 -32 0
-148 -151 -159 0
181 92 -98 0
-81 128 180 0
-178 -167 -77 0
-58 -41 -188 0
57 90 -29 0
-168 -194 -81 0
-50 18 -174 0
28 117 65 0
161 101 146 0
-200 156 88 0
35 -107 -177 0
184 -183 -186 0
-143 -150 -7 0
-50 -59 177 0
-173 180 -95 0
12 -115 71 0
114 -159 16 0
194 76 11 0
3 157 -166 0
191 -100 10 0
87 -68 143 0
-150 115 -108 0
-121 -108 -105 0
29 164 51 0
-53 -136 49 0
-5 -134 189 0
-40 -137 -175 0
-42 117 38 0
-97 151 20 0
-85 -150 176 0
-192 -111 -59 0
40 -46 -45 0
-129 -156 69 0
160 -89 -98 0
-69 92 180 0
57 123 -55 0
-162 179 -14 0
125 43 90 0
-19 -59 163 0
-117 -145 -138 0
-91 -70 30 0
44 195 193 0
-134 119 161 0
-189 -157 143 0
78 169 -16 0
199 -134 109 0
-40 37 172 0
-30 -51 118 0
-26 -197 144 0
61 99 -123 0
154 -91 -48 0
100 -13 181 0
74 -58 91 0
147 63 -180 0
36 -147 88 0
-119 -82 136 0
-54 144 90 0
108 -131 146 0
170 -17 -61 0
165 155 128 0
111 23 -154 0
199 -198 -72 0
-118 -75 30 0
-89 172 -30 0
-41 139 -166 0
185 -197 -101 0
166 84 -51 0
134 -126 -60 0
-128 109 -7 0
20 33 -178 0
172 -3 -179 0
-15 -79 -90 0
-190 -200 -70 0
-188 64 1 0
-56 91 -97 0
-86 135 -198 0
145 157 -17 0
-158 116 35 0
186 -86 158 0
-174 77 -45 0
171 -172 -138 0
-41 -190 35 0
91 134 177 0
174 -193 -59 0
-7 -164 35 0
-106 -160 -45 0
-19 -153 -97 0
192 44 170 0
155 -176 -118 0
94 42 -70 0
-197 21 137 0
188 99 -97 0
53 -133 31 0
-85 153 84 0
-124 18 -84 0
79 -41 172 0
37 42 22 0
149 -183 -112 0
-36 41 51 0
132 -84 -149 0
140 107 184 0
187 140 91 0
-196 140 34 0
150 -192 -144 0
197 183 80 0
199 -33 103 0
-124 137 -163 0
197 40 195 0
130 197 -166 0
-24 48 56 0
-194 -45 146 0
-105 26 -86 0
85 197 -57 0
32 150 112 0
80 -47 -165 0
-32 -150 -157 0
88 38 41 0
95 155 -130 0
7 -113 -139 0
97 -4 8 0
-177 -114 -130 0
-47 130 -69 0
154 32 -174 0
-22 -14 -185 0
-12 67 145 0
150 -101 -178 0
100 180 114 0
141 -37 -196 0
90 66 -61 0
40 -109 199 0
-92 149 -85 0
4 -160 -188 0
59 -27 196 0
143 80 -102 0
-136 -72 -8 0
-6 16 58 0
-26 -155 -190 0
14 193 56 0
-108 -120 -66 0
93 196 -74 0
159 63 121 0
57 -195 -179 0
22 14 -17 0
-139 67 15 0
42 -35 52 0
-44 155 80 0
-164 134 -116 0
19 18 5 0
-108 64 82 0
-35 -146 -72 0
89 -70 26 0
-157 -98 -101 0
-175 -168 84 0
-129 171 86 0
-6 -149 98 0
-27 -69 138 0
164 -158 62 0
57 187 176 0
183 -38 182 0
-181 2 100 0
-35 53 -10 0
-8 167 -18 0
-83 -1 6 0
-199 149 -92 0
137 -136 16 0
-18 -96 -187 0
-43 160 -193 0
-78 76 43 0
-151 -76 74 0
137 26 -67 0
13 136 -150 0
-143 180 -187 0
32 155 -171 0
-77 183 58 0
182 4 28 0
8 72 -98 0
73 -147 60 0
-50 35 48 0
30 -110 116 0
-128 185 197 0
-142 84 -194 0
-131 -23 -26 0
-81 109 -142 0
-70 71 -16 0
-153 -198 4 0
28 68 97 0
32 137 -191 0
-139 56 -5 0
162 19 -136 0
109 -176 -106 0
-45 -179 -132 0
6 -110 -101 0
71 -189 91 0
-164 33 -118 0
-181 -149 -176 0
-90 -34 27 0
-126 -78 -77 0
85 -172 -20 0
-199 103 -138 0
12 -157 -87 0
191 -171 121 0
-66 39 -68 0
82 105 -194 0
135 39 200 0
55 -59 15 0
-51 4 13 0
129 -109 51 0
-153 -146 36 0
-143 -182 -68 0
47 -129 83 0
-134 59 85 0
-7 -140 181 0
-178 72 70 0
70 -200 34 0
-60 -96 199 0
-32 191 65 0
193 129 -137 0
-128 8 -135 0
-112 -85 139 0
-2 134 98 0
-173 -200 -5 0
-39 65 187 0
136 -57 145 0
-122 -179 171 0
115 -90 -160 0
178 182 -141 0
-76 45 -5 0
193 177 37 0
-42 125 -128 0
48 -47 -53 0
77 -115 -7 0
-181 -104 121 0
-59 -152 172 0
-171 -112 -119 0
9 -181 -41 0
1 131 124 0
-110 173 91 0
20 -188 50 0
187 139 -193 0
-62 -110 -53 0
195 49 82 0
-96 167 -87 0
-134 112 -68 0
93 171 -187 0
164 -18 -124 0
107 -8 -74 0
-186 146 161 0
114 120 -84 0
-176 -151 32 0
35 -182 160 0
87 196 -59 0
-78 -81 32 0
76 -124 70 0
169 -142 -87 0
11 -185 4 0
9 85 141 0
171 64 -62 0
-25 -136 -139 0
45 47 7 0
35 43 -127 0
-104 119 -61 0
-144 79 -131 0
-164 -12 -28 0
137 105 10 0
22 106 71 0
33 -53 124 0
-116 -22 180 0
77 19 91 0
-181 169 -131 0
-163 -172 -11 0
-132 157 122 0
200 -134 51 0
133 -158 30 0
-135 97 197 0
166 -48 116 0
-169 -143 101 0
-93 88 12 0
-160 -177 135 0
131 120 -191 0
97 92 170 0
-169 -96 189 0
51 -6 -184 0
-70 150 -23 0
-95 -77 156 0
63 144 -37 0
16 -169 80 0
20 -1 -121 0
45 -98 -183 0
-199 -161 -119 0
167 -83 -80 0
-145 80 -32 0
189 -190 -103 0
-82 123 1 0
15 89 -139 0
168 20 53 0
117 184 35 0
116 81 -113 0
87 -113 -172 0
100 6 -46 0
-1 18 138 0
104 -2 -185 0
67 -8 79 0
-93 -134 -161 0
100 -56 12 0
21 -124 -199 0
-140 166 -148 0
-179 48 -199 0
-39 123 -19 0
-141 40 -85 0
134 -34 -46 0
155 -48 199 0
-91 155 105 0
155 20 -125 0
-167 2 37 0
-21 -58 35 0
8 50 151 0
-101 -88 -200 0
-91 -139 -129 0
141 85 -123 0
137 -65 193 0
-49 -28 -182 0
-177 -74 -56 0
-11 -4 35 0
151 -192 181 0
55 -194 116 0
-105 -81 -144 0
-4 -47 179 0
30 -51 -72 0
-58 -14 156 0
-27 40 -112 0
132 196 78 0
-65 5 113 0
-61 -75 -45 0
22 -56 182 0
97 -48 132 0
59 -112 -97 0
-92 134 21 0
-26 7 73 0
31 23 -12 0
-40 -37 -12 0
30 164 -114 0
158 -75 138 0
-149 -23 105 0
137 -97 -107 0
30 -164 -14 0
184 133 -43 0
-21 102 165 0
-84 140 171 0
-70 -176 87 0
159 74 185 0
114 -42 -90 0
-197 -26 166 0
3 69 193 0
-65 -68 -116 0
184 -100 -107 0
-122 78 79 0
42 183 -49 0
-5 -191 93 0
164 118 188 0
-30 -97 185 0
-21 3 -56 0
-80 174 72 0
-152 -191 104 0
-99 -185 -98 0
-199 -12 116 0
2 -107 -114 0
-175 -17 111 0
-45 -81 89 0
-180 -183 99 0
-134 -34 -39 0
182 -21 118 0
155 42 3 0
131 49 -66 0
15 -122 188 0
3 10 65 0
164 -43 -2 0
-163 88 57 0
56 -42 -152 0
-74 145 -48 0
52 -196 -14 0
-68 120 -130 0
130 66 -190 0
-110 -147 23 0
-157 -31 -196 0
-106 -59 121 0
52 87 -186 0
-172 -63 -24 0
-140 -92 162 0
-90 -80 44 0
-160 -177 -119 0
108 -131 171 0
8 -139 -39 0
160 -176 -4 0
-158 80 -77 0
-11 115 -166 0
-74 -123 108 0
-93 91 39 0
18 34 -199 0
173 61 2 0
-15 121 76 0
-128 -192 -27 0
40 67 165 0
69 165 101 0
9 -148 -150 0
73 189 -64 0
-54 -194 46 0
43 -197 -165 0
-22 -68 174 0
196 127 -16 0
146 -147 -37 0
72 -80 171 0
4 94 50 0
47 24 -2 0
-121 -92 -97 0
-50 187 173 0
166 118 66 0
-157 -45 -122 0
84 44 -24 0
10 99 59 0
80 -67 22 0
-36 85 -76 0
122 -56 -86 0
64 92 -144 0
112 85 51 0
112 183 76 0
124 179 189 0
69 -13 -172 0
-200 -112 -58 0
-67 145 169 0
35 193 100 0
82 165 -33 0
99 148 199 0
-138 28 -76 0
44 -61 54 0
-174 170 -155 0
-191 190 -99 0
-166 164 -1 0
-85 59 5 0
42 196 -160 0
93 -32 -68 0
-199 -153 -31 0
166 -27 -63 0
85 125 -110 0
-52 -7 -126 0
-13 199 -90 0
63 -140 99 0
95 149 24 0
192 -45 -102 0
-9 8 28 0
-18 -64 196 0
-137 80 -19 0
172 -58 178 0
145 111 -89 0
-171 -175 55 0
-128 -20 -118 0
88 77 152 0
97 -137 -110 0
148 -182 167 0
-114 -51 -86 0
-58 122 52 0
89 52 82 0
-129 34 6 0
-160 163 -43 0
