p cnf 1000 3300
-586 -930 27 0
313 -68 751 0
-497 931 -436 0
838 428 -812 0
-158 87 562 0
-16 103 615 0
-462 -945 -730 0
-720 544 -204 0
857 -189 652 0
137 -390 284 0
388 -35 -63 0
872 794 183 0
-858 931 849 0
-761 519 161 0
-980 -144 127 0
-79 693 293 0
-53 376 -664 0
660 -153 802 0
322 147 659 0
-670 -827 -953 0
33 816 -466 0
-511 -646 223 0
-361 -846 -407 0
-811 -231 -993 0
-83 819 417 0
206 -375 892 0
287 10 -808 0
-218 -754 -64 0
-414 506 873 0
330 423 -717 0
389 20 472 0
924 -348 185 0
-165 -179 604 0
17 -118 -924 0
-91 665 -46 0
77 840 28 0
-856 -342 290 0
-430 -892 -22 0
286 704 -536 0
-774 986 -879 0
860 -690 -317 0
130 -355 -906 0
582 -624 -955 0
-690 -313 -354 0
438 544 -88 0
703 -491 240 0
131 835 916 0
-168 -230 -949 0
-149 -557 -651 0
-936 111 696 0
-815 30 510 0
-159 -820 -145 0
-165 738 354 0
-281 -565 633 0
99 120 -383 0
-26 989 -662 0
-641 323 352 0
-833 -611 407 0
308 -206 -352 0
-94 -754 -746 0
-143 -413 969 0
-20 423 574 0
189 311 -210 0
-709 -509 -649 0
-573 870 -950 0
384 891 919 0
776 185 475 0
250 645 405 0
-920 -318 -900 0
-560 -562 -356 0
468 -884 -711 0
501 -374 8 0
-914 215 -302 0
-481 -508 188 0
-318 793 12 0
310 417 990 0
582 701 759 0
155 193 900 0
-574 -128 774 0
-251 648 231 0
863 -637 973 0
-607 -170 287 0
-738 661 -363 0
362 473 -579 0
170 990 235 0
166 -927 655 0
509 -731 -364 0
208 -133 250 0
615 818 -909 0
337 -32 -182 0
-794 -583 60 0
29 -109 134 0
670 675 324 0
-521 751 -370 0
669 -138 -941 0
-638 445 -695 0
-695 50 305 0
851 484 706 0
88 -135 -923 0
-911 755 610 0
101 -744 729 0
160 929 255 0
353 768 62 0
269 372 -523 0
-938 588 -319 0
448 351 146 0
623 -923 -402 0
-67 -892 146 0
102 117 -333 0
375 -617 691 0
-344 202 -166 0
157 620 619 0
914 -919 146 0
-250 -52 -77 0
678 -536 18 0
203 515 905 0
161 -903 998 0
-886 -752 -332 0
-590 245 752 0
-523 -592 -313 0
694 839 -902 0
427 -930 225 0
476 50 -700 0
395 -185 -471 0
806 820 772 0
548 863 -284 0
118 -995 -772 0
-571 416 304 0
863 957 941 0
796 948 -421 0
-697 104 956 0
-377 -319 441 0
336 -341 350 0
-986 387 218 0
880 623 -775 0
-531 -576 -63 0
690 940 -834 0
-879 -344 -281 0
552 -509 344 0
-380 147 -257 0
41 155 68 0
629 277 837 0
189 -97 911 0
58 -711 -32 0
-717 775 597 0
-729 786 -492 0
-25 604 535 0
535 -864 735 0
-550 410 -771 0
690 463 417 0
902 -608 -584 0
160 -767 -678 0
-821 -532 115 0
891 -712 146 0
94 -560 -817 0
-401 853 27 0
-500 -499 -33 0
-381 180 -720 0
-211 -576 -78 0
9 87 -664 0
136 558 -363 0
-328 155 838 0
-174 -298 999 0
36 -502 989 0
259 72 681 0
-38 360 -648 0
492 -11 -523 0
-217 691 -762 0
-908 556 -42 0
352 -564 559 0
178 -868 740 0
-697 -348 526 0
567 -537 -456 0
214 259 220 0
-140 -999 -28 0
-476 -125 -260 0
-543 177 979 0
281 -534 -256 0
841 -334 755 0
223 -53 564 0
-654 463 -213 0
-767 -797 569 0
-40 955 336 0
-581 -594 -343 0
-418 267 -779 0
-445 447 -72 0
536 -219 -67 0
574 -481 740 0
-367 -107 -440 0
-813 -431 -729 0
-925 -448 126 0
831 828 900 0
513 771 283 0
44 -69 -732 0
846 634 -116 0
268 736 -136 0
-687 692 -78 0
105 -591 781 0
104 276 192 0
794 352 365 0
546 76 429 0
-618 -62 -274 0
649 -340 -132 0
-759 -835 -574 0
977 -643 -379 0
446 726 -57 0
-178 131 -45 0
-205 278 352 0
294 337 -959 0
-412 31 -598 0
-714 -65 -887 0
791 -336 422 0
-675 174 -4 0
208 -483 -371 0
153 -470 792 0
14 941 -783 0
856 813 352 0
14 502 68 0
-763 -944 -595 0
921 550 611 0
-772 -425 -601 0
534 -740 -125 0
-996 -673 -477 0
-414 -39 462 0
-596 -610 -969 0
57 26 -205 0
955 -870 -312 0
162 -177 -339 0
680 -864 719 0
271 -690 412 0
533 -608 -310 0
652 348 287 0
384 915 87 0
-975 -576 -610 0
901 161 -292 0
883 -681 818 0
-334 -898 -718 0
-956 -530 980 0
-5 199 563 0
166 880 -95 0
923 -245 441 0
-246 -298 -881 0
302 236 -125 0
-429 -876 -974 0
-202 847 -470 0
-732 674 -74 0
-317 354 542 0
-592 439 -427 0
599 865 632 0
-450 729 -470 0
-161 -162 52 0
342 -956 -590 0
754 -863 58 0
379 -40 -859 0
690 6 -173 0
832 -144 85 0
-264 -938 -342 0
620 759 -538 0
250 525 -92 0
-553 -16 -347 0
-243 280 -313 0
-862 682 937 0
100 -999 212 0
-634 -307 768 0
-196 -530 -910 0
198 609 -290 0
916 367 -228 0
-662 -693 -579 0
-492 -102 -611 0
577 740 -913 0
-729 945 -659 0
-778 337 -480 0
-272 703 205 0
-414 -418 -399 0
-431 400 119 0
556 227 -509 0
-644 209 877 0
899 290 811 0
614 -200 -512 0
551 98 162 0
874 -877 -445 0
-942 -451 584 0
-516 277 -732 0
-764 -653 -790 0
480 97 364 0
979 846 130 0
733 -107 269 0
-332 9 -839 0
572 -173 790 0
122 475 661 0
682 693 207 0
-938 -579 440 0
-405 603 -394 0
801 74 -105 0
-552 954 682 0
-844 -910 378 0
-820 901 -686 0
870 -566 -415 0
-213 310 323 0
-25 -366 -304 0
-320 876 -239 0
-611 -574 -946 0
62 -421 -450 0
133 -452 121 0
735 -161 -828 0
-456 29 -654 0
573 -308 993 0
361 -769 -920 0
-498 573 772 0
-304 -201 607 0
-703 -774 -474 0
-429 -420 -644 0
-936 85 -874 0
390 862 -494 0
-67 836 392 0
777 -239 413 0
-852 -4 120 0
-72 697 693 0
423 673 216 0
-929 -88 215 0
774 675 -563 0
290 543 -707 0
727 864 -319 0
-878 734 -545 0
601 -587 -654 0
-426 476 32 0
159 -21 -696 0
639 -326 547 0
547 371 807 0
204 -371 -279 0
298 322 -962 0
-303 -257 -892 0
-117 -913 161 0
-201 856 476 0
-270 770 -397 0
-849 454 573 0
662 868 640 0
906 594 592 0
-41 625 -185 0
517 -35 679 0
380 526 613 0
-44 46 568 0
109 -59 -968 0
630 -215 579 0
-717 59 -426 0
568 -334 -872 0
826 985 36 0
525 229 942 0
179 -583 -899 0
931 856 -665 0
339 -678 626 0
605 692 217 0
312 -582 86 0
-715 418 590 0
-215 509 288 0
580 322 128 0
-165 808 -972 0
-413 -177 381 0
629 940 819 0
921 585 -23 0
742 -608 -907 0
-690 -748 740 0
-729 331 329 0
-40 -131 -697 0
-106 367 -874 0
-46 -675 921 0
-328 -129 896 0
-420 52 -391 0
726 371 -159 0
472 567 333 0
-563 -298 -352 0
-457 -459 652 0
214 -523 537 0
454 -877 575 0
452 -872 -363 0
-97 -379 448 0
-929 -922 -275 0
880 388 820 0
297 -293 140 0
-336 -66 -871 0
-237 -351 -738 0
782 -432 75 0
-859 -278 530 0
962 -186 657 0
845 662 118 0
-434 -122 611 0
-379 -1000 -162 0
-619 843 748 0
-894 363 895 0
-245 654 611 0
-895 517 486 0
-617 -304 -480 0
282 -230 792 0
-331 284 -996 0
-326 512 -91 0
881 -166 331 0
-773 904 627 0
250 -996 352 0
-176 150 969 0
200 934 -833 0
488 193 -734 0
811 -999 957 0
659 -770 543 0
-926 -720 38 0
-944 683 -329 0
551 -1 -965 0
54 -465 -756 0
657 -512 -466 0
-215 896 630 0
463 -393 -500 0
282 -413 538 0
-971 -412 12 0
1 -370 51 0
330 -925 -559 0
670 -918 732 0
-24 880 -497 0
-951 266 -103 0
-287 660 -609 0
-926 -31 -202 0
526 332 17 0
-649 195 415 0
-292 -639 -263 0
844 640 -264 0
-157 863 -283 0
81 892 187 0
-4 -362 -751 0
533 233 426 0
159 -892 -267 0
-385 -642 59 0
-754 -917 662 0
335 162 -239 0
797 674 243 0
-908 897 -232 0
-619 320 382 0
-79 980 603 0
326 699 -73 0
750 -960 890 0
32 -184 823 0
-132 -152 818 0
709 246 586 0
432 -915 155 0
898 331 -991 0
-789 -432 -742 0
-976 -912 796 0
685 -428 -713 0
665 288 -527 0
-884 373 -773 0
503 -351 -730 0
-554 -571 613 0
264 937 -465 0
532 -430 -76 0
812 534 -624 0
754 39 612 0
-197 -716 -124 0
220 -60 -551 0
63 -751 -71 0
-240 -952 -287 0
228 -237 129 0
542 -771 -390 0
-757 -632 16 0
-759 -694 -36 0
-526 -427 -88 0
-828 401 6 0
765 465 -106 0
-473 -556 388 0
910 163 374 0
711 390 289 0
-511 488 -165 0
-498 -592 -876 0
-121 334 -635 0
-212 -814 -277 0
-13 217 794 0
-982 393 775 0
-250 178 -481 0
477 -620 165 0
788 -922 392 0
106 517 -761 0
-729 -526 139 0
8 -724 -867 0
-240 281 649 0
-436 707 832 0
-761 142 671 0
128 -285 418 0
603 -591 -156 0
337 814 -66 0
112 -913 -575 0
-932 -5 -610 0
193 -666 959 0
678 83 -787 0
643 -927 -329 0
-764 -876 694 0
-618 17 270 0
-801 -969 -200 0
-28 369 -22 0
866 657 900 0
209 237 243 0
87 -894 -376 0
804 -248 -725 0
160 837 -910 0
-213 -271 695 0
-32 46 -821 0
240 554 689 0
-165 928 -618 0
-340 -126 377 0
-644 -258 606 0
-456 -256 -848 0
-800 821 819 0
896 981 264 0
504 -520 226 0
-544 -302 -758 0
-616 -289 -34 0
-208 306 211 0
-173 -847 389 0
534 598 -54 0
-125 -348 -301 0
-492 -523 -78 0
-240 -618 987 0
819 124 762 0
-247 -966 423 0
-685 253 -213 0
647 -556 -309 0
-813 763 101 0
743 513 121 0
354 -429 570 0
-676 407 89 0
-505 -399 102 0
963 -500 470 0
739 -266 -833 0
-901 259 -484 0
-665 -565 -74 0
-175 966 456 0
460 -609 -228 0
324 -750 429 0
323 777 166 0
-454 -866 -401 0
488 197 927 0
-754 -361 398 0
159 -32 465 0
-404 -731 -127 0
57 458 76 0
29 -735 254 0
896 291 -225 0
-475 -856 522 0
-175 349 411 0
-125 -530 -6 0
-374 589 76 0
668 881 -349 0
-29 -637 579 0
798 335 -357 0
712 -344 652 0
-673 -284 -455 0
-783 263 -61 0
458 -714 -118 0
903 363 -724 0
-804 789 571 0
-726 -138 -721 0
-802 667 -921 0
594 -436 345 0
664 -75 222 0
787 -198 76 0
568 251 -961 0
-181 -15 999 0
181 911 928 0
945 -370 -164 0
493 687 145 0
-887 -524 -415 0
629 -807 106 0
-269 421 -458 0
544 -721 -189 0
-856 -423 209 0
-108 -812 -821 0
227 -889 630 0
-452 351 -113 0
-242 287 636 0
-831 697 309 0
-334 -116 -667 0
270 191 20 0
-451 -505 838 0
-344 817 145 0
-421 816 293 0
-438 991 365 0
-715 -319 -702 0
765 511 -408 0
-689 141 164 0
-523 -261 555 0
-587 -653 -396 0
665 412 -1 0
495 102 885 0
-239 976 630 0
959 -361 -106 0
-68 782 789 0
-325 -234 972 0
976 -162 -223 0
-713 187 401 0
-768 -903 -397 0
820 -214 399 0
585 36 481 0
-227 760 -533 0
697 101 299 0
-932 -426 -648 0
481 -660 505 0
980 78 566 0
-853 -969 -436 0
-336 423 72 0
-247 -814 -38 0
-378 -549 -98 0
-932 -427 -682 0
950 660 -353 0
425 -331 -436 0
-126 872 -543 0
926 593 853 0
706 29 -180 0
867 738 -245 0
-72 -434 -378 0
995 -999 -362 0
-982 -400 156 0
214 52 98 0
-770 -301 278 0
68 814 -928 0
877 -427 88 0
-692 -428 -570 0
-906 -669 -57 0
-793 944 860 0
378 487 -975 0
-64 -707 329 0
973 -215 -482 0
611 -931 957 0
-99 -900 -705 0
-136 -938 -140 0
-919 -4 133 0
851 346 -815 0
38 453 13 0
-488 -653 -944 0
409 434 -838 0
-980 -245 -528 0
-278 -301 -379 0
-632 977 223 0
799 -951 772 0
619 190 217 0
726 -154 -414 0
-835 -170 -218 0
-409 913 996 0
-105 -780 616 0
938 -354 -138 0
-914 -542 -708 0
-752 -449 -293 0
-279 -20 -102 0
-137 350 -413 0
-142 764 -56 0
-234 200 -9 0
-716 -828 -335 0
-415 130 766 0
-452 -660 858 0
-499 -562 449 0
-822 -385 -409 0
995 -383 252 0
715 651 -449 0
-765 606 -404 0
309 -57 988 0
610 -112 783 0
841 -323 -188 0
526 827 -813 0
676 -360 43 0
-163 471 -789 0
979 -451 726 0
275 789 947 0
-661 807 -537 0
-485 791 11 0
564 -402 -295 0
-550 -574 -151 0
-806 371 -40 0
270 -816 -45 0
169 652 877 0
187 -313 -951 0
406 194 -703 0
751 55 263 0
617 -329 652 0
-308 301 -729 0
-202 698 -740 0
424 -596 890 0
-292 197 -2 0
-333 -331 258 0
-782 -293 350 0
448 226 565 0
-254 466 -10 0
-14 -41 435 0
-874 226 -721 0
-288 -602 -346 0
-617 -837 -397 0
-461 -810 857 0
707 800 40 0
775 566 22 0
920 -602 663 0
-582 46 -493 0
691 -555 -640 0
-654 366 919 0
73 -508 358 0
-603 470 448 0
960 693 -319 0
-254 -249 31 0
622 559 -5 0
-934 279 875 0
-909 214 151 0
452 -411 690 0
827 -20 212 0
811 386 786 0
465 668 -35 0
508 620 473 0
-369 331 -104 0
-743 861 403 0
787 516 -522 0
-845 132 176 0
248 497 647 0
838 88 -22 0
-6 -722 -676 0
67 -64 244 0
709 -719 250 0
372 102 740 0
986 679 248 0
913 904 -773 0
765 -920 -748 0
99 -11 760 0
515 241 392 0
-534 -580 341 0
-269 -230 -196 0
-892 -676 34 0
734 -693 -46 0
999 574 425 0
-968 147 -575 0
642 -869 143 0
-872 -986 -23 0
-366 752 -502 0
805 -640 496 0
-514 -234 -263 0
-868 -283 545 0
-771 323 -571 0
-848 -890 -376 0
-843 -92 765 0
-18 -873 357 0
806 -905 118 0
646 506 -84 0
141 -692 -901 0
249 998 -324 0
196 -329 678 0
-799 789 -27 0
182 895 545 0
323 552 934 0
200 925 39 0
-84 916 157 0
-190 -207 781 0
128 645 323 0
358 839 -418 0
-789 495 -258 0
709 -212 9 0
869 326 -143 0
-236 120 -28 0
254 -613 -30 0
1 -846 583 0
-23 833 10 0
487 182 55 0
-496 1 -462 0
-956 366 -68 0
-489 -975 943 0
-489 -413 865 0
87 -299 914 0
-823 -536 -529 0
-574 598 508 0
-157 144 201 0
213 88 737 0
582 586 91 0
564 328 -308 0
315 254 -738 0
10 928 -606 0
973 -523 -954 0
-696 -430 -382 0
290 -219 -57 0
-232 409 -194 0
-226 -383 365 0
481 -227 -811 0
-102 -979 232 0
-206 -162 -499 0
-545 -832 653 0
871 -861 731 0
497 324 -826 0
509 184 -130 0
-255 632 581 0
-324 -908 514 0
-637 -318 736 0
-403 982 -824 0
113 805 -875 0
619 -366 163 0
644 -201 594 0
954 -26 568 0
-355 511 -675 0
790 -784 -81 0
-374 62 587 0
640 -492 273 0
721 535 589 0
788 897 -573 0
127 -675 305 0
693 932 561 0
525 -262 845 0
-963 365 -18 0
849 36 -782 0
-298 85 605 0
-82 -949 -239 0
53 -382 -388 0
804 -125 -937 0
720 -880 -121 0
970 903 604 0
-630 626 765 0
-729 359 240 0
-303 -91 -643 0
-14 971 817 0
-836 -136 -402 0
755 567 780 0
-299 653 582 0
-147 585 -405 0
-640 257 -555 0
-830 57 939 0
236 -67 -646 0
-943 -241 66 0
-274 964 494 0
-379 -78 677 0
-427 -979 -578 0
167 435 -987 0
985 -877 -351 0
-588 -686 609 0
396 104 944 0
406 -740 57 0
-478 485 726 0
-522 664 134 0
-482 510 847 0
-909 -638 -41 0
-907 -978 -549 0
-160 -875 -130 0
923 268 722 0
-308 699 643 0
-693 195 418 0
491 -105 748 0
837 -803 -464 0
-203 828 -428 0
-413 -443 -516 0
-915 701 -758 0
110 342 -601 0
-893 -546 -50 0
987 -673 381 0
-421 -916 -418 0
636 -220 -528 0
-810 422 927 0
-602 299 709 0
-984 641 -903 0
517 933 52 0
785 -74 950 0
768 706 -46 0
96 -127 -157 0
-281 865 277 0
390 259 -289 0
-783 -769 -159 0
-562 592 973 0
-177 -505 -851 0
-975 -213 -665 0
-950 -4 -636 0
682 548 589 0
199 -933 350 0
-93 -115 -525 0
-517 -298 -59 0
562 -881 8 0
370 -231 216 0
211 807 954 0
-297 501 -216 0
394 -355 625 0
-791 -236 226 0
-185 437 -90 0
672 214 897 0
715 -137 637 0
475 42 -600 0
-567 -977 78 0
792 -23 -283 0
-991 -265 -901 0
471 -145 341 0
-96 731 308 0
-69 970 868 0
495 339 -730 0
-402 -622 -684 0
974 -133 572 0
131 -550 -183 0
-589 -853 -757 0
847 613 328 0
842 -568 -969 0
-183 421 213 0
-22 -899 -352 0
-322 -862 -179 0
20 759 285 0
-936 -724 -546 0
-909 -150 -112 0
-74 835 181 0
-190 441 -933 0
197 749 -428 0
-944 471 153 0
858 511 -504 0
-804 171 709 0
596 -687 143 0
-600 -460 400 0
-69 297 338 0
-596 -704 -153 0
-416 -653 805 0
-786 493 -185 0
252 897 -581 0
-59 -268 -732 0
858 197 -28 0
-983 769 281 0
-994 21 277 0
452 -740 -122 0
139 -514 816 0
-65 -783 836 0
880 348 -247 0
-640 -898 901 0
-127 448 -256 0
974 -809 -303 0
239 -506 918 0
-791 781 -458 0
255 -362 -693 0
505 -1000 133 0
-929 994 -597 0
-403 800 663 0
301 32 125 0
695 401 168 0
255 -466 586 0
759 -462 839 0
-447 -843 -829 0
510 -441 596 0
553 -229 -358 0
10 416 -852 0
175 189 -71 0
-155 -278 -953 0
10 895 950 0
-544 -916 172 0
-388 695 548 0
827 -921 369 0
479 718 -790 0
895 -577 995 0
-368 -680 313 0
-422 749 -251 0
-984 434 661 0
680 -515 -584 0
-363 848 324 0
625 -814 -705 0
812 -147 -510 0
-22 -45 558 0
-818 -724 -616 0
177 -326 -542 0
-526 -492 506 0
-166 -310 164 0
295 -734 -927 0
-749 -725 -821 0
54 176 214 0
335 125 876 0
-678 -309 -45 0
-891 326 59 0
359 -987 -453 0
520 -803 -115 0
639 -257 -98 0
-868 616 -548 0
380 332 -14 0
-887 -536 676 0
390 932 -566 0
113 -898 664 0
11 326 475 0
-523 -297 418 0
-954 -316 -760 0
-852 680 650 0
-80 -540 -710 0
-403 -644 -780 0
-985 -138 -151 0
-140 640 -29 0
-235 -297 581 0
-318 -52 95 0
753 677 723 0
494 584 -123 0
502 -399 218 0
498 -152 -800 0
-19 -899 728 0
-661 -47 521 0
665 -199 78 0
206 -942 954 0
904 -29 103 0
795 -35 787 0
-855 612 56 0
-54 -156 -414 0
-381 44 897 0
-537 -63 831 0
653 112 109 0
-4 352 637 0
104 748 937 0
-322 -896 -52 0
262 -607 181 0
591 959 683 0
750 -902 289 0
14 329 -57 0
811 218 691 0
547 832 -151 0
603 698 -979 0
-720 827 -301 0
-60 -407 -730 0
-960 -184 -72 0
252 -529 157 0
-77 660 -998 0
-320 -511 -260 0
14 782 349 0
-301 -567 138 0
-721 799 -296 0
934 551 914 0
-574 671 67 0
-438 749 -901 0
-183 99 -669 0
695 -447 23 0
348 989 715 0
-545 -986 442 0
820 96 -489 0
-220 712 272 0
-698 431 -177 0
-781 -909 547 0
380 -254 -824 0
349 763 -649 0
-857 148 -804 0
-982 -880 615 0
736 830 -657 0
929 -919 -364 0
88 888 -359 0
-76 -857 197 0
854 -437 672 0
-779 691 866 0
-982 -363 -867 0
760 -302 445 0
-352 -501 -100 0
677 590 -462 0
185 97 -830 0
233 -27 573 0
-157 24 486 0
-423 223 -861 0
795 291 -208 0
-665 -246 -888 0
564 203 374 0
-850 807 5 0
-834 344 661 0
-534 -205 362 0
-495 -931 -74 0
66 148 -304 0
530 -520 -889 0
-623 261 45 0
-862 -277 534 0
-890 -31 821 0
191 353 777 0
-497 -515 -881 0
244 -911 -603 0
248 484 -100 0
933 324 -849 0
186 -950 -658 0
400 764 842 0
143 -27 -534 0
698 -992 -12 0
293 115 947 0
861 224 -769 0
-708 792 830 0
823 -829 71 0
373 -201 -585 0
607 792 -158 0
638 -41 325 0
-219 -614 -114 0
-408 -540 -47 0
-184 893 -207 0
-282 322 315 0
-533 395 151 0
-452 -118 483 0
-913 -431 136 0
-352 909 823 0
776 219 49 0
-797 570 347 0
663 -601 71 0
-209 251 602 0
959 162 -927 0
-206 387 -406 0
275 793 333 0
-529 467 752 0
727 449 14 0
-759 -523 209 0
671 -564 -893 0
145 468 -517 0
764 -721 632 0
437 -818 -558 0
145 928 -761 0
943 250 -910 0
-564 -200 953 0
29 759 -936 0
-628 -205 4 0
-655 -60 -162 0
-80 -365 -160 0
-427 -642 -765 0
675 924 953 0
-470 496 9 0
-664 743 571 0
-65 696 -94 0
-692 768 -881 0
383 310 244 0
853 -456 929 0
703 -844 707 0
-11 -130 802 0
519 412 616 0
142 814 -779 0
-994 866 -197 0
192 491 -504 0
816 498 96 0
-644 -845 -417 0
925 317 260 0
-423 355 -50 0
762 -469 -694 0
906 824 410 0
775 -436 552 0
413 68 75 0
286 331 -134 0
219 102 -101 0
-386 -137 -341 0
659 -379 -804 0
-522 939 303 0
640 8 537 0
684 -797 -877 0
86 -763 121 0
-1000 -367 -675 0
762 68 -909 0
-903 947 -367 0
738 178 -892 0
627 240 687 0
-667 303 668 0
-130 -288 -340 0
-348 -563 -733 0
-592 539 -721 0
-427 -893 855 0
-927 -249 -217 0
82 -136 475 0
472 -451 -40 0
60 815 852 0
788 -985 700 0
809 -236 -640 0
361 -913 824 0
205 -643 -270 0
392 842 -17 0
779 720 -86 0
335 -968 -154 0
965 -735 120 0
380 -313 943 0
723 -915 -116 0
-965 550 -981 0
947 -663 793 0
-266 72 -672 0
378 814 626 0
-705 -537 -925 0
392 593 -498 0
-934 472 -120 0
331 933 -754 0
19 -802 -673 0
-12 -772 578 0
720 -403 475 0
-788 -460 -606 0
637 95 -554 0
-45 482 936 0
-115 -540 977 0
-726 128 531 0
-678 -500 -163 0
77 473 398 0
594 -29 -225 0
36 -535 -207 0
-923 218 949 0
160 -659 -388 0
-806 -928 113 0
514 -382 -147 0
255 927 -868 0
727 -913 -562 0
178 -244 294 0
-207 589 320 0
-278 840 282 0
134 -182 -929 0
-195 -127 -583 0
814 -584 -782 0
148 234 759 0
-961 -10 -149 0
-651 941 -359 0
-910 -53 118 0
-65 -331 -561 0
-149 -21 851 0
793 73 -526 0
573 -986 -595 0
914 734 -60 0
-482 630 -376 0
898 -36 815 0
-226 -969 958 0
-563 -163 995 0
-31 823 126 0
-13 -773 924 0
253 -750 227 0
-113 660 -663 0
-267 634 -351 0
-113 -203 -531 0
359 -217 573 0
794 817 668 0
-447 -222 639 0
-83 -718 -492 0
-201 -166 826 0
-773 448 -595 0
-862 225 356 0
-620 250 -542 0
544 984 419 0
-274 -164 -477 0
584 -646 346 0
830 -220 -691 0
-780 -605 438 0
-365 568 -301 0
619 419 -903 0
10 -24 182 0
-247 224 -984 0
488 944 -212 0
-128 42 562 0
306 313 -781 0
-783 -902 -473 0
-415 -482 -181 0
-70 979 -2 0
230 -847 -449 0
-979 109 -930 0
100 -86 868 0
-223 58 -718 0
-261 -285 977 0
951 290 -422 0
656 -493 506 0
496 -183 90 0
-840 -515 384 0
-806 890 107 0
492 -862 -754 0
-935 950 -608 0
-121 -289 181 0
-27 141 -402 0
-247 35 -193 0
318 -190 431 0
233 -729 803 0
-198 8 -711 0
-545 -543 -978 0
955 -62 -349 0
581 -934 -958 0
761 578 320 0
133 915 627 0
577 -125 -212 0
-594 391 -884 0
622 338 -981 0
-397 283 782 0
34 480 -367 0
27 -542 313 0
427 -626 -525 0
-53 -230 -392 0
-471 190 254 0
-753 -536 -512 0
-186 198 392 0
385 -322 386 0
607 -204 -691 0
768 702 -944 0
-225 520 -936 0
704 -911 250 0
204 -211 -78 0
-386 -668 150 0
49 786 -302 0
-354 994 76 0
-916 798 -2 0
-62 -594 646 0
-462 -703 -868 0
898 -308 847 0
247 388 180 0
-350 159 340 0
-20 824 266 0
-802 485 -902 0
561 -14 -4 0
-406 872 147 0
-647 204 338 0
872 -163 886 0
267 -639 81 0
755 317 437 0
-37 -129 732 0
-521 280 -144 0
415 -593 -872 0
236 -942 -545 0
996 -227 932 0
71 640 482 0
-186 -625 -523 0
373 -437 766 0
-997 872 606 0
-944 -319 -567 0
572 -460 819 0
-870 -684 -744 0
-327 460 -818 0
448 502 -885 0
-135 424 -148 0
422 -459 -838 0
247 38 -872 0
305 718 -740 0
491 -326 359 0
-691 561 -905 0
-79 -893 91 0
-66 -828 -855 0
363 -712 508 0
-904 -701 195 0
174 302 -976 0
-309 195 -741 0
25 -491 -126 0
217 -208 329 0
-74 882 608 0
-139 -949 -340 0
267 627 -901 0
872 -187 -525 0
-419 215 -291 0
-19 -65 -249 0
3 99 -769 0
-497 -111 -584 0
81 86 332 0
-646 81 -885 0
242 131 -709 0
-385 270 -296 0
321 -126 -79 0
-474 584 903 0
211 577 204 0
-456 -616 -971 0
420 309 97 0
-654 -93 791 0
924 -444 -202 0
762 -642 738 0
-61 378 -860 0
-369 -706 235 0
-274 -359 301 0
316 24 -343 0
865 977 923 0
-862 -186 581 0
-542 -384 -174 0
-877 713 -145 0
597 -849 329 0
547 584 -237 0
453 149 -465 0
-9 -479 227 0
534 -510 414 0
685 235 -31 0
-104 -395 -129 0
153 939 -763 0
-166 -308 -286 0
287 295 552 0
492 -276 -746 0
-579 -363 -512 0
126 406 212 0
348 -347 -454 0
828 489 -174 0
-207 169 -564 0
-356 -315 518 0
-506 136 265 0
-83 -500 638 0
779 336 -1000 0
890 -929 -505 0
238 -295 733 0
734 131 381 0
-65 -643 500 0
118 866 590 0
-701 -862 324 0
792 171 945 0
451 -904 774 0
-929 736 -161 0
-578 395 357 0
-133 -208 815 0
436 -104 901 0
60 647 -706 0
-30 534 752 0
-641 555 -665 0
-307 847 -74 0
-772 726 519 0
-858 619 481 0
-351 594 330 0
613 948 2 0
-471 168 -856 0
-733 604 -3 0
-296 604 -250 0
-827 -843 -397 0
160 -663 232 0
-478 -787 439 0
-950 -669 -364 0
-603 646 420 0
970 -962 62 0
275 -967 -866 0
777 442 193 0
-542 -989 433 0
-998 505 -253 0
-699 -302 34 0
-406 189 976 0
-609 471 699 0
885 -400 513 0
216 762 562 0
-959 -563 173 0
635 -521 694 0
183 391 -7 0
-453 426 -74 0
62 -144 432 0
112 530 561 0
328 750 -662 0
-723 420 -76 0
-191 582 -356 0
992 -888 267 0
-238 581 -196 0
513 -118 756 0
-421 288 367 0
-694 35 58 0
485 6 -576 0
-395 -629 528 0
29 -586 -247 0
-346 -234 -885 0
-298 -554 -89 0
291 419 -236 0
116 703 912 0
-558 901 -120 0
355 -589 -1000 0
619 171 272 0
-764 -561 -999 0
572 -613 -580 0
-6 258 37 0
532 -522 -711 0
609 -826 469 0
544 -75 -681 0
-159 936 -145 0
332 -236 777 0
-949 -582 -772 0
583 -231 -907 0
582 -982 260 0
-948 348 163 0
-575 -279 568 0
-337 870 169 0
-924 -523 944 0
74 -873 751 0
-511 -252 33 0
-537 704 -701 0
-488 252 -347 0
387 -240 -279 0
-873 243 -789 0
957 31 -534 0
-880 -240 646 0
-429 -882 -995 0
467 823 778 0
407 456 -410 0
-781 -896 -404 0
874 835 273 0
-70 965 -349 0
-190 726 690 0
872 509 -479 0
144 -902 -639 0
-282 474 -128 0
-604 373 -474 0
-405 -41 -532 0
558 866 -140 0
824 120 -99 0
788 890 185 0
-268 -751 399 0
-696 -528 -765 0
72 944 321 0
20 389 124 0
-9 -904 -795 0
-653 644 277 0
477 667 -495 0
-357 -299 160 0
-850 -15 119 0
-229 30 325 0
-102 -264 629 0
-985 -908 -815 0
-124 -337 -746 0
435 -942 -384 0
-83 950 108 0
752 -446 -156 0
-831 -302 365 0
654 302 -507 0
-152 589 965 0
875 -669 937 0
266 934 413 0
641 477 367 0
471 -757 -941 0
-785 -501 982 0
-678 -374 -474 0
166 802 -228 0
327 -607 -694 0
461 917 662 0
461 638 183 0
-4 414 -210 0
-533 812 625 0
-983 212 -506 0
-209 816 -463 0
994 -201 -94 0
250 195 -500 0
853 218 726 0
-393 -390 413 0
79 -709 -685 0
-784 975 794 0
277 -343 523 0
522 -292 -971 0
234 -269 88 0
490 959 310 0
454 730 -433 0
-983 526 -132 0
551 -556 -711 0
282 -432 -950 0
842 -837 239 0
-283 139 531 0
-802 155 192 0
-785 53 180 0
804 213 264 0
-473 430 -298 0
-402 -945 -179 0
-670 758 -442 0
727 -630 324 0
769 -534 -263 0
179 869 -468 0
294 -74 -32 0
790 -432 736 0
972 451 834 0
634 572 -506 0
-939 637 677 0
959 -138 -930 0
422 -461 560 0
566 -472 -916 0
397 -299 -365 0
633 -492 324 0
-561 -284 -722 0
331 582 -433 0
-846 919 291 0
220 -38 -55 0
-816 -386 821 0
29 498 -175 0
313 433 -227 0
-676 38 -512 0
-300 -879 -949 0
-695 -220 715 0
989 -110 121 0
81 341 -924 0
-134 -457 -871 0
539 -574 557 0
-991 601 914 0
-111 766 396 0
-166 275 74 0
-546 853 960 0
-849 68 93 0
947 867 833 0
647 845 338 0
390 -69 940 0
-672 -42 199 0
616 -614 -292 0
641 98 -353 0
-516 -514 955 0
368 65 -266 0
-888 308 382 0
845 474 -448 0
-170 -369 41 0
-302 -941 -695 0
-160 -341 -442 0
206 171 -732 0
908 -83 803 0
667 944 -690 0
670 6 -69 0
-970 -566 954 0
218 771 -443 0
798 92 -699 0
-842 478 979 0
440 773 539 0
534 -923 221 0
-413 874 -202 0
-203 -78 -359 0
4 543 -409 0
640 -942 -509 0
520 -876 799 0
-329 988 670 0
859 -198 746 0
-507 488 932 0
579 147 852 0
-200 -485 849 0
-200 -844 -988 0
-624 -279 -752 0
52 -734 -824 0
634 -979 366 0
-791 405 798 0
-487 -931 154 0
-506 -135 -33 0
317 -747 -403 0
946 -14 -671 0
242 -885 484 0
546 377 -993 0
-598 781 82 0
499 -492 955 0
-500 148 -45 0
641 171 -815 0
-112 665 894 0
925 338 -839 0
-113 83 -639 0
699 323 766 0
-326 -866 520 0
321 665 282 0
915 443 -396 0
248 516 69 0
993 241 -818 0
-228 -244 663 0
177 -511 -11 0
261 779 185 0
548 -719 354 0
130 930 70 0
-472 928 -120 0
-267 750 537 0
952 430 548 0
842 -543 403 0
-399 339 859 0
-709 860 837 0
-827 -187 -817 0
-154 756 -487 0
65 327 -1 0
-378 100 503 0
-722 606 725 0
171 -466 241 0
831 -467 -558 0
108 -742 41 0
-303 -806 -334 0
-805 -39 819 0
213 -686 70 0
486 635 62 0
353 219 96 0
378 700 279 0
136 448 -923 0
898 -836 -536 0
340 -713 -170 0
322 -526 -555 0
695 -130 272 0
263 -896 -880 0
-955 -821 -790 0
345 -467 401 0
575 -739 -240 0
295 -820 -289 0
332 -708 -796 0
445 507 107 0
-503 561 804 0
-971 11 878 0
525 664 930 0
943 -831 -662 0
872 -803 715 0
-752 -226 571 0
208 300 -921 0
-668 122 895 0
449 769 317 0
582 428 -643 0
909 30 -437 0
-767 9 -926 0
949 911 523 0
-769 599 -132 0
206 -279 342 0
333 -394 611 0
699 755 85 0
-296 695 -390 0
-52 -355 -595 0
-601 -832 -787 0
-85 -406 600 0
-836 631 -723 0
947 -818 -204 0
-581 -718 -862 0
-650 173 334 0
-4 369 665 0
891 -812 -908 0
248 -196 64 0
252 -85 -242 0
235 325 166 0
-432 741 47 0
-296 -502 -583 0
-203 220 -410 0
813 -332 603 0
273 948 412 0
-142 384 -59 0
581 -809 116 0
988 22 106 0
500 -975 897 0
990 905 -844 0
606 363 -291 0
511 164 48 0
563 -253 811 0
-402 899 543 0
-668 170 662 0
-493 386 114 0
-297 862 -424 0
-259 -743 990 0
877 378 -18 0
-368 -183 844 0
324 629 -340 0
-591 718 41 0
637 336 715 0
-609 -948 -946 0
-296 219 -498 0
764 864 938 0
345 -344 993 0
-608 514 72 0
325 823 674 0
52 419 -151 0
-598 868 815 0
4 -79 196 0
783 -843 -618 0
354 -40 -58 0
784 -407 -773 0
-963 833 -681 0
-207 -18 274 0
467 678 535 0
-118 503 517 0
329 -558 238 0
-430 825 129 0
-816 -72 -86 0
442 -731 -320 0
504 226 539 0
-847 112 403 0
304 -337 -262 0
102 837 425 0
855 -693 715 0
-164 360 -252 0
-907 -421 -783 0
637 804 -795 0
95 514 779 0
-638 674 -425 0
-320 749 702 0
-393 970 363 0
-169 355 -443 0
981 -486 -265 0
10 -306 -943 0
-125 699 -590 0
203 732 659 0
602 -630 261 0
571 -760 -685 0
-152 448 -723 0
736 -102 -305 0
478 810 37 0
843 109 -474 0
515 456 -600 0
656 788 -564 0
746 154 459 0
-972 -563 -5 0
-650 556 1000 0
48 191 -834 0
116 -364 -852 0
123 -446 487 0
135 -256 264 0
89 -269 100 0
-275 354 408 0
697 -54 -719 0
192 -8 -783 0
703 -320 774 0
-168 271 227 0
-12 136 -795 0
-529 181 -444 0
-604 957 161 0
-808 -242 627 0
92 -38 -778 0
646 -778 411 0
600 1000 -220 0
-855 -906 -681 0
888 298 -840 0
556 -825 -337 0
-706 -588 -518 0
-304 -336 -106 0
6 -651 556 0
471 -243 887 0
-562 729 -572 0
-444 -55 246 0
677 947 -539 0
-444 -233 -927 0
-168 408 -480 0
505 649 356 0
936 241 356 0
-89 408 -44 0
345 752 404 0
481 -585 -997 0
320 459 -964 0
-104 90 -175 0
843 60 -594 0
914 -819 -280 0
913 -710 672 0
23 996 685 0
800 -59 531 0
-631 724 -749 0
870 -354 -245 0
358 -905 -21 0
446 929 -432 0
-611 -125 -798 0
-559 795 -175 0
161 -341 -483 0
942 76 -703 0
-351 837 -515 0
-821 -207 306 0
85 -200 959 0
864 -463 -183 0
-120 702 927 0
139 -321 -540 0
720 -976 578 0
807 500 675 0
-570 752 -984 0
307 958 374 0
-970 -331 -367 0
745 808 365 0
391 -435 -349 0
-574 -568 463 0
352 -89 439 0
1 426 359 0
-678 -784 -754 0
-942 -961 773 0
922 -302 -144 0
-586 -404 -945 0
-324 572 786 0
-482 621 -534 0
665 94 -795 0
-201 986 -436 0
774 -194 234 0
752 855 -443 0
-739 -337 -523 0
-30 367 -401 0
154 -522 936 0
942 887 -334 0
18 576 -977 0
-411 -835 -634 0
-868 727 948 0
-16 85 711 0
898 -184 -951 0
-899 -325 602 0
-624 276 33 0
978 -438 413 0
-538 697 -269 0
348 -423 59 0
393 -207 -407 0
-957 -841 -97 0
660 850 566 0
-335 719 71 0
571 -885 -188 0
800 -323 24 0
-663 35 498 0
621 -717 -789 0
-119 -579 -957 0
350 -595 649 0
802 -131 332 0
-825 858 289 0
-72 147 777 0
797 -407 825 0
476 351 98 0
688 -411 -543 0
-514 -125 -781 0
52 713 -541 0
397 -571 180 0
-639 -774 82 0
320 -524 -853 0
-218 689 -441 0
-433 152 -509 0
-559 278 -151 0
-965 915 -1000 0
-861 154 -68 0
-704 482 -486 0
-937 -482 -544 0
477 -244 548 0
32 895 876 0
-509 410 -388 0
8 -718 762 0
73 703 899 0
258 751 981 0
-753 669 -503 0
-981 676 -15 0
161 -951 -229 0
-101 -444 379 0
387 -907 691 0
268 -14 -770 0
239 745 -141 0
562 325 705 0
675 931 -227 0
756 810 335 0
-361 790 -814 0
-510 -700 80 0
983 -942 503 0
246 -286 -373 0
854 -171 248 0
-47 -290 76 0
697 -297 -48 0
445 867 731 0
-87 -709 683 0
396 197 923 0
-477 -110 833 0
831 994 141 0
608 847 493 0
-941 -522 127 0
-445 185 223 0
721 581 58 0
131 -923 668 0
287 75 477 0
-62 937 -625 0
331 -291 -702 0
98 395 278 0
-449 959 -103 0
-325 -85 290 0
787 -391 364 0
673 -496 804 0
979 498 93 0
-812 -514 531 0
478 -531 700 0
197 -443 -500 0
476 549 -284 0
366 -438 873 0
-492 -575 434 0
-71 907 -133 0
742 -653 -583 0
-623 671 -257 0
113 -955 -642 0
-371 932 375 0
415 348 -942 0
-833 -390 -124 0
891 729 -349 0
-392 -821 -952 0
-393 -613 -887 0
499 -801 -844 0
-252 -592 395 0
-512 -428 -748 0
-45 190 -657 0
594 -37 861 0
-741 -917 -138 0
46 -492 571 0
462 541 -183 0
-696 -798 20 0
302 179 710 0
447 295 -589 0
-13 14 311 0
602 421 443 0
-636 -990 -12 0
-506 908 -221 0
625 -807 -114 0
-572 334 -297 0
458 -247 829 0
-430 445 796 0
-852 391 -155 0
824 922 -913 0
-635 304 -339 0
784 479 204 0
-212 -835 -777 0
740 -751 763 0
13 429 917 0
506 28 753 0
469 -562 582 0
281 -943 347 0
-595 -438 930 0
818 -644 479 0
-611 -386 -651 0
-197 -446 -973 0
184 546 -478 0
-78 675 890 0
985 -402 787 0
457 89 172 0
883 22 931 0
181 733 659 0
188 -519 -260 0
-51 -810 -413 0
831 -324 414 0
559 -541 -251 0
-774 725 -19 0
282 496 -39 0
403 -901 -484 0
935 -712 -708 0
-715 -907 747 0
971 -38 -811 0
168 500 726 0
852 618 32 0
136 302 -419 0
-307 734 -785 0
743 339 -759 0
818 -931 924 0
892 191 -622 0
898 -447 -918 0
-4 -441 -33 0
201 865 -399 0
639 -122 -323 0
-459 -658 -110 0
792 -46 296 0
176 288 250 0
165 292 -232 0
247 -823 -394 0
335 -577 -799 0
898 753 370 0
-888 -713 596 0
533 954 -863 0
-947 432 -460 0
529 -186 645 0
-23 78 698 0
923 889 52 0
390 -764 962 0
681 -730 -198 0
-673 -605 521 0
-92 -575 -738 0
-567 -657 -628 0
-777 698 -987 0
-850 132 34 0
-470 877 215 0
-145 542 732 0
-972 -744 874 0
-512 910 376 0
100 -676 -645 0
598 -126 8 0
238 -57 -29 0
93 -541 -587 0
-580 909 531 0
-471 210 879 0
679 514 -415 0
230 471 109 0
-126 239 -140 0
-929 115 971 0
-388 430 -499 0
-174 369 -5 0
-696 478 118 0
445 -994 247 0
602 334 667 0
142 -47 303 0
-417 -964 713 0
949 966 -3 0
681 -426 687 0
-51 712 -127 0
679 -151 -533 0
694 -272 347 0
83 -178 -71 0
787 -673 -592 0
225 -267 -570 0
-510 -832 189 0
205 942 -941 0
-430 -830 146 0
-541 904 714 0
349 -294 -220 0
-659 694 247 0
-954 -921 -981 0
-26 -786 182 0
-499 -868 -721 0
723 -886 -22 0
-731 -62 -549 0
-23 802 -31 0
-626 -399 -161 0
-687 530 -475 0
-164 766 -562 0
-253 648 -967 0
-685 -735 -633 0
133 -726 21 0
437 323 812 0
-932 -249 528 0
957 -607 -416 0
728 -580 -688 0
12 -201 439 0
49 -477 382 0
-658 698 -99 0
-857 -941 -845 0
-481 -739 871 0
939 222 -181 0
-904 -419 808 0
505 249 921 0
914 963 -434 0
-999 -790 526 0
-905 -641 313 0
-157 506 552 0
903 841 -588 0
-926 530 -691 0
-721 -292 -681 0
291 -860 -161 0
-69 -301 -196 0
-338 815 114 0
-59 35 -868 0
323 -79 601 0
-24 -224 -646 0
215 951 322 0
3 266 16 0
-752 738 950 0
242 -406 -754 0
754 -752 619 0
488 359 869 0
-216 191 38 0
-946 353 -369 0
-527 561 -994 0
691 -664 -651 0
55 -380 137 0
902 -397 652 0
96 -186 997 0
-440 -34 -85 0
-264 835 -256 0
983 623 -826 0
328 -224 117 0
-340 -152 -267 0
77 138 -724 0
-394 160 -183 0
-991 -718 -63 0
140 -357 -77 0
443 -129 258 0
-89 684 90 0
304 488 -363 0
865 -645 534 0
759 404 -6 0
652 -279 -88 0
229 -804 66 0
-908 -154 -281 0
-806 198 -284 0
-251 355 118 0
-418 490 775 0
429 -149 662 0
513 587 -762 0
781 631 -844 0
-785 317 12 0
-613 380 -65 0
841 -795 546 0
148 -750 -887 0
442 581 21 0
-361 -582 724 0
894 54 -337 0
664 288 -355 0
336 -827 -353 0
201 -364 -802 0
673 -856 174 0
-722 280 -581 0
-25 -138 983 0
804 -392 -159 0
-913 -44 -424 0
316 67 169 0
-364 66 622 0
664 -940 992 0
185 -963 -406 0
-438 397 -589 0
-967 806 -622 0
708 42 691 0
-523 -346 891 0
333 -261 579 0
-177 -664 810 0
928 -865 -399 0
-301 -527 903 0
-9 553 -317 0
279 179 62 0
322 743 -996 0
-544 352 161 0
-4 745 695 0
-352 889 920 0
-989 32 305 0
-536 835 -629 0
-340 933 -39 0
428 437 723 0
-459 545 -986 0
104 1000 -907 0
-885 -339 437 0
272 -930 888 0
472 -343 -297 0
665 -970 -43 0
-444 487 405 0
769 681 162 0
201 180 296 0
-515 317 -105 0
224 762 838 0
-606 -453 440 0
-31 -388 -286 0
286 -745 1 0
362 803 -773 0
-567 -937 -963 0
464 -733 193 0
-50 -805 949 0
387 -550 -958 0
185 230 -102 0
831 755 -632 0
-470 -667 240 0
949 -302 -395 0
251 -793 -304 0
363 336 439 0
691 -429 621 0
857 104 -398 0
-561 -747 110 0
-823 436 636 0
-496 290 -513 0
293 756 407 0
-504 768 -812 0
-365 -109 608 0
-819 193 993 0
-429 366 -945 0
-697 -903 -728 0
506 285 -756 0
84 -683 -498 0
17 -190 -330 0
379 138 -598 0
-461 85 -391 0
-882 -552 699 0
-695 -875 228 0
186 -534 587 0
896 -527 303 0
352 -689 706 0
341 508 -179 0
10 520 -2 0
925 -813 201 0
-597 -319 -832 0
-743 930 607 0
508 112 473 0
-878 533 -977 0
754 521 -276 0
962 80 -890 0
644 947 -752 0
-899 113 316 0
350 -621 -212 0
-870 -274 477 0
-397 123 477 0
751 -142 264 0
157 -560 -370 0
891 880 -959 0
-986 576 984 0
-872 536 -797 0
288 -318 639 0
-239 -4 673 0
274 -730 973 0
741 783 753 0
634 -701 108 0
868 -668 838 0
287 54 -794 0
957 -885 387 0
823 264 -761 0
-656 578 -683 0
-793 -362 967 0
-426 232 -146 0
369 574 383 0
-744 867 -741 0
-905 314 -912 0
123 -148 -822 0
-858 -142 -649 0
-193 -991 -738 0
-63 -159 26 0
974 -729 -403 0
605 -577 271 0
714 696 452 0
-272 -40 -593 0
503 666 -194 0
213 -881 1000 0
111 -102 -450 0
202 837 589 0
-310 -215 -135 0
-504 261 -465 0
797 691 656 0
965 -149 561 0
726 -606 856 0
288 578 -142 0
726 -54 35 0
-975 -980 -121 0
-195 -616 468 0
-572 -573 613 0
-593 -456 -604 0
-113 230 594 0
107 -525 942 0
-560 -897 -38 0
-344 -630 -936 0
960 479 731 0
850 -429 28 0
974 -895 -677 0
-412 966 -211 0
232 552 -783 0
-461 882 460 0
-702 -387 255 0
-317 283 -37 0
628 -88 -218 0
244 552 -128 0
-449 -216 -864 0
-724 -259 753 0
305 -470 -780 0
818 -159 7 0
-201 -563 -67 0
858 -875 549 0
301 -624 -553 0
288 -970 260 0
-436 129 -926 0
-772 -83 -828 0
-200 -931 -272 0
-170 -232 -32 0
871 852 -500 0
-55 -452 8 0
-553 974 991 0
-443 118 224 0
-945 754 -542 0
137 124 -113 0
-644 275 -126 0
-646 625 -572 0
918 117 636 0
-205 648 -102 0
-911 -621 262 0
-675 988 691 0
299 208 -381 0
-583 908 -364 0
179 664 587 0
165 499 -362 0
-210 -721 -640 0
-837 -255 -344 0
-545 -469 721 0
-494 379 -395 0
-38 -95 63 0
623 806 831 0
510 806 104 0
43 -90 -459 0
608 -339 377 0
921 -971 156 0
411 -987 260 0
610 -720 653 0
367 -931 -572 0
-476 -977 -339 0
-265 90 998 0
150 -70 202 0
-371 -392 226 0
-891 -252 497 0
-839 590 355 0
-674 788 649 0
-373 -444 756 0
360 -689 830 0
353 341 911 0
-350 -209 -405 0
243 -845 608 0
-48 -561 -95 0
726 71 417 0
869 -598 739 0
-475 -705 6 0
726 940 -682 0
529 -431 900 0
-847 215 -680 0
664 511 -583 0
402 115 464 0
-983 -262 -360 0
963 878 -527 0
716 -546 -324 0
521 479 149 0
542 149 -669 0
-235 -887 264 0
624 -14 -270 0
-781 343 267 0
-376 -585 223 0
702 538 229 0
-310 -265 991 0
404 -29 -521 0
372 -654 597 0
594 998 -10 0
-55 -682 478 0
505 -723 -984 0
-250 -124 -417 0
-399 329 -713 0
-27 -457 -226 0
890 -285 108 0
191 320 -992 0
-159 -656 -753 0
-772 507 477 0
-906 -30 -794 0
685 -276 307 0
-446 984 318 0
56 534 -684 0
937 -859 -621 0
421 -591 -995 0
543 824 370 0
-235 -12 513 0
525 523 511 0
390 22 665 0
440 -146 159 0
-645 -221 -5 0
947 -355 297 0
174 -982 931 0
-635 778 402 0
851 -734 991 0
909 567 842 0
-640 58 -55 0
-543 -94 -226 0
385 -170 -135 0
-536 320 -314 0
104 737 -165 0
-248 -576 388 0
-900 661 -863 0
46 194 -149 0
570 -639 -710 0
-150 -221 453 0
-491 -527 982 0
237 160 975 0
-711 893 94 0
-877 -671 -377 0
-751 322 -848 0
-21 300 685 0
-76 50 -763 0
-31 625 817 0
-790 -908 105 0
-347 55 -289 0
-612 -485 -732 0
622 -110 -404 0
431 360 -945 0
660 123 -913 0
611 190 -775 0
992 -757 259 0
899 -179 -87 0
-166 120 -868 0
-885 570 -779 0
73 237 -725 0
-33 -684 385 0
857 -277 -271 0
511 347 -996 0
-66 -327 -795 0
-223 -756 800 0
-975 -812 -488 0
428 153 223 0
19 -707 -78 0
617 -323 143 0
374 771 558 0
493 -182 -308 0
867 688 -288 0
-243 -427 -999 0
267 -620 -705 0
-758 -518 -188 0
-529 -24 119 0
913 280 931 0
737 751 -249 0
314 -705 603 0
-79 281 932 0
960 -707 -497 0
100 -838 983 0
-647 -217 -304 0
-597 -11 -240 0
577 742 818 0
-436 935 281 0
742 832 -721 0
-522 -184 490 0
967 500 -109 0
-817 -4 -766 0
265 674 -886 0
146 189 907 0
-292 200 -466 0
410 -703 664 0
863 -332 106 0
-462 786 -492 0
280 -27 -249 0
835 699 -233 0
50 676 -658 0
985 503 -405 0
253 925 285 0
-260 612 -65 0
-988 594 957 0
979 529 -927 0
735 110 -300 0
-535 -55 -760 0
-777 -765 466 0
854 -589 393 0
-910 299 668 0
779 -97 411 0
123 250 565 0
-657 -316 -361 0
-868 593 -838 0
920 154 997 0
42 229 -785 0
-28 -222 -999 0
887 -351 -51 0
369 -314 -815 0
-191 -482 535 0
258 -763 967 0
-295 766 345 0
-880 -716 27 0
-856 928 -111 0
-702 961 -200 0
-826 -687 -90 0
296 -844 86 0
998 -428 -157 0
356 528 435 0
514 601 637 0
-556 -932 375 0
633 -21 -789 0
153 -627 715 0
-305 -709 -129 0
403 -815 -589 0
188 450 907 0
-274 -597 628 0
-106 -713 -506 0
-152 56 234 0
742 -634 -58 0
277 -420 -251 0
-801 746 422 0
-232 909 -393 0
-322 485 -750 0
214 -29 -544 0
360 -378 -837 0
410 265 307 0
748 -914 342 0
118 -919 723 0
503 -427 -775 0
-210 -137 -579 0
-776 -921 104 0
-239 -231 233 0
392 -820 -165 0
137 -723 -913 0
-587 -844 -945 0
-640 -368 892 0
-847 645 375 0
-734 792 555 0
-656 -603 75 0
-921 -685 632 0
717 -352 -807 0
758 -16 227 0
-617 -952 -334 0
-368 -628 222 0
-539 55 -962 0
-543 312 -474 0
-699 227 -646 0
587 157 -61 0
550 814 -228 0
522 -73 -67 0
999 -945 -237 0
511 -197 368 0
-544 326 249 0
-203 969 766 0
-71 -104 46 0
-730 861 714 0
-845 -239 -903 0
906 415 644 0
-794 -3 -986 0
388 586 -911 0
-94 -164 -568 0
-664 -989 219 0
-789 488 476 0
-642 563 -445 0
-933 728 403 0
-692 -652 -694 0
-873 37 -505 0
956 108 -378 0
-319 317 927 0
908 -749 -594 0
515 -389 307 0
-726 -198 272 0
-997 602 793 0
-785 -395 -749 0
-145 -637 283 0
966 -311 -741 0
-322 -222 -141 0
322 -954 592 0
-232 -856 -378 0
-233 -917 -468 0
500 -469 812 0
286 -320 -660 0
-68 -124 467 0
-495 165 -714 0
-554 -160 -46 0
-897 440 -858 0
352 -443 -450 0
762 -321 227 0
-645 778 -478 0
976 -32 -903 0
370 491 699 0
-416 -801 993 0
214 -460 553 0
-6 -322 693 0
-598 581 -851 0
-362 -599 -564 0
327 -598 387 0
913 401 127 0
608 301 135 0
407 299 -262 0
-505 959 -510 0
143 184 309 0
-6 -76 486 0
-494 -202 602 0
-26 -671 735 0
-47 -699 -349 0
-420 -692 -962 0
238 903 53 0
-539 83 -810 0
262 525 -953 0
-956 -701 42 0
-128 -203 875 0
856 -163 -6 0
254 352 -427 0
97 -828 128 0
-217 521 680 0
-394 -272 -496 0
-939 -576 -232 0
-51 781 500 0
606 702 -863 0
-520 -70 -882 0
354 218 -323 0
-473 -616 434 0
332 -895 -181 0
260 -550 -332 0
699 615 373 0
-879 546 -824 0
-680 221 149 0
-701 707 622 0
711 -707 -870 0
-168 665 -840 0
615 111 -237 0
-540 -832 709 0
173 661 -140 0
428 865 746 0
654 488 -358 0
574 -764 -418 0
-502 -985 -62 0
-490 -440 856 0
289 -243 -704 0
-78 -654 215 0
377 419 87 0
146 -322 573 0
-247 4 -388 0
-167 422 -517 0
-855 -369 624 0
-343 376 -869 0
197 -849 -241 0
-784 -239 -263 0
-737 436 481 0
345 800 -235 0
-44 -131 228 0
914 432 337 0
694 524 162 0
-969 -479 -727 0
-10 693 232 0
626 196 964 0
967 -158 845 0
-832 -913 -188 0
-117 -571 -78 0
-302 570 -920 0
-570 1000 697 0
545 649 841 0
-806 83 595 0
811 -257 -461 0
989 -239 -174 0
152 375 -580 0
-464 820 -639 0
456 -656 132 0
-86 370 276 0
781 -40 -892 0
-94 -254 157 0
-402 -66 -801 0
745 -951 403 0
-769 -410 -560 0
91 147 -447 0
34 446 -252 0
-587 926 -66 0
456 866 862 0
551 356 -750 0
525 -332 -126 0
981 880 -205 0
812 153 338 0
953 -588 262 0
163 -765 578 0
-987 322 849 0
-943 140 -169 0
-913 255 616 0
-582 -283 -186 0
846 731 -765 0
659 260 473 0
-717 841 623 0
-46 -56 -329 0
363 991 914 0
944 -398 -831 0
-435 -694 -99 0
-192 -586 951 0
478 110 535 0
-345 -187 683 0
710 47 358 0
-18 -450 536 0
412 -87 205 0
374 -816 283 0
-512 264 676 0
-710 -836 -537 0
517 370 -714 0
233 -694 -210 0
-193 911 -906 0
-888 -469 -121 0
-277 -424 472 0
1 -787 605 0
113 -915 -483 0
-904 -548 886 0
-307 726 -420 0
-228 530 998 0
357 803 -222 0
678 -22 -928 0
833 -534 368 0
-953 364 586 0
-850 -880 -791 0
86 -639 793 0
-119 -640 888 0
-796 753 825 0
-13 -453 620 0
813 -660 -570 0
662 -90 533 0
273 -8 610 0
-900 -946 -61 0
323 -168 657 0
-786 -292 634 0
-576 -776 728 0
240 -556 -44 0
-553 640 -270 0
-240 -289 496 0
-993 170 -122 0
-503 -740 610 0
-802 -873 -525 0
-826 345 -888 0
980 42 -502 0
-507 885 -524 0
948 249 237 0
644 -844 -757 0
-41 361 -309 0
-753 987 672 0
316 21 855 0
-773 818 987 0
987 68 -300 0
-886 -591 -734 0
155 -831 -533 0
308 -882 129 0
-58 -189 915 0
-620 -873 -323 0
-959 634 -421 0
811 -327 762 0
667 650 -292 0
-158 -671 -360 0
-1000 135 -254 0
-226 272 -829 0
-572 -748 -683 0
-257 47 595 0
-140 -287 812 0
241 576 752 0
683 608 531 0
652 643 830 0
-55 -692 28 0
46 -240 317 0
-552 134 -195 0
-165 699 914 0
-165 -945 -416 0
-735 -875 -318 0
795 955 -358 0
232 500 -225 0
-780 -533 67 0
279 58 -78 0
891 -489 302 0
348 476 160 0
-825 471 620 0
-864 889 40 0
-660 -64 174 0
-886 -673 -905 0
-666 29 866 0
9 -423 169 0
-162 -149 -146 0
573 -859 -692 0
-134 -240 -693 0
-770 547 67 0
-995 -25 621 0
953 -982 -169 0
449 773 -395 0
271 839 -632 0
-79 797 -368 0
886 322 -862 0
66 655 274 0
751 32 -800 0
729 405 -131 0
676 817 -632 0
-614 -377 285 0
-828 -869 631 0
-657 -91 793 0
-244 745 -251 0
-358 -649 854 0
698 -800 -92 0
-890 -261 -716 0
3 578 433 0
53 -178 745 0
24 778 923 0
-551 255 -28 0
385 -660 -823 0
623 -504 627 0
-477 395 807 0
67 957 236 0
-900 -26 824 0
-876 638 762 0
944 965 -345 0
533 752 -205 0
-607 -128 838 0
362 -583 351 0
-404 156 -92 0
-285 -777 -577 0
999 -790 -556 0
463 401 -626 0
-813 777 -550 0
272 517 340 0
491 -823 -880 0
-335 -726 -683 0
-230 -351 -164 0
-379 215 488 0
117 328 -625 0
857 980 -832 0
-338 -19 -814 0
-426 657 -753 0
429 536 133 0
459 -7 -6 0
-87 463 756 0
523 238 -603 0
648 -601 919 0
-34 -280 -677 0
729 -713 -830 0
619 -189 553 0
-920 -207 971 0
50 487 -103 0
-434 -505 870 0
-665 118 215 0
-777 949 553 0
-653 722 885 0
674 -247 460 0
125 188 -458 0
-308 -922 -490 0
685 -984 -799 0
-630 -281 100 0
856 -289 -801 0
-536 -335 -694 0
537 790 -200 0
-835 666 550 0
-531 696 241 0
854 839 814 0
-817 563 -714 0
-475 352 -984 0
174 598 -240 0
-540 -863 -791 0
739 797 -410 0
323 -908 998 0
-962 -400 -440 0
477 17 576 0
75 -823 969 0
583 13 -604 0
577 -622 94 0
700 -92 -814 0
446 972 -474 0
717 -891 -521 0
874 -418 951 0
800 -823 495 0
731 139 384 0
948 -961 -517 0
220 83 377 0
-47 826 -671 0
-839 590 -78 0
30 86 -724 0
-936 -994 466 0
-226 -943 -919 0
12 -62 -431 0
691 233 540 0
-429 152 -71 0
-356 858 820 0
804 701 -593 0
-395 230 566 0
61 -68 -738 0
-531 -51 454 0
-603 935 -949 0
-729 -290 -153 0
83 77 334 0
579 -184 558 0
438 -433 790 0
-549 -976 895 0
-613 454 703 0
188 57 46 0
-38 236 726 0
405 505 -493 0
861 605 -697 0
-516 92 -367 0
-867 28 -241 0
-216 -830 -563 0
-509 926 539 0
330 564 167 0
-549 -513 -63 0
508 601 -335 0
-566 -464 -718 0
-427 -810 -282 0
814 779 -40 0
-670 543 -581 0
428 -374 320 0
157 -292 -158 0
-257 132 741 0
-303 -19 -295 0
44 899 496 0
-6 544 -873 0
342 -347 -949 0
-40 -502 145 0
-864 -742 -204 0
-818 -139 830 0
225 537 -226 0
-465 -569 908 0
-355 79 151 0
-208 -344 243 0
409 -715 -708 0
-558 715 349 0
-822 530 762 0
-790 -587 960 0
80 19 -132 0
79 671 -903 0
439 -847 994 0
-571 -847 656 0
-293 597 -745 0
-872 -804 265 0
-293 401 822 0
374 588 358 0
-591 -876 -928 0
-668 55 -379 0
-746 769 -728 0
483 -30 -700 0
953 376 -254 0
269 469 210 0
706 629 -21 0
162 890 252 0
-477 345 44 0
-579 518 -306 0
-29 -268 486 0
401 -504 -475 0
194 948 302 0
-60 307 183 0
-793 -716 299 0
-104 145 -314 0
-206 -471 -955 0
759 -267 728 0
-306 -978 570 0
-209 427 296 0
139 -269 -993 0
219 356 391 0
589 364 92 0
406 826 -968 0
-268 -399 -854 0
-832 238 -443 0
-352 457 790 0
-271 363 171 0
-39 996 -672 0
882 587 -304 0
-87 495 641 0
323 280 -893 0
486 263 461 0
166 185 -464 0
163 731 -857 0
-107 895 676 0
-581 -231 -329 0
96 -211 -970 0
830 -563 -115 0
-235 -979 14 0
-683 -564 -690 0
-934 -211 -985 0
-811 -289 423 0
326 -650 492 0
-499 -882 929 0
572 -120 727 0
212 556 656 0
-194 434 -965 0
-458 361 -702 0
-609 656 -484 0
-649 -282 -587 0
-274 423 -850 0
-986 -854 196 0
962 -140 236 0
865 337 -51 0
-860 -780 -688 0
571 88 936 0
-670 330 795 0
678 561 102 0
474 -570 791 0
-177 -669 -920 0
561 -29 -169 0
-896 -713 707 0
-158 355 485 0
-920 582 -69 0
-846 635 376 0
928 -820 801 0
-563 365 826 0
470 617 -378 0
-801 624 395 0
-186 -277 842 0
-295 632 910 0
786 426 -389 0
-683 -67 -969 0
-84 718 164 0
636 -458 -251 0
-726 -802 -49 0
222 -237 -100 0
35 8 -469 0
-227 -767 -605 0
964 603 566 0
657 643 -591 0
197 -366 200 0
-366 485 807 0
450 -994 530 0
-990 -287 -445 0
-686 -401 -250 0
-958 -471 366 0
24 -331 187 0
912 -33 557 0
-928 424 584 0
-837 -447 -757 0
-331 211 937 0
976 350 809 0
800 371 -404 0
-770 -478 677 0
996 337 887 0
-583 -794 483 0
940 -717 -647 0
-423 84 326 0
248 -318 895 0
766 378 -38 0
31 66 -735 0
-197 124 -532 0
820 122 367 0
-803 -615 402 0
-791 -133 676 0
903 526 -730 0
-933 157 414 0
711 -192 612 0
281 -810 -374 0
-35 222 526 0
575 769 -365 0
-730 121 -749 0
620 -312 -608 0
525 610 -74 0
-561 -372 -719 0
-128 -764 90 0
168 979 -530 0
-762 882 -377 0
-870 616 567 0
-718 -106 -458 0
-443 -40 -243 0
-507 590 -636 0
-36 -874 -808 0
853 750 -487 0
659 248 609 0
210 223 239 0
43 852 797 0
-820 -552 -810 0
377 609 -423 0
-992 -518 -532 0
-924 -979 687 0
665 600 586 0
647 -865 -866 0
709 -560 921 0
-193 -806 -912 0
-589 -4 278 0
-270 -87 -442 0
-412 -394 454 0
-349 378 590 0
-701 -485 -479 0
866 -182 -254 0
579 -520 235 0
-943 674 870 0
-99 135 -371 0
619 -800 -519 0
-526 63 26 0
-169 987 182 0
874 -10 -369 0
583 247 -783 0
25 -945 -959 0
-203 7 -347 0
918 818 -19 0
343 -901 -258 0
-89 -976 405 0
22 -168 231 0
-759 -804 -309 0
-511 -54 -915 0
-744 902 -340 0
-124 980 500 0
-347 282 -754 0
648 905 766 0
-699 -686 802 0
743 177 -18 0
897 -946 27 0
-846 396 -465 0
-936 -369 -764 0
-497 -398 -157 0
-704 38 456 0
966 319 622 0
483 436 -339 0
-559 -827 -518 0
-862 562 792 0
-468 924 -379 0
-370 678 63 0
170 921 9 0
-749 984 -324 0
-884 -346 -179 0
650 -125 -621 0
-745 474 -703 0
636 -408 -359 0
-193 -123 -80 0
-436 -521 -975 0
-932 307 -674 0
333 -943 -342 0
-33 323 170 0
885 -747 114 0
820 -664 813 0
-259 -149 -53 0
-885 123 226 0
285 -145 -539 0
591 -213 395 0
-296 636 103 0
-774 369 289 0
916 615 195 0
631 442 407 0
-439 347 190 0
620 -296 -30 0
763 -463 992 0
-818 220 -544 0
505 -618 151 0
141 518 -463 0
42 266 -256 0
-610 235 -133 0
-741 403 -852 0
335 -397 87 0
-349 -339 751 0
864 -145 743 0
335 -99 77 0
-867 100 -88 0
-677 74 853 0
204 636 -893 0
-885 -52 -320 0
-594 577 986 0
599 883 258 0
267 -745 322 0
-855 -664 65 0
518 -231 -431 0
-727 663 40 0
-264 470 380 0
-171 343 755 0
315 424 -305 0
-474 942 610 0
-21 893 -502 0
-489 -695 259 0
-517 -528 278 0
809 736 493 0
612 115 -380 0
675 -707 220 0
-759 -567 -540 0
242 -939 859 0
546 -450 -565 0
-900 158 -653 0
3 -942 490 0
638 -378 -3 0
848 -475 -252 0
-201 -619 -250 0
623 -734 -242 0
196 991 -2 0
10 -328 130 0
808 851 519 0
-416 -430 -336 0
-117 -377 -106 0
886 -423 -504 0
-872 58 -106 0
198 922 -32 0
139 -495 -683 0
105 -271 845 0
-452 664 362 0
-557 -128 267 0
-580 -342 -480 0
-418 -477 690 0
903 401 -155 0
-525 -176 415 0
-301 854 465 0
177 654 -449 0
-52 -749 757 0
-764 -886 -1000 0
-404 -960 -624 0
772 -669 -564 0
-863 -613 -485 0
949 -611 292 0
-214 -896 332 0
-846 764 463 0
2 -938 -798 0
206 478 368 0
-885 -733 -867 0
-148 167 -800 0
-635 39 -744 0
-583 -591 318 0
257 -585 -682 0
-133 748 -825 0
-885 -402 270 0
-68 -770 -316 0
-819 -417 -925 0
365 500 -495 0
-958 375 503 0
161 -415 562 0
646 632 -608 0
552 -773 230 0
-662 612 909 0
-465 693 837 0
928 -4 383 0
790 -153 993 0
707 364 -436 0
-701 -236 -91 0
-399 921 -387 0
811 -736 -547 0
-214 64 615 0
829 712 -905 0
-471 -759 -818 0
-37 -826 663 0
864 467 608 0
400 -859 30 0
403 436 552 0
629 -556 -511 0
-193 479 861 0
-282 -492 731 0
725 -190 -481 0
805 -857 617 0
-398 982 -764 0
-298 -690 -921 0
-104 960 819 0
-437 645 -377 0
-313 28 829 0
-778 -188 163 0
232 285 -737 0
257 862 -462 0
-421 -615 -366 0
-61 -315 417 0
625 -967 86 0
-873 710 457 0
-37 -59 611 0
389 -44 132 0
-207 -911 -612 0
527 710 -199 0
-656 202 721 0
266 -949 228 0
43 -626 685 0
453 699 975 0
639 -181 898 0
-589 17 456 0
-388 332 -128 0
-550 -187 568 0
-314 -988 72 0
50 -562 -977 0
-526 -293 -463 0
-243 -210 141 0
-858 633 -40 0
184 -776 807 0
432 -450 -320 0
491 -338 800 0
763 -867 -923 0
-850 851 -169 0
-795 79 -310 0
734 182 790 0
-304 -533 31 0
113 -871 -510 0
97 -404 -587 0
-122 668 -278 0
-426 -582 273 0
-958 -648 479 0
-657 157 -595 0
550 244 -241 0
415 12 889 0
746 772 -179 0
-121 500 15 0
-371 -843 358 0
-3 -515 -6 0
-581 -942 -415 0
617 830 14 0
-327 164 791 0
294 669 162 0
-445 -647 46 0
227 -766 832 0
670 137 119 0
-914 1000 532 0
738 -547 825 0
204 -604 -742 0
54 -888 -426 0
491 80 -560 0
-781 -892 303 0
-237 -424 -356 0
780 382 -235 0
865 -608 540 0
-527 -969 141 0
-766 182 279 0
213 -70 513 0
50 24 -729 0
-490 -806 -654 0
897 -823 351 0
374 177 509 0
-98 179 -929 0
316 -537 373 0
169 -685 315 0
18 653 -327 0
-252 846 623 0
-206 -643 62 0
-912 524 -356 0
-335 49 -298 0
-197 145 -337 0
-129 774 -413 0
997 -55 773 0
-240 475 905 0
-925 459 854 0
-910 511 740 0
-34 -230 222 0
-321 -639 853 0
348 -451 248 0
258 -266 -180 0
260 -357 -881 0
111 -782 684 0
272 -915 115 0
-128 658 303 0
550 -290 -734 0
-202 -384 208 0
-290 -767 728 0
-201 -894 125 0
870 -860 -483 0
744 -539 67 0
-949 711 -58 0
418 345 -124 0
-353 -570 648 0
-895 340 -107 0
668 633 -159 0
-835 -323 -243 0
-36 935 76 0
-84 964 -35 0
-442 588 -114 0
-463 219 773 0
-323 -348 -988 0
977 -4 752 0
144 -459 190 0
