p cnf 100 470
-10 89 -2 0
99 -9 -48 0
26 -96 -63 0
-16 96 83 0
29 85 -17 0
-94 29 -83 0
84 -96 -51 0
97 49 87 0
34 67 -97 0
-2 64 93 0
-81 -70 49 0
-54 10 -72 0
6 -24 -69 0
-58 98 -47 0
-55 -20 88 0
-85 -94 -31 0
-36 -33 -74 0
-76 -2 44 0
-34 -69 -73 0
3 -52 -36 0
-46 99 -54 0
-84 20 -2 0
-32 34 -82 0
-78 -28 10 0
-15 43 -32 0
66 -37 -99 0
95 -60 -82 0
100 77 58 0
44 -28 81 0
-37 -43 2 0
-26 -20 14 0
-76 -67 26 0
-96 -39 89 0
60 94 83 0
-91 -70 16 0
78 72 4 0
51 -49 -35 0
-2 -74 18 0
-13 -72 47 0
15 -61 -52 0
20 -6 37 0
3 -73 -93 0
25 73 61 0
86 -72 -78 0
-26 -16 -91 0
-17 35 -8 0
-9 -56 -50 0
6 43 -72 0
9 43 10 0
-43 -21 -95 0
-56 53 15 0
30 93 -26 0
-5 61 82 0
78 58 -85 0
63 6 -50 0
58 89 -35 0
-63 -72 38 0
-73 -29 -31 0
47 -52 1 0
-60 44 84 0
-25 87 22 0
-24 77 19 0
58 3 95 0
11 16 76 0
35 36 52 0
28 -44 -98 0
35 -12 21 0
54 12 -69 0
-99 44 77 0
-29 56 -28 0
51 -48 7 0
-100 -72 -14 0
-6 41 97 0
78 99 17 0
-16 -100 29 0
24 41 -51 0
35 -38 -30 0
-54 45 -8 0
-79 -69 -47 0
60 6 19 0
-74 -15 93 0
24 -66 10 0
22 91 94 0
40 82 -52 0
-22 63 -88 0
58 -4 -42 0
39 88 87 0
42 -45 -41 0
-65 15 43 0
-16 17 95 0
-39 -34 -60 0
38 -82 -23 0
82 -39 54 0
-59 -15 71 0
-96 -59 -34 0
-21 -5 -22 0
-1 -94 32 0
-64 -10 76 0
29 -28 -11 0
-55 98 64 0
-24 -71 -17 0
86 -36 41 0
-15 65 36 0
-11 -53 40 0
53 -68 -51 0
-82 77 -32 0
100 7 -79 0
44 91 43 0
-89 88 -73 0
66 -28 -41 0
-45 80 -81 0
42 -55 2 0
-85 -49 -40 0
49 86 -44 0
-42 -22 -47 0
16 -37 -91 0
92 -54 74 0
-20 -14 -37 0
8 -33 32 0
32 -69 41 0
60 -31 92 0
70 26 -51 0
-3 70 -28 0
-69 24 21 0
79 39 -18 0
21 -70 -99 0
64 88 67 0
-75 46 18 0
94 -83 -20 0
36 55 6 0
-60 73 -4 0
-60 66 -24 0
-17 87 -98 0
-73 48 -29 0
58 29 4 0
-14 -39 -59 0
19 -43 24 0
-68 -69 -66 0
69 -94 -9 0
-63 58 -94 0
-99 6 94 0
62 21 -7 0
-93 -3 -24 0
-48 -10 -14 0
-46 7 -85 0
-47 -25 76 0
-50 -11 -46 0
-78 5 -32 0
-43 30 -78 0
-32 -31 30 0
-72 -18 -76 0
-73 69 -53 0
34 -97 99 0
-84 36 48 0
92 -49 70 0
-89 -90 -62 0
-1 -75 80 0
-7 -79 -83 0
91 68 23 0
-4 96 98 0
-21 -17 -71 0
2 62 99 0
-71 15 -75 0
-18 -85 88 0
-44 -79 46 0
-22 86 99 0
20 65 -49 0
-14 -86 -65 0
-87 -53 -43 0
-49 10 20 0
30 68 -62 0
-59 32 -78 0
-18 79 12 0
-85 90 46 0
41 17 16 0
-97 21 -75 0
-20 -40 -35 0
-57 51 82 0
-25 -61 -90 0
-32 -22 53 0
-10 74 49 0
-76 -7 -12 0
-99 -94 -90 0
27 -23 91 0
91 -8 83 0
-61 -8 -28 0
94 53 -60 0
23 52 29 0
-11 28 33 0
99 58 -48 0
-33 -93 -10 0
52 -2 40 0
5 -98 53 0
-77 51 97 0
-90 74 92 0
55 38 -18 0
63 39 31 0
-39 36 -60 0
-52 -11 -48 0
22 40 87 0
-36 -96 -85 0
6 90 -7 0
-55 59 -54 0
2 -6 -11 0
54 -27 1 0
-39 31 88 0
-67 -63 -33 0
32 2 67 0
62 76 52 0
65 45 59 0
58 -32 -12 0
-49 -8 -94 0
-1 25 -100 0
-3 30 -38 0
-73 5 11 0
-57 75 9 0
-84 93 -74 0
12 -15 34 0
46 77 -45 0
56 41 8 0
-75 -67 4 0
-53 -8 -18 0
-21 -90 27 0
-6 92 98 0
41 -92 8 0
-96 79 -50 0
3 -17 42 0
-75 -84 58 0
-36 -20 62 0
-24 68 2 0
55 15 -13 0
-43 -51 -12 0
53 59 -78 0
76 -67 -71 0
-10 -87 -30 0
-14 39 33 0
11 83 28 0
-64 -3 -11 0
59 -94 75 0
56 -53 -94 0
-33 69 18 0
73 37 98 0
-88 -92 80 0
-43 86 83 0
-90 -51 37 0
64 -67 -70 0
-13 43 -5 0
-19 63 56 0
-87 -70 -7 0
56 78 -20 0
21 -3 94 0
59 -51 75 0
-67 -64 -92 0
-37 -22 -21 0
99 -41 -58 0
67 50 71 0
91 1 -3 0
5 54 -96 0
-74 -28 -37 0
-87 -95 -89 0
-4 -43 70 0
59 -39 -100 0
-85 98 17 0
-96 35 87 0
52 30 94 0
24 90 50 0
-53 -4 -9 0
67 85 -57 0
65 39 -59 0
-50 -41 74 0
10 94 29 0
28 -79 16 0
-12 -95 81 0
-22 -20 38 0
33 91 -28 0
-97 68 -96 0
71 -22 88 0
-31 96 -24 0
76 84 58 0
20 79 42 0
27 54 19 0
76 21 66 0
-41 -36 54 0
-20 72 74 0
43 -84 63 0
-59 -60 57 0
-39 -16 92 0
31 -76 56 0
-38 65 84 0
-50 52 80 0
63 21 -39 0
-59 -89 48 0
-19 43 83 0
-95 -54 57 0
11 80 -92 0
32 -92 -85 0
-21 -23 -22 0
-87 18 -75 0
10 -22 80 0
-98 99 61 0
79 -95 48 0
-21 40 -92 0
85 6 -96 0
45 -73 -9 0
-38 -21 -66 0
44 -71 -77 0
-99 81 16 0
-29 -53 -76 0
-58 7 -88 0
-50 -58 -39 0
-28 67 41 0
20 -96 -30 0
-91 -60 -21 0
-27 -56 29 0
24 -23 54 0
61 -32 20 0
-67 98 -5 0
-52 -87 -72 0
29 -36 -75 0
59 70 29 0
-69 81 -89 0
72 -37 -5 0
-69 93 -39 0
-19 20 27 0
-56 36 17 0
-7 87 46 0
50 -72 41 0
-86 -65 49 0
-10 69 -34 0
-91 -30 89 0
27 10 -47 0
-76 -85 -62 0
19 -50 28 0
-55 -73 -54 0
23 92 -43 0
15 -61 78 0
-60 66 -30 0
64 70 -3 0
28 -83 7 0
-87 -61 -4 0
-43 24 49 0
51 -84 -39 0
-93 45 20 0
70 51 87 0
-49 -73 -15 0
-45 -93 30 0
-80 -8 25 0
25 -53 92 0
-37 -36 24 0
-48 54 99 0
14 64 93 0
-82 -48 49 0
71 48 -50 0
-23 -59 -25 0
-15 -69 89 0
-92 100 -84 0
38 68 97 0
9 35 25 0
16 -75 -93 0
57 -39 67 0
-68 20 100 0
89 -76 57 0
100 36 -75 0
-76 -99 57 0
-18 -97 -10 0
-61 -20 8 0
29 -83 -36 0
-34 88 38 0
67 42 82 0
-39 73 -37 0
-41 -71 -59 0
60 -37 -31 0
4 -41 29 0
21 -85 -93 0
-97 -59 -7 0
-85 89 51 0
-12 -66 -84 0
26 -2 -65 0
68 74 65 0
-23 -55 83 0
-43 95 -68 0
30 95 44 0
-61 -32 73 0
10 -21 19 0
-100 17 -27 0
-86 -94 -33 0
-47 -18 53 0
-15 3 -62 0
75 -6 21 0
-19 12 -8 0
85 80 -41 0
-22 -73 -34 0
54 -80 -55 0
57 -40 -18 0
-92 -63 40 0
16 -81 -37 0
-87 52 -32 0
-74 45 53 0
-78 -76 16 0
73 -37 39 0
30 -98 46 0
-83 84 82 0
47 -96 18 0
26 29 65 0
88 -70 -1 0
100 85 80 0
-31 -83 21 0
-53 51 -54 0
-73 76 7 0
42 69 -72 0
-1 17 81 0
24 -21 68 0
15 -62 -94 0
-9 -60 42 0
7 15 66 0
-41 -6 -61 0
37 -21 -84 0
-11 38 84 0
36 3 56 0
37 86 -69 0
38 -99 -80 0
54 -21 14 0
-30 97 -7 0
6 -35 -58 0
-63 82 -39 0
-85 67 -83 0
-72 21 -6 0
-52 -43 -29 0
-72 21 78 0
29 -34 57 0
-44 6 -78 0
7 -79 -92 0
-67 -3 11 0
-37 50 -93 0
-44 -99 36 0
13 50 87 0
84 28 54 0
4 -48 67 0
31 -26 -43 0
42 -57 59 0
-90 -52 -24 0
-85 -43 -39 0
58 81 98 0
85 44 60 0
-7 -44 -22 0
84 -81 -17 0
65 94 8 0
-29 9 1 0
-2 64 -57 0
-100 -14 -15 0
-92 98 26 0
-69 83 -34 0
-69 -25 18 0
-65 -66 -79 0
33 91 -94 0
23 -69 38 0
-25 -47 55 0
10 -83 68 0
11 99 51 0
23 29 72 0
29 84 28 0
31 12 -46 0
77 -90 56 0
-55 -61 63 0
59 60 -72 0
41 49 -2 0
6 3 27 0
69 45 -1 0
-51 23 -100 0
-7 -93 31 0
