p cnf 100 470
58 -66 -46 0
-51 -48 93 0
-11 14 -52 0
-29 5 -2 0
-41 71 45 0
100 -27 64 0
-96 3 -21 0
-61 10 9 0
-73 -20 -28 0
-25 34 -77 0
-1 98 -47 0
81 60 95 0
-7 57 -40 0
-8 -90 2 0
-2 36 94 0
-15 34 100 0
-60 -86 -61 0
-72 -7 -83 0
-64 41 -12 0
-14 -93 -47 0
43 79 15 0
-71 -57 42 0
-96 -54 76 0
-97 -2 25 0
-3 67 23 0
32 -80 -72 0
-10 -14 -98 0
-31 35 -54 0
36 -88 -42 0
9 51 -58 0
44 -2 88 0
93 -83 88 0
75 -25 65 0
-55 68 -51 0
-6 -80 -89 0
-91 74 11 0
90 -26 56 0
53 15 60 0
60 -85 46 0
76 -39 14 0
-39 29 -49 0
51 -77 -16 0
-40 70 -51 0
-69 79 34 0
-6 96 -67 0
47 53 51 0
78 -75 -43 0
1 47 -32 0
12 -60 41 0
59 100 -31 0
-36 -5 -20 0
9 67 -31 0
-13 89 -52 0
59 95 47 0
-82 53 7 0
-29 -32 -53 0
50 -8 -33 0
-100 48 -23 0
-73 -80 -13 0
70 -38 -45 0
100 1 -22 0
40 -100 -6 0
26 -98 13 0
-16 79 12 0
-36 55 -89 0
53 -43 -50 0
-11 18 -89 0
100 -28 39 0
41 -74 9 0
64 82 -17 0
-67 -84 -83 0
50 27 20 0
-31 -76 71 0
-64 -12 -19 0
-61 -82 -94 0
-32 52 43 0
45 86 -75 0
-54 77 -15 0
-34 39 26 0
16 36 50 0
-39 -1 65 0
84 -66 -30 0
78 -98 16 0
88 -91 -36 0
16 42 -100 0
75 -92 85 0
-26 -74 72 0
-46 -40 -92 0
-34 -70 -85 0
49 94 -41 0
-32 2 74 0
29 -93 11 0
25 -8 -32 0
58 -10 83 0
87 -40 13 0
54 -56 48 0
100 -18 19 0
-40 -64 77 0
-45 -46 -42 0
21 89 12 0
53 -84 62 0
-91 20 -13 0
48 73 67 0
-99 63 88 0
-85 72 24 0
-47 -59 -51 0
-13 11 -70 0
9 -80 -42 0
86 -61 30 0
-72 47 6 0
56 66 71 0
97 -44 -94 0
-89 -95 56 0
78 66 -23 0
-52 -21 90 0
10 -31 -33 0
-100 97 94 0
33 19 51 0
46 -71 -7 0
-53 -62 47 0
-16 -97 77 0
75 13 -8 0
3 76 -48 0
87 -99 14 0
-90 54 21 0
-4 26 -50 0
50 -59 37 0
-2 89 -74 0
-6 -87 31 0
-98 -2 -77 0
-35 -12 -33 0
27 9 -31 0
-37 48 42 0
31 44 75 0
37 40 93 0
-86 26 100 0
-17 -34 -95 0
-34 -69 35 0
41 -27 -68 0
98 -74 -59 0
-46 45 -23 0
94 -93 9 0
-73 88 90 0
58 -99 50 0
81 -76 33 0
16 -54 72 0
-91 -75 -60 0
7 -13 -59 0
34 59 -6 0
12 -13 -83 0
47 39 57 0
92 7 -82 0
-76 -21 10 0
39 -74 15 0
-5 72 -38 0
70 47 -26 0
-4 -14 -48 0
77 -87 -62 0
91 35 -46 0
5 -41 -33 0
-35 14 83 0
7 35 -69 0
6 59 61 0
27 84 60 0
-55 84 -36 0
-51 42 -60 0
7 -96 85 0
73 -51 -63 0
64 66 -20 0
-23 39 85 0
31 79 93 0
86 51 27 0
89 -40 -23 0
16 -67 -56 0
-81 45 -6 0
-85 -59 -98 0
-92 8 -15 0
-82 56 -80 0
-100 54 99 0
33 8 -37 0
13 -72 8 0
-14 -9 67 0
-92 50 33 0
-44 -22 -72 0
-42 61 -86 0
-5 78 -65 0
-99 -83 -16 0
98 -43 -61 0
61 -89 25 0
57 -5 -88 0
81 63 66 0
-26 -94 -65 0
99 91 40 0
-87 27 -39 0
-56 -78 -26 0
46 29 -44 0
-53 95 -9 0
21 83 -96 0
-81 44 -12 0
24 3 -43 0
71 5 -31 0
25 -58 -71 0
26 71 -33 0
31 -4 83 0
-47 -56 50 0
-39 32 99 0
-74 -14 -36 0
-65 25 62 0
57 14 -15 0
-99 -17 -39 0
62 -90 19 0
1 -12 -91 0
-28 90 -82 0
-55 23 -72 0
57 -95 -60 0
-27 -19 -78 0
27 -7 39 0
-51 -40 -7 0
27 -77 -24 0
-92 64 47 0
62 63 54 0
93 -63 75 0
-78 26 99 0
7 83 -20 0
10 30 -78 0
-61 -36 -15 0
-43 -21 20 0
93 59 32 0
94 -56 -64 0
-4 25 -97 0
-35 -91 42 0
72 61 -48 0
-18 77 -72 0
18 90 19 0
-55 -93 -34 0
-86 -53 -66 0
41 -55 14 0
-89 73 -49 0
89 47 43 0
72 -69 -73 0
98 91 -100 0
-13 11 82 0
1 -23 -100 0
52 82 -85 0
-42 28 94 0
86 -63 32 0
29 -90 87 0
75 43 14 0
14 -48 96 0
-5 31 -24 0
-14 -22 2 0
-85 54 63 0
-63 -95 -7 0
28 97 -36 0
42 -27 22 0
-100 -40 84 0
-34 82 99 0
-57 93 87 0
-57 -12 -80 0
5 95 10 0
-60 -73 83 0
7 39 84 0
71 -80 17 0
21 29 56 0
-70 -40 90 0
-40 -35 38 0
-51 78 31 0
87 35 46 0
-8 -44 -38 0
-75 -1 47 0
31 69 -38 0
98 53 31 0
95 90 94 0
98 -12 -95 0
-24 -62 27 0
-96 -87 -30 0
10 -85 40 0
-53 88 85 0
-65 -38 -66 0
-73 17 -51 0
-38 25 72 0
-6 -72 -9 0
-54 -73 92 0
-98 -57 -5 0
51 -69 -88 0
-94 -44 -95 0
83 -91 53 0
57 31 -19 0
-7 78 -46 0
-79 34 -90 0
95 -52 75 0
56 26 73 0
-1 -18 -52 0
-82 92 27 0
-49 48 -72 0
14 -34 91 0
24 -100 54 0
23 -40 13 0
-24 -100 -51 0
-18 68 33 0
4 -43 -73 0
-14 93 -89 0
-23 -4 25 0
-58 96 -72 0
47 87 -32 0
21 -42 40 0
-59 5 -4 0
67 77 54 0
43 5 90 0
-87 -79 85 0
-52 25 18 0
-2 96 87 0
75 42 8 0
55 14 -84 0
97 74 -45 0
66 3 -45 0
79 -10 65 0
40 92 85 0
89 -84 -23 0
98 35 -80 0
-91 -100 90 0
17 92 29 0
-5 84 72 0
-84 -68 -52 0
-44 -29 66 0
-89 27 -17 0
81 -45 -28 0
-60 78 -4 0
-38 -83 9 0
-57 -71 94 0
94 -7 87 0
15 71 98 0
95 43 -55 0
98 43 78 0
12 -29 -47 0
-60 49 -30 0
23 -3 91 0
-25 35 -55 0
-35 21 34 0
50 64 63 0
-15 20 54 0
-90 -21 -35 0
47 -53 35 0
60 19 84 0
66 62 -65 0
71 60 -46 0
-80 19 2 0
2 27 8 0
34 -97 -65 0
-5 81 84 0
72 89 -98 0
72 -46 92 0
6 55 69 0
54 7 34 0
43 42 17 0
12 42 29 0
-37 22 89 0
100 -76 -46 0
28 45 9 0
85 61 23 0
94 -45 -4 0
-35 74 8 0
-16 -43 -72 0
-36 -7 -32 0
5 -100 -9 0
-50 83 45 0
-6 86 -25 0
80 -86 6 0
14 -74 75 0
81 62 -91 0
-56 69 -47 0
-83 81 -20 0
61 -60 -69 0
64 -60 -88 0
70 4 -91 0
56 -43 -16 0
67 -37 -7 0
14 -17 44 0
-36 -97 9 0
2 52 16 0
-74 -91 -98 0
9 -55 -41 0
-95 12 37 0
91 -37 27 0
92 -52 -68 0
-67 49 29 0
-88 -49 37 0
40 -50 -43 0
87 6 94 0
85 97 -55 0
76 52 -14 0
92 -39 -98 0
-21 91 77 0
-98 12 5 0
-66 61 -95 0
84 49 -74 0
34 -60 62 0
37 -24 -50 0
32 34 -97 0
-40 17 -96 0
85 68 -21 0
84 87 -17 0
74 -84 -87 0
34 -85 95 0
-13 33 62 0
-29 -18 -89 0
1 50 61 0
-93 -82 78 0
-8 -92 -47 0
86 -69 93 0
75 -90 -36 0
28 42 96 0
12 25 24 0
24 16 -68 0
90 68 -63 0
95 25 44 0
-21 37 -30 0
16 80 47 0
49 -84 -2 0
-71 -59 4 0
93 -23 45 0
-8 21 3 0
-23 11 40 0
77 -61 -47 0
-95 -60 -86 0
42 79 -8 0
42 78 71 0
-34 13 -31 0
-96 -71 13 0
45 -96 -73 0
-41 43 -21 0
-74 -59 -79 0
75 -64 9 0
-35 50 78 0
-24 63 -51 0
-76 -55 -22 0
-99 -93 -25 0
-22 -2 99 0
-8 -82 -81 0
-78 -84 72 0
-44 17 -19 0
-82 90 9 0
99 -75 -62 0
36 75 21 0
-70 49 98 0
-20 -97 76 0
-15 -39 -86 0
-48 -100 55 0
-29 -38 90 0
-55 42 47 0
62 -84 10 0
-54 -95 11 0
-55 49 41 0
9 87 1 0
69 -48 -12 0
-60 -40 -35 0
80 -65 61 0
-32 -88 77 0
79 42 45 0
93 4 -81 0
-9 -49 42 0
-65 70 -21 0
-31 -58 -13 0
-47 29 -25 0
19 -91 -89 0
-2 21 -100 0
-14 36 -98 0
-6 88 -71 0
-8 90 28 0
31 1 -73 0
