p cnf 100 270
-64 78 -18 0
81 -75 58 0
-40 -68 -17 0
100 56 -72 0
7 50 11 0
30 -97 -53 0
-75 98 97 0
-26 59 98 0
-74 -15 -7 0
94 -7 87 0
-83 80 41 0
-99 -95 -10 0
74 58 -23 0
-88 16 -46 0
3 95 -6 0
11 39 -58 0
-75 25 -18 0
39 93 -91 0
-22 37 41 0
40 91 12 0
-74 -83 -89 0
-100 7 8 0
-10 -45 -90 0
47 95 72 0
26 86 -77 0
4 -7 17 0
-8 -1 2 0
2 17 -14 0
31 -67 81 0
27 87 6 0
-53 77 63 0
9 -14 42 0
-86 80 -26 0
64 22 47 0
22 -71 -67 0
3 82 -50 0
59 28 9 0
-55 -37 4 0
94 -50 -65 0
-59 -99 -93 0
-21 63 1 0
21 -58 -100 0
96 -6 -11 0
5 7 -59 0
86 -44 -54 0
94 -45 -30 0
56 -29 -87 0
46 -27 38 0
10 -27 -80 0
-87 -48 -70 0
93 -85 59 0
9 70 -2 0
-62 49 -36 0
-26 -52 66 0
-82 -7 -55 0
-45 -55 -24 0
86 77 98 0
-29 74 45 0
-79 53 -62 0
-75 -5 46 0
63 59 67 0
-86 -69 28 0
-17 18 -7 0
-25 -96 31 0
54 -15 7 0
37 -12 -74 0
58 -16 -79 0
67 -90 -22 0
57 83 14 0
67 52 -24 0
97 -98 36 0
-70 66 -5 0
-28 68 -52 0
-72 17 12 0
-28 99 -82 0
-50 11 86 0
82 -66 51 0
-83 30 41 0
-66 -40 98 0
-18 -36 76 0
41 -93 -84 0
-60 73 20 0
29 -58 60 0
75 -84 70 0
-98 59 -52 0
99 86 -21 0
-43 -34 72 0
-63 64 -95 0
49 82 -42 0
57 20 -46 0
2 -44 -91 0
-21 28 19 0
-95 94 59 0
-18 -66 40 0
-92 27 26 0
-31 -88 -74 0
14 -54 -40 0
96 -13 90 0
-17 -51 -24 0
-26 61 -48 0
31 99 -41 0
68 -18 -44 0
79 -61 -25 0
-86 33 -43 0
1 -73 81 0
-8 -59 -32 0
-35 1 38 0
-5 -7 6 0
89 44 62 0
100 97 43 0
53 -50 -48 0
61 -66 -98 0
-43 -51 98 0
99 22 -79 0
-40 -35 -18 0
100 42 -95 0
-75 -34 -58 0
21 2 -78 0
59 -29 -52 0
92 34 -7 0
100 -77 -12 0
73 80 -30 0
57 90 -33 0
-34 68 -20 0
32 -94 7 0
-78 -96 -45 0
-48 -43 -3 0
100 -21 -81 0
83 43 10 0
28 64 -93 0
92 -70 -71 0
-83 32 -100 0
34 53 88 0
39 36 81 0
100 -10 16 0
-19 -31 -87 0
95 52 68 0
37 100 -3 0
-3 75 22 0
-5 46 11 0
65 96 19 0
-98 -73 -31 0
93 84 52 0
36 93 76 0
-3 46 55 0
-59 -9 -78 0
-19 -34 -47 0
38 -54 45 0
-96 100 55 0
-79 -92 39 0
57 -100 68 0
-89 50 39 0
45 26 -81 0
-54 -96 -83 0
-75 -29 -40 0
-90 46 17 0
12 46 -28 0
-91 78 -24 0
-26 -56 -72 0
66 -26 34 0
40 76 95 0
-33 -8 -55 0
-66 46 35 0
74 67 -92 0
-61 -57 -100 0
-54 72 10 0
46 -89 25 0
75 50 65 0
-99 -25 -18 0
30 92 95 0
-96 -77 -93 0
74 -89 -51 0
-21 -60 43 0
23 83 9 0
-61 92 -56 0
-41 -60 35 0
-40 50 76 0
-52 -7 -81 0
-29 35 -15 0
33 -39 69 0
-23 -60 97 0
29 23 -74 0
52 40 -66 0
-16 -100 33 0
-7 87 91 0
-57 -81 35 0
62 63 24 0
100 24 -39 0
90 56 -66 0
-99 68 -13 0
-81 53 -15 0
75 -87 -70 0
-8 28 60 0
26 -63 97 0
-11 -61 5 0
-87 -52 -17 0
73 -78 88 0
44 -4 25 0
99 24 -37 0
62 -88 -34 0
-66 -53 -60 0
-16 -96 -53 0
23 -25 -39 0
28 -58 55 0
-81 17 -38 0
46 -64 60 0
-48 -100 -57 0
-16 75 12 0
63 6 -94 0
68 -88 52 0
-69 -34 63 0
-55 16 89 0
54 -65 52 0
-20 36 -51 0
-21 -38 -68 0
-55 -69 -78 0
-35 -47 96 0
-61 69 19 0
-35 -39 -3 0
-86 -15 -7 0
-87 -78 -25 0
-50 -8 -4 0
68 -2 -9 0
13 56 63 0
-2 -62 40 0
24 -59 21 0
9 -12 -50 0
-8 12 -90 0
94 17 43 0
47 58 97 0
39 60 61 0
-15 -3 37 0
52 85 49 0
-9 49 -39 0
-60 95 -51 0
-38 -100 -60 0
-22 86 -38 0
-41 -51 89 0
-65 90 -44 0
95 1 69 0
-31 78 -33 0
16 -65 -44 0
42 -27 100 0
-45 -9 87 0
17 84 -56 0
-55 -5 6 0
87 -81 40 0
9 -85 70 0
-4 33 6 0
98 -25 -42 0
-84 -56 63 0
-4 38 95 0
6 -66 13 0
100 27 73 0
-99 13 -22 0
-46 -86 -72 0
93 -97 -57 0
95 -64 32 0
7 -94 66 0
50 -88 19 0
-58 32 66 0
51 1 58 0
35 53 46 0
55 -63 -57 0
-1 -17 -3 0
-79 94 72 0
-34 82 16 0
34 33 85 0
18 -71 -59 0
-85 -63 -93 0
