p cnf 100 270
28 31 25 0
32 19 86 0
-43 45 -13 0
-80 10 57 0
-50 -96 -62 0
23 -51 -48 0
-10 -18 97 0
-98 -54 -74 0
-15 -93 -55 0
-44 100 33 0
-59 27 -14 0
-42 -14 -13 0
42 -74 81 0
66 80 -3 0
-69 -64 26 0
59 -63 -31 0
-62 100 -36 0
49 77 96 0
56 75 68 0
50 57 -69 0
-48 41 24 0
97 76 2 0
98 16 13 0
85 64 -24 0
-84 -87 -18 0
-33 16 90 0
95 61 62 0
5 96 88 0
-51 -78 46 0
48 -40 39 0
-75 34 -100 0
-25 -84 35 0
90 66 10 0
-30 -28 -13 0
12 47 26 0
-43 -51 1 0
-42 49 -6 0
-59 -86 -52 0
72 64 86 0
44 -41 20 0
82 48 -4 0
-76 78 -63 0
-74 -100 23 0
-21 -91 -100 0
-41 47 44 0
80 -83 96 0
42 -39 -6 0
96 64 66 0
-26 77 8 0
-10 60 -94 0
58 38 -39 0
54 -81 -49 0
-33 -20 -21 0
-35 1 -44 0
34 -14 -23 0
74 -12 -32 0
-31 29 -99 0
-99 -73 38 0
-40 -10 -54 0
50 -57 -95 0
29 66 -67 0
73 -71 -16 0
85 -71 -80 0
32 30 -18 0
30 8 -92 0
-31 -61 78 0
-29 28 88 0
-77 96 -37 0
-74 -57 83 0
-90 -5 -18 0
60 20 36 0
64 -92 47 0
3 -29 70 0
2 45 78 0
-58 -5 -55 0
-45 39 38 0
-3 -60 70 0
6 -78 48 0
18 26 60 0
84 -4 -95 0
65 -35 70 0
88 -56 -43 0
25 -97 85 0
72 -100 -46 0
18 -40 17 0
-39 99 29 0
19 66 97 0
40 -20 -88 0
52 -28 59 0
-96 -60 -51 0
-80 34 70 0
-53 57 -13 0
-68 93 -97 0
99 55 9 0
97 -89 -11 0
-35 58 -62 0
50 -78 13 0
-16 -89 90 0
-51 17 -77 0
-34 48 -5 0
-26 -37 -2 0
24 89 -74 0
70 2 72 0
-28 -51 -22 0
64 17 35 0
40 -87 -6 0
74 -80 -92 0
8 48 34 0
-43 -60 -11 0
-3 78 -23 0
80 -33 75 0
-29 39 59 0
53 -81 56 0
69 71 92 0
-16 61 73 0
-89 58 61 0
-49 -77 -35 0
51 75 65 0
3 -50 40 0
13 95 -69 0
-54 -66 -42 0
93 -28 2 0
88 -30 -96 0
88 2 28 0
30 -89 7 0
3 -31 -52 0
77 17 -68 0
-5 -49 28 0
9 -1 31 0
-76 -40 -41 0
-70 -69 -42 0
88 90 -11 0
-18 -6 -59 0
-3 86 -72 0
-44 -65 -59 0
5 23 99 0
-90 85 -43 0
98 86 -10 0
3 82 -40 0
-37 23 65 0
-78 -63 -3 0
-76 72 94 0
-43 -33 45 0
95 -9 94 0
-2 98 92 0
50 -9 65 0
-44 28 -74 0
-55 48 -11 0
89 64 6 0
-57 -19 -46 0
-20 -18 87 0
56 -2 -69 0
48 -49 -25 0
36 -10 -47 0
20 -21 24 0
-86 69 27 0
5 39 4 0
-17 64 -32 0
91 -53 14 0
-41 -33 -78 0
-38 81 -91 0
45 -61 -92 0
42 -58 -78 0
36 -1 -17 0
61 -27 -80 0
-70 28 51 0
26 -95 70 0
-83 -36 -18 0
6 66 -88 0
21 13 -59 0
-45 -57 -14 0
-55 77 31 0
96 -71 -17 0
14 -13 -22 0
-55 -40 -12 0
-20 27 21 0
51 -72 8 0
95 4 -32 0
-58 -67 -4 0
40 -52 84 0
40 53 78 0
95 71 -38 0
19 73 68 0
-74 84 11 0
-90 43 -18 0
64 99 3 0
35 56 84 0
37 90 -68 0
-53 -88 -20 0
63 -56 83 0
3 -54 76 0
9 27 35 0
-5 -12 -29 0
50 -34 -8 0
35 4 75 0
-4 -79 -72 0
-15 -99 43 0
-75 54 -66 0
-98 -89 38 0
-65 99 58 0
-77 29 43 0
87 -92 -84 0
-18 -30 -7 0
61 24 55 0
14 87 53 0
-24 85 27 0
86 3 58 0
99 -10 64 0
-77 47 24 0
-30 -4 87 0
43 66 -58 0
99 87 -47 0
50 -94 -83 0
-67 51 -79 0
30 -38 34 0
49 -83 77 0
40 -47 69 0
-51 -5 74 0
-70 -89 -21 0
24 -70 49 0
4 -18 -29 0
-45 -49 -46 0
-8 25 -9 0
-38 96 53 0
-81 25 -53 0
78 76 12 0
25 41 51 0
-7 96 99 0
78 -80 -27 0
-44 -22 13 0
-2 -59 29 0
39 -76 59 0
-47 -66 71 0
45 89 -82 0
-45 -87 98 0
76 -34 -33 0
8 11 -55 0
-21 -6 -27 0
64 49 -58 0
51 -72 8 0
-26 -32 22 0
-12 34 -51 0
-77 -96 86 0
-81 -4 -69 0
-87 64 -63 0
86 62 -98 0
-52 26 100 0
87 -25 -50 0
60 50 44 0
72 70 32 0
35 -11 17 0
-93 -47 -22 0
75 -46 -47 0
-89 -21 -55 0
-90 -16 -24 0
86 28 -92 0
-99 27 -64 0
-86 -81 -90 0
-63 -45 -87 0
-16 -82 -87 0
-55 96 36 0
-27 53 13 0
92 18 -49 0
-27 -22 60 0
-76 55 71 0
94 -3 -88 0
55 70 74 0
63 15 89 0
-90 -14 30 0
-85 -91 -81 0
