p cnf 200 910
5 12 71 0
80 -126 -57 0
-124 159 -91 0
-18 -197 -33 0
-49 -33 -183 0
77 -86 22 0
-68 26 111 0
-156 18 68 0
132 53 -97 0
187 -71 40 0
-128 -189 76 0
5 36 102 0
-150 7 75 0
-175 166 -170 0
13 108 -118 0
19 193 -85 0
12 129 72 0
-154 100 -146 0
25 -85 -103 0
-77 -80 164 0
16 -45 -151 0
-124 -32 -29 0
-189 -6 -72 0
101 92 180 0
-112 -95 -109 0
-103 152 -181 0
-117 158 -137 0
-68 -154 -170 0
-53 -38 14 0
-168 87 66 0
167 -137 -41 0
173 -180 -158 0
-191 -21 -172 0
-146 -92 156 0
19 -56 -13 0
54 -20 129 0
-188 -118 -112 0
-23 6 -46 0
146 -124 125 0
43 166 -187 0
-174 123 83 0
161 141 85 0
-179 -169 90 0
135 73 -74 0
-116 58 -185 0
-57 43 -75 0
-45 10 35 0
-99 -16 130 0
167 -119 -161 0
175 46 -172 0
-82 139 -54 0
59 103 -108 0
10 -103 -11 0
-4 -19 -172 0
161 -18 -105 0
-10 6 -192 0
-185 119 82 0
167 173 91 0
124 -161 31 0
86 -152 32 0
-132 50 167 0
-171 -181 56 0
149 -178 144 0
114 -102 -31 0
192 39 64 0
35 -151 -32 0
63 56 91 0
156 -17 65 0
90 74 -18 0
2 133 -196 0
178 198 12 0
117 -69 -167 0
-145 -176 -153 0
111 73 28 0
112 180 -144 0
113 -39 -34 0
78 190 7 0
-82 112 -186 0
-115 141 -70 0
118 -164 184 0
27 85 -150 0
57 -19 -153 0
156 74 102 0
142 -194 54 0
77 187 133 0
161 -42 -185 0
191 -160 -97 0
-152 -51 -164 0
-40 38 -7 0
98 -69 -196 0
190 -16 68 0
42 59 167 0
-140 -121 -78 0
-139 127 -20 0
-133 140 16 0
123 -188 63 0
177 -95 45 0
-118 64 -21 0
159 -43 -49 0
-8 125 195 0
-29 -57 85 0
-20 91 -92 0
22 70 -168 0
-104 -18 -63 0
-148 -184 9 0
-125 -196 150 0
10 -189 -92 0
-200 51 -131 0
59 -112 139 0
98 -23 168 0
155 -90 -137 0
-113 26 181 0
40 -74 -137 0
-17 199 126 0
7 -35 3 0
60 -191 21 0
-88 171 -53 0
134 87 100 0
141 -109 -96 0
-157 28 45 0
121 -55 186 0
-65 -96 -121 0
-22 -169 147 0
76 -157 -1 0
-50 -14 78 0
8 -75 -168 0
-66 -28 135 0
-92 -185 179 0
50 -48 179 0
38 187 -130 0
-7 184 -26 0
158 111 -64 0
-50 -119 25 0
-16 -30 -22 0
166 177 -46 0
45 150 26 0
128 -116 84 0
-11 -79 -120 0
-120 -48 -88 0
-113 -90 -111 0
19 -73 50 0
-171 45 99 0
-194 30 -63 0
-130 -131 84 0
-110 -123 198 0
199 -139 80 0
-54 -59 -10 0
-138 -165 186 0
185 -103 -171 0
43 -180 188 0
144 64 9 0
-152 88 161 0
-136 -15 -29 0
107 -115 54 0
94 158 174 0
-84 29 123 0
-70 -99 -141 0
173 87 23 0
72 85 -133 0
-198 -116 -135 0
129 -65 -135 0
-90 -167 -139 0
63 -82 -200 0
-173 43 -11 0
-143 -136 91 0
62 -90 -115 0
-90 -173 77 0
188 162 82 0
-177 122 -178 0
89 -173 -105 0
62 197 168 0
134 138 168 0
-130 167 -166 0
-5 80 173 0
-188 -124 -19 0
120 -183 174 0
131 -137 -85 0
-113 109 -99 0
-69 -84 -88 0
-7 19 89 0
43 -10 -167 0
32 128 -182 0
-98 63 118 0
-69 178 -158 0
194 -49 -178 0
33 -100 134 0
-84 -179 -165 0
180 -36 -35 0
27 164 132 0
-5 -199 90 0
-35 -140 84 0
162 -70 151 0
122 -192 -58 0
90 134 121 0
-198 56 92 0
-183 197 -78 0
115 -125 158 0
-142 -5 -106 0
-173 -58 -88 0
-40 -71 85 0
-45 -126 -117 0
142 -138 56 0
-77 -3 101 0
-170 21 197 0
-107 -197 81 0
47 159 181 0
-24 144 192 0
-19 -113 68 0
-17 -197 -18 0
-106 -187 -52 0
141 -182 58 0
133 -67 73 0
-5 -118 -55 0
-30 -41 -38 0
82 -68 -33 0
-31 -100 159 0
126 -119 23 0
-70 40 182 0
147 129 -91 0
-149 -60 137 0
89 106 31 0
47 -122 66 0
-87 -2 63 0
181 168 -150 0
13 48 -20 0
-168 135 154 0
-165 -17 156 0
144 197 91 0
-1 -23 -5 0
-106 -118 114 0
-162 -192 173 0
138 -81 -77 0
-19 -196 137 0
-48 41 62 0
-74 -101 -104 0
63 -29 173 0
144 171 180 0
-84 172 107 0
77 177 -139 0
-151 92 185 0
103 -200 23 0
-5 -38 62 0
-3 140 151 0
-39 194 27 0
60 119 58 0
-95 -180 -121 0
92 -114 74 0
62 -32 118 0
59 189 15 0
132 117 119 0
-79 -111 152 0
171 -173 115 0
178 196 -105 0
165 -114 144 0
191 166 29 0
199 -37 93 0
147 160 73 0
126 118 -36 0
-26 163 -11 0
-200 -181 121 0
-194 -39 66 0
-121 181 -129 0
83 188 -46 0
-91 -153 -56 0
160 84 150 0
138 20 -178 0
145 -75 -104 0
-128 183 -135 0
-91 -132 -145 0
-91 17 -94 0
58 -21 -44 0
-92 -95 -6 0
175 -42 -104 0
145 -9 -152 0
-140 -127 -158 0
90 37 4 0
10 150 68 0
-113 -93 -152 0
112 39 69 0
-59 170 -114 0
-86 195 -33 0
130 94 -195 0
-181 -1 -47 0
137 151 158 0
-200 47 -59 0
69 3 -31 0
93 -72 -142 0
-106 -184 138 0
-129 -65 -13 0
174 167 15 0
120 59 -25 0
-132 -86 159 0
-113 139 -62 0
-21 -108 47 0
-126 -134 -9 0
79 168 -121 0
52 48 162 0
187 64 51 0
95 -166 -55 0
172 -91 -42 0
-108 -142 124 0
-116 113 164 0
-76 -189 -116 0
188 99 -166 0
-102 -117 154 0
-102 148 -177 0
61 -44 30 0
71 126 118 0
15 35 175 0
-60 -4 31 0
-144 65 99 0
53 -91 7 0
-11 -10 91 0
123 -31 58 0
47 189 -79 0
42 83 -38 0
107 -93 -138 0
170 -171 121 0
70 49 135 0
-198 152 -109 0
7 -167 -42 0
175 198 -32 0
-142 -6 -149 0
106 149 54 0
191 -94 -156 0
121 -75 -57 0
186 -33 95 0
23 108 -51 0
-92 -16 -56 0
142 -82 -35 0
178 -78 92 0
-114 -146 -147 0
10 -108 -135 0
-143 68 175 0
-124 -48 38 0
20 -83 -18 0
-177 1 -129 0
141 200 126 0
-185 124 -175 0
-124 -5 109 0
119 2 17 0
5 43 -124 0
-50 124 137 0
-199 -176 155 0
-186 136 2 0
171 -159 38 0
-176 64 -138 0
-186 41 -65 0
-14 40 -36 0
-3 54 -59 0
-57 91 -187 0
135 -124 -189 0
-198 -35 195 0
91 81 -101 0
102 168 18 0
196 17 -42 0
-142 -99 68 0
131 -101 35 0
-38 -194 196 0
-38 -166 -193 0
-34 134 -65 0
-130 2 -32 0
90 39 115 0
125 -160 119 0
112 4 85 0
-199 -57 -106 0
-38 192 176 0
-92 134 -174 0
32 -189 196 0
-13 -59 35 0
54 135 -199 0
40 126 187 0
57 36 -128 0
-79 107 153 0
-193 145 -97 0
-64 -166 162 0
196 155 72 0
-90 78 13 0
192 -181 -55 0
100 -53 -194 0
-131 189 -146 0
-126 -61 -12 0
-61 116 89 0
-131 22 123 0
-148 -93 5 0
122 -8 2 0
-186 50 95 0
-68 2 -79 0
-10 60 6 0
-40 188 -31 0
-103 86 -176 0
136 33 -96 0
31 -199 -91 0
191 146 -169 0
93 86 -160 0
160 -48 -147 0
100 24 -35 0
-27 -76 36 0
93 -148 138 0
-118 -159 135 0
146 -20 133 0
99 33 -37 0
41 -79 -195 0
112 -103 -44 0
170 199 -80 0
162 -79 32 0
-49 -21 44 0
60 46 -9 0
-186 89 93 0
58 68 197 0
23 155 52 0
46 57 172 0
-84 130 74 0
98 -34 -21 0
44 14 -61 0
64 28 -98 0
-153 85 126 0
-40 -185 46 0
144 160 -150 0
-65 -47 -5 0
123 -143 98 0
-118 -85 141 0
-125 85 112 0
-51 -72 -148 0
-65 128 -34 0
165 179 77 0
-12 -81 -1 0
144 -145 103 0
-168 -56 -192 0
64 12 179 0
142 200 -157 0
185 86 -162 0
13 -86 153 0
157 -112 -168 0
193 -99 101 0
-78 129 -32 0
162 137 -175 0
195 -82 -46 0
-75 -167 -78 0
-155 -57 -66 0
131 22 -96 0
104 -42 61 0
-185 -93 199 0
94 -12 -163 0
-82 -86 33 0
-17 -11 170 0
34 109 134 0
-40 143 -178 0
-156 149 166 0
-128 -122 156 0
-113 -200 -125 0
152 -182 -4 0
-51 -56 -140 0
87 26 198 0
37 129 15 0
-150 -137 131 0
94 -136 -178 0
-167 73 79 0
-78 72 -82 0
-68 90 -168 0
118 -29 4 0
-160 -172 -135 0
18 153 36 0
154 -15 -32 0
-177 167 158 0
100 104 188 0
-11 154 39 0
99 -159 -150 0
195 -169 57 0
113 -131 -188 0
-145 -130 -47 0
110 -97 -76 0
-52 -20 32 0
-124 67 -178 0
47 77 49 0
-53 -163 -130 0
-140 -178 112 0
-2 136 22 0
-33 -62 -8 0
92 156 33 0
174 103 90 0
87 108 -33 0
-153 104 108 0
-145 -16 26 0
-31 -181 -159 0
-176 -118 55 0
-152 -40 -81 0
-158 -58 -171 0
3 -131 -177 0
96 -107 176 0
55 158 -128 0
1 -172 139 0
34 -99 3 0
10 -55 106 0
106 -37 117 0
-162 -122 -15 0
82 150 147 0
-133 -166 -183 0
79 154 75 0
197 139 -160 0
-22 83 -45 0
85 -200 -171 0
98 150 -134 0
-121 58 -4 0
75 187 146 0
-40 31 -135 0
-15 -76 63 0
62 -158 173 0
-123 -177 166 0
4 61 1 0
137 -56 -126 0
-157 -68 31 0
99 128 -159 0
52 -11 -117 0
-165 -43 109 0
184 -82 -45 0
136 -196 -181 0
-106 -174 -69 0
-97 -12 -39 0
200 183 108 0
169 64 153 0
144 192 -166 0
4 -124 63 0
-87 -73 60 0
-5 55 103 0
147 -7 178 0
13 -162 -78 0
84 -27 -165 0
47 6 -75 0
-132 141 20 0
-197 -124 160 0
148 89 11 0
-123 -185 36 0
-49 116 184 0
-162 -69 -3 0
30 -181 106 0
-135 -12 -93 0
-107 164 85 0
-80 22 -188 0
-58 -165 -20 0
44 -97 148 0
22 -36 -103 0
120 19 -193 0
34 -25 -199 0
16 40 -123 0
129 9 126 0
53 -140 116 0
16 -129 -123 0
-62 -146 -105 0
-6 184 186 0
-154 -149 -64 0
21 -101 -83 0
-34 80 -58 0
74 198 143 0
-81 145 125 0
-56 -70 -54 0
-157 132 195 0
-82 36 27 0
-167 196 36 0
-136 123 133 0
-152 -38 50 0
-48 35 -181 0
163 -30 130 0
-154 108 60 0
-150 -154 -196 0
91 -95 139 0
-104 -19 -170 0
-55 -128 51 0
-29 89 170 0
102 106 112 0
131 -156 -109 0
-185 150 -196 0
67 38 -34 0
145 78 -46 0
-103 -124 49 0
-26 79 35 0
33 139 -56 0
52 -144 -178 0
22 101 -116 0
98 44 53 0
97 45 -131 0
-157 -48 85 0
30 -80 -106 0
55 -106 -139 0
-167 -62 37 0
-178 149 7 0
61 -130 131 0
37 -9 57 0
-68 -41 119 0
-198 -26 -123 0
179 90 130 0
161 -195 -176 0
116 10 -108 0
129 74 58 0
-156 -50 -153 0
-187 -58 -9 0
170 -107 -183 0
76 169 -174 0
8 -120 -158 0
79 87 -67 0
22 -69 17 0
-96 -40 103 0
-140 157 179 0
31 -32 3 0
117 -110 179 0
82 76 -166 0
153 120 149 0
-75 -111 34 0
68 119 -174 0
129 -191 21 0
119 21 -121 0
66 89 199 0
-137 122 89 0
184 182 -168 0
68 -3 -40 0
-22 31 -44 0
-21 -17 199 0
151 17 39 0
27 146 -107 0
-125 -135 -63 0
-48 103 197 0
144 -53 66 0
-94 -133 95 0
-76 -85 -4 0
-39 -55 -118 0
45 -137 -62 0
-107 -108 -90 0
-47 -112 -98 0
14 -60 -150 0
-18 -130 144 0
-87 96 109 0
-90 -84 151 0
-117 185 -45 0
-39 38 24 0
-31 -30 84 0
-200 91 69 0
-104 -147 197 0
178 94 18 0
-6 -15 -155 0
155 170 79 0
-11 70 199 0
-146 29 -8 0
26 75 8 0
137 -116 128 0
-50 -166 -122 0
154 -156 -95 0
-67 -94 147 0
-137 -73 185 0
154 25 -151 0
-148 26 60 0
165 83 192 0
-187 -7 74 0
51 -165 60 0
5 6 198 0
-14 -50 189 0
-176 -32 153 0
54 63 -39 0
-98 -96 38 0
23 -114 173 0
-159 70 44 0
-86 98 103 0
-13 1 95 0
132 -150 -22 0
-17 74 -197 0
-21 61 -193 0
-56 74 -102 0
15 -48 118 0
-184 124 117 0
-170 18 139 0
152 48 151 0
-91 -71 -192 0
-198 -188 42 0
-85 -124 -141 0
-139 84 124 0
-32 11 78 0
22 -116 165 0
-57 -119 73 0
186 192 87 0
87 -105 -67 0
-57 -119 158 0
-165 105 150 0
10 -171 176 0
-158 173 -186 0
-138 48 128 0
-110 -3 122 0
-53 28 72 0
-103 -126 124 0
-76 -193 -65 0
-160 56 -35 0
-30 -188 -58 0
-101 52 140 0
88 173 -84 0
-113 -30 -137 0
141 -168 73 0
-181 43 -90 0
53 -86 60 0
196 -120 64 0
76 -98 -129 0
-12 38 144 0
-124 82 17 0
155 38 200 0
-103 -176 -112 0
74 -68 -32 0
-176 28 44 0
75 -7 -93 0
-47 126 -196 0
-5 -139 -137 0
-94 -153 -167 0
-145 189 -88 0
29 19 -141 0
68 -77 92 0
-100 -12 197 0
54 110 -47 0
-141 -109 176 0
107 9 -104 0
-42 -190 55 0
119 106 117 0
-5 -132 -194 0
97 109 122 0
-121 -29 -183 0
-100 -101 62 0
173 192 -149 0
165 63 58 0
124 171 146 0
146 -32 -60 0
-1 69 8 0
172 -190 181 0
-21 -1 -2 0
-46 114 -11 0
-8 -78 -168 0
-173 -187 -130 0
-108 131 136 0
128 -187 148 0
-49 -190 -67 0
-172 -160 -36 0
-152 115 91 0
-126 198 150 0
-67 105 -25 0
-147 -24 67 0
27 -81 -3 0
-178 -31 127 0
-88 -71 193 0
-36 40 136 0
54 199 158 0
40 -145 -46 0
70 -144 -130 0
178 77 188 0
-23 27 162 0
51 -161 -33 0
-197 39 165 0
-75 -65 172 0
135 177 -107 0
-149 -47 75 0
154 173 41 0
-153 55 -167 0
-147 20 -117 0
2 21 113 0
-33 142 -50 0
28 -185 -176 0
-186 -63 70 0
-51 -36 -192 0
-40 143 -169 0
31 3 192 0
18 -87 93 0
-188 -74 158 0
110 -50 142 0
116 -119 -153 0
-37 -61 -54 0
-78 187 -23 0
-113 134 38 0
159 156 -41 0
-80 -67 -173 0
133 7 187 0
94 -73 -184 0
136 -101 -161 0
168 149 -56 0
-24 -185 -159 0
-130 -102 44 0
135 -192 -176 0
-194 -186 122 0
-75 106 -84 0
188 -38 -98 0
51 60 -6 0
116 -49 -103 0
-133 175 121 0
-107 195 -122 0
-140 182 51 0
86 172 -178 0
185 -114 91 0
141 -14 61 0
-56 -6 -35 0
23 179 165 0
189 124 -158 0
-51 -195 149 0
101 -129 -94 0
-186 180 33 0
172 -145 -122 0
152 -127 85 0
14 -139 52 0
174 -67 85 0
90 -200 -17 0
-121 -73 196 0
-192 61 -80 0
38 138 -85 0
-195 -80 -34 0
-95 -11 116 0
187 154 -72 0
173 122 -125 0
10 72 -111 0
170 2 116 0
163 72 -170 0
-166 -155 -40 0
-126 14 130 0
102 111 -120 0
-122 160 103 0
-173 189 -144 0
79 98 61 0
-79 -145 -49 0
148 103 129 0
116 29 72 0
-156 -120 62 0
-38 -159 -21 0
177 153 -158 0
-39 24 94 0
106 -186 -169 0
-160 44 -139 0
194 -155 -166 0
3 -29 -25 0
-45 -68 -137 0
97 -174 175 0
120 -145 195 0
-16 -157 -91 0
129 40 -43 0
-25 -128 -134 0
110 115 27 0
115 81 72 0
198 121 -102 0
-64 -195 98 0
-72 53 -137 0
-144 45 46 0
78 -175 -12 0
77 121 -4 0
112 -56 -192 0
-23 193 149 0
100 140 -11 0
-90 50 157 0
133 27 86 0
184 -199 -28 0
103 68 156 0
-157 -185 56 0
-12 -112 196 0
-165 13 -30 0
-64 -190 1 0
149 133 158 0
115 -128 126 0
-28 -190 -113 0
101 150 176 0
22 89 -47 0
100 43 33 0
-180 145 -12 0
-148 -113 16 0
85 -167 11 0
-7 174 165 0
88 -109 -59 0
-52 -36 181 0
-125 198 -126 0
106 186 -33 0
-99 -46 66 0
22 14 33 0
30 -127 -171 0
128 171 -179 0
-3 5 -166 0
-130 -14 30 0
-133 -6 192 0
199 -137 -120 0
9 87 -157 0
-33 -99 88 0
-70 167 -95 0
37 63 -46 0
-42 -99 -91 0
-50 -133 112 0
94 112 -54 0
-95 97 -150 0
-29 -199 65 0
-161 59 -8 0
184 45 122 0
-81 60 -140 0
27 158 -186 0
73 -157 103 0
62 -57 -131 0
29 -148 127 0
116 -35 -34 0
-53 190 105 0
181 -155 -120 0
99 -109 -10 0
-138 118 198 0
-183 -102 -92 0
-20 122 -111 0
195 -70 142 0
134 -19 47 0
133 -24 -112 0
160 -4 2 0
28 -18 41 0
100 94 -16 0
167 150 -47 0
71 -8 -123 0
35 -129 -195 0
-161 -155 126 0
107 -35 117 0
-9 95 175 0
