c Modularity-based k-CNF Generator (V2.0). J. Giraldez-Cru and J. Levy
c   value n = 1000
c   value m = 3100
c   value k = 3
c   value Q = 0.5
c   value c = 10
c   value seed = 43
p cnf 1000 3100
166 -195 101 0
-950 -768 -652 0
873 517 -181 0
510 -582 512 0
-360 -325 -323 0
895 546 420 0
-257 246 282 0
-300 993 429 0
435 539 -315 0
227 299 -287 0
-632 -670 -641 0
82 -672 -809 0
-265 -266 246 0
-951 -937 -924 0
396 -740 997 0
251 758 371 0
667 -118 -336 0
-569 -141 -779 0
520 -561 -513 0
190 -701 338 0
-688 664 -657 0
960 995 936 0
919 965 -981 0
474 476 -442 0
447 313 834 0
571 -542 -552 0
560 -589 527 0
233 964 397 0
842 910 -600 0
228 4 -330 0
-423 -444 -484 0
425 -407 -421 0
-253 -288 -219 0
740 -787 -730 0
809 622 -391 0
35 38 -26 0
-105 -184 -146 0
784 378 -487 0
759 92 688 0
703 -705 -790 0
869 108 -527 0
-224 240 -250 0
486 -457 413 0
443 -292 811 0
971 -176 -413 0
313 949 208 0
148 -105 103 0
168 -319 968 0
-178 192 101 0
297 230 251 0
127 569 79 0
-250 -281 279 0
320 -316 340 0
210 -237 244 0
-535 -571 -525 0
-728 -498 167 0
310 -458 -538 0
794 796 -708 0
-444 -764 238 0
-173 188 158 0
664 -645 -635 0
-98 332 -646 0
-88 -94 14 0
-222 221 281 0
-577 -277 -68 0
-106 -461 -711 0
587 997 -724 0
569 -520 570 0
-290 -202 260 0
-641 457 512 0
-243 872 980 0
-43 -603 -141 0
314 359 -315 0
963 -983 959 0
-460 -889 691 0
940 -953 969 0
40 71 -25 0
-449 445 495 0
874 247 -493 0
159 -112 -150 0
-205 -910 437 0
-712 -779 769 0
556 -45 -713 0
577 -555 581 0
993 -945 -958 0
-565 -578 588 0
-397 -342 -326 0
-294 -228 246 0
455 -98 504 0
-727 -760 -770 0
986 -755 8 0
-82 -581 455 0
-548 585 524 0
866 -886 -873 0
145 313 743 0
-945 -270 897 0
-691 -618 -657 0
334 -344 -308 0
479 -422 -492 0
-553 -481 640 0
-529 -509 597 0
-993 -961 -906 0
-14 31 6 0
365 -356 -380 0
-824 846 865 0
82 -158 211 0
-799 700 -856 0
-935 20 440 0
672 694 655 0
-862 318 36 0
697 552 444 0
-972 -223 400 0
-320 810 753 0
-510 14 458 0
853 805 894 0
48 -446 -194 0
-30 626 370 0
338 -815 985 0
-169 524 342 0
-829 431 -981 0
-543 -653 -787 0
-162 -535 -391 0
-171 -140 117 0
933 -69 643 0
-877 300 -320 0
-615 -657 695 0
953 940 -944 0
-163 927 -468 0
677 606 687 0
-635 -692 613 0
-32 -68 100 0
-594 -532 -558 0
253 285 -205 0
-309 -338 -320 0
38 -4 -17 0
-235 211 266 0
-292 707 80 0
64 -77 98 0
-882 -890 856 0
-993 999 -978 0
607 210 922 0
-738 -638 938 0
890 833 -885 0
-765 721 760 0
-747 -838 371 0
245 -294 -229 0
-753 -762 714 0
-11 -952 148 0
-113 -170 -181 0
-931 22 702 0
547 585 -520 0
633 -627 -672 0
907 -458 -88 0
-811 -188 698 0
-860 -466 -590 0
-478 -363 528 0
563 -586 -530 0
-743 557 621 0
-808 869 -822 0
359 -357 -351 0
-215 226 -229 0
708 -701 725 0
707 738 767 0
-383 -337 -320 0
990 -962 928 0
13 22 -67 0
152 -130 -147 0
562 609 -715 0
533 562 -509 0
-780 722 709 0
506 265 -864 0
523 -462 685 0
393 367 -391 0
804 899 -866 0
40 61 -100 0
-684 -620 -697 0
-399 108 -744 0
958 982 -930 0
-312 -546 -227 0
-379 393 -303 0
-327 648 736 0
-182 -654 -530 0
517 -819 185 0
249 -209 271 0
102 -103 126 0
-524 -302 -915 0
413 -428 418 0
-847 759 269 0
332 -309 -392 0
-156 342 225 0
-404 428 -496 0
832 882 848 0
-700 554 -808 0
-903 952 -931 0
-162 199 107 0
548 570 -558 0
-242 605 974 0
275 273 260 0
-114 182 -192 0
395 317 381 0
975 -884 -392 0
-286 268 -229 0
86 -100 35 0
349 731 814 0
-368 -865 -546 0
677 -649 -621 0
117 -105 129 0
-455 -445 422 0
-59 32 -38 0
921 973 962 0
-38 624 -318 0
-918 -956 964 0
-168 -189 108 0
-536 185 324 0
-426 389 -940 0
-129 -127 172 0
895 -161 -990 0
537 505 593 0
-875 239 -105 0
547 -266 -897 0
-127 158 -153 0
-847 832 -849 0
-785 705 -740 0
-220 249 256 0
-660 692 654 0
-895 -120 -220 0
-877 832 818 0
972 535 -688 0
685 -906 584 0
837 -900 878 0
-373 151 -978 0
111 496 876 0
345 655 143 0
835 948 362 0
422 440 -448 0
-398 330 317 0
-505 -542 572 0
-315 -379 360 0
-464 -353 991 0
624 815 -72 0
224 279 212 0
443 -428 452 0
-66 -261 628 0
-641 607 -651 0
-691 683 -635 0
-669 -164 -539 0
469 223 345 0
-238 640 999 0
-540 -511 528 0
871 819 846 0
-445 -610 21 0
-564 537 -505 0
-7 780 1000 0
704 -724 769 0
-205 224 273 0
-818 795 476 0
-774 168 290 0
-500 465 406 0
-152 319 -640 0
164 182 163 0
905 -658 464 0
190 -135 -152 0
53 -273 602 0
-53 -24 52 0
-679 518 -374 0
747 915 -331 0
351 -677 65 0
-417 -433 496 0
501 549 -597 0
564 506 -596 0
-830 -418 -17 0
-950 545 -803 0
887 145 492 0
-389 -399 311 0
-306 -385 -335 0
-416 482 -423 0
151 -112 149 0
-293 -291 275 0
-370 359 -361 0
-101 158 -162 0
-247 883 48 0
-470 478 498 0
-854 591 903 0
-395 574 -862 0
414 411 -438 0
222 -891 -58 0
-452 851 -254 0
959 940 -912 0
-228 -287 259 0
-913 -122 -767 0
-517 -618 -402 0
-328 -182 -874 0
321 732 434 0
987 -958 953 0
226 -282 -257 0
54 945 753 0
-438 -908 862 0
458 502 -352 0
703 -136 -824 0
-397 396 338 0
-882 -878 885 0
869 -264 -509 0
154 153 133 0
-850 974 -753 0
848 873 857 0
981 -991 944 0
730 -977 887 0
-633 -9 947 0
-953 -369 -409 0
534 569 -559 0
-901 -986 959 0
-663 955 -592 0
34 80 91 0
-270 -243 299 0
-241 707 41 0
-741 -721 766 0
-854 -257 936 0
-366 331 384 0
904 797 602 0
339 -397 -396 0
-602 170 801 0
382 -306 -320 0
-224 -282 -233 0
898 352 -618 0
-402 805 200 0
-689 741 862 0
-935 812 86 0
-79 -49 69 0
939 943 907 0
360 351 -353 0
-836 213 172 0
-352 -971 774 0
-786 667 -584 0
-522 508 524 0
184 -171 166 0
898 -809 817 0
244 -284 202 0
-650 331 -423 0
-889 853 834 0
341 -330 346 0
242 -596 917 0
108 -662 436 0
-750 -990 368 0
743 514 996 0
241 237 -207 0
-573 -750 267 0
-311 -131 -257 0
-124 130 182 0
-894 -307 -439 0
351 -696 -44 0
733 -135 -488 0
-651 686 605 0
781 -743 -739 0
-321 798 673 0
508 -241 -38 0
657 226 -452 0
-169 788 -915 0
-858 746 -144 0
711 752 -731 0
290 221 -282 0
-604 665 -693 0
-551 593 576 0
-296 846 -371 0
952 781 93 0
-292 -189 662 0
-235 351 510 0
-327 745 67 0
608 -678 -647 0
-839 891 883 0
-189 116 182 0
400 402 280 0
78 -63 60 0
-4 -65 -90 0
-114 852 69 0
-347 -191 -62 0
24 -55 -83 0
538 -569 -537 0
-174 636 -796 0
649 -610 -698 0
-652 -608 669 0
6 -833 -297 0
910 332 -555 0
874 -370 675 0
786 -693 -872 0
73 95 43 0
686 889 -525 0
-521 387 -251 0
-495 384 976 0
820 839 -814 0
14 -997 -423 0
-362 -76 410 0
-797 -776 794 0
-97 744 -127 0
-346 302 -377 0
189 152 -125 0
-536 401 -731 0
59 -884 -256 0
-615 -623 635 0
98 74 -47 0
176 -111 -190 0
-664 595 -139 0
786 267 584 0
-355 -307 -389 0
150 129 -139 0
652 -966 180 0
-321 269 -715 0
352 392 -378 0
-584 531 506 0
315 430 -119 0
572 555 523 0
-304 507 617 0
110 -122 175 0
-540 574 -576 0
466 -181 899 0
-770 775 760 0
-726 -707 766 0
482 -450 448 0
214 156 -796 0
-147 -161 -120 0
-230 740 -106 0
175 -167 -170 0
886 -822 -848 0
423 -455 499 0
754 -737 -777 0
498 934 686 0
-537 -461 675 0
273 244 226 0
-591 -594 -582 0
-524 30 -338 0
806 -808 804 0
819 -816 826 0
314 -538 873 0
-545 584 -506 0
-546 577 518 0
63 617 786 0
-39 644 -936 0
-773 766 -761 0
869 -878 835 0
-424 469 432 0
685 -149 -215 0
-546 -312 106 0
895 -465 -619 0
248 219 236 0
-394 443 -234 0
680 -420 -400 0
381 -645 -843 0
59 8 75 0
-493 478 489 0
376 -87 -182 0
-244 -496 -387 0
-324 451 661 0
-119 120 -116 0
361 -391 -362 0
-315 382 352 0
-260 539 -620 0
-649 -651 -631 0
-582 -528 538 0
757 -790 -711 0
153 -144 -200 0
934 979 914 0
-323 -962 666 0
-141 -563 707 0
-805 887 -878 0
832 -819 -865 0
777 -540 -312 0
94 935 -333 0
166 -183 -143 0
25 68 97 0
-463 432 428 0
-559 -531 -521 0
-612 637 -618 0
-652 -638 -641 0
479 -237 -80 0
99 16 23 0
754 723 763 0
6 -251 -185 0
-929 -949 923 0
-58 -63 35 0
23 41 11 0
826 858 834 0
-56 -18 -12 0
185 -193 164 0
-635 -206 920 0
-482 -462 477 0
-656 362 28 0
691 -696 -634 0
-427 -610 -706 0
301 678 979 0
-84 229 -360 0
-867 -881 -827 0
-617 606 682 0
-928 -907 919 0
384 332 323 0
300 214 211 0
246 234 254 0
-110 -79 -693 0
426 499 476 0
421 -377 -225 0
109 -142 177 0
-315 -155 966 0
658 -207 -937 0
-236 -269 -237 0
-430 -412 443 0
-554 -514 600 0
-203 -263 -274 0
880 -870 879 0
326 709 -974 0
-691 -244 468 0
-14 373 873 0
-635 -611 631 0
-200 194 -148 0
-56 -271 350 0
-942 107 492 0
-665 -618 672 0
909 916 976 0
-591 512 597 0
-974 -54 -574 0
-294 248 -266 0
868 330 -26 0
81 -501 -879 0
379 -2 -152 0
-623 -712 915 0
953 144 -78 0
87 -339 -444 0
-34 -316 418 0
831 130 -570 0
327 154 76 0
210 -291 -296 0
-686 -639 695 0
-439 414 -480 0
701 -730 -786 0
967 -917 953 0
976 -936 -913 0
675 179 446 0
620 949 -41 0
552 -757 -913 0
-790 904 279 0
-252 698 9 0
928 -394 830 0
-389 -364 -390 0
509 592 -523 0
279 -220 285 0
192 -157 194 0
616 -282 -509 0
-154 -173 -174 0
390 380 366 0
-829 742 -918 0
-698 -691 -618 0
619 -127 872 0
233 -295 -207 0
-926 -512 91 0
-219 -276 -220 0
-169 113 171 0
-883 890 -887 0
843 116 -37 0
740 674 560 0
-762 701 735 0
-37 54 83 0
-970 170 -94 0
-940 -416 223 0
-337 -30 698 0
298 -231 276 0
830 803 877 0
355 763 919 0
-898 -857 830 0
-6 -29 1 0
765 -973 321 0
-929 43 242 0
-573 90 916 0
604 -355 -997 0
-423 -402 -437 0
-760 58 -277 0
980 152 -657 0
-48 305 -983 0
119 160 176 0
-721 790 -708 0
-120 148 -130 0
-700 -693 -674 0
589 157 248 0
309 -254 -121 0
-92 -16 -1 0
542 -534 -595 0
558 -536 567 0
97 94 31 0
979 904 906 0
514 -584 -578 0
-316 54 -925 0
806 -28 785 0
877 -438 51 0
859 -422 358 0
91 9 -72 0
-515 -686 -482 0
-445 -562 364 0
-43 451 -833 0
242 247 -223 0
546 524 -531 0
867 889 877 0
804 -238 -426 0
-45 769 -376 0
28 894 125 0
848 817 813 0
-331 61 407 0
396 325 383 0
216 -250 -221 0
-673 -672 -615 0
60 -90 85 0
-776 -185 -263 0
-623 -648 -614 0
391 321 -349 0
579 99 439 0
-404 -453 425 0
775 734 791 0
93 425 -150 0
145 149 -182 0
270 -295 209 0
410 602 -155 0
-580 386 -996 0
198 -194 104 0
-462 -483 -439 0
-686 -230 312 0
-358 -387 335 0
220 -257 288 0
773 726 -779 0
224 -287 244 0
62 695 743 0
916 349 -687 0
-303 605 533 0
-123 440 -630 0
-879 403 -523 0
617 609 628 0
744 789 -724 0
-172 143 126 0
-432 818 994 0
892 -801 823 0
-22 -598 483 0
-877 995 -441 0
635 -626 -695 0
566 545 553 0
620 -74 261 0
-90 559 325 0
-773 862 -607 0
584 -585 557 0
101 -172 113 0
399 475 -688 0
709 374 249 0
-18 -46 -75 0
-387 -401 -583 0
-483 480 467 0
-352 108 980 0
495 477 -484 0
474 -418 -442 0
461 150 312 0
-169 -168 -166 0
519 -959 -205 0
909 953 984 0
751 -709 762 0
232 -265 226 0
675 -617 -690 0
637 -895 -343 0
243 -453 44 0
-831 -877 -898 0
613 177 381 0
149 -179 -109 0
884 874 -833 0
198 -179 -159 0
-252 14 726 0
-622 652 632 0
-712 -775 -731 0
-443 175 771 0
-31 -342 -664 0
612 178 760 0
-11 -100 37 0
-211 273 -223 0
372 -361 -338 0
-990 -926 916 0
832 826 875 0
734 741 -755 0
-705 -703 759 0
-422 -403 417 0
34 -969 761 0
-86 -89 -82 0
-108 -131 101 0
441 -491 -457 0
-612 -659 -640 0
-194 124 179 0
-446 500 475 0
-185 196 112 0
183 178 -114 0
475 554 -670 0
-239 652 594 0
550 -127 17 0
35 -97 73 0
8 77 -81 0
139 156 -186 0
920 689 -449 0
392 331 326 0
743 -785 -748 0
-215 179 17 0
-49 86 -16 0
582 -762 639 0
-153 -345 -541 0
353 -412 -914 0
-320 27 -415 0
182 157 -189 0
-60 -264 127 0
-871 820 -861 0
-342 -328 317 0
320 -388 -358 0
-578 -305 -68 0
556 -288 -711 0
-579 505 -585 0
-908 807 444 0
683 -620 618 0
-428 478 451 0
496 -489 443 0
547 -936 -782 0
816 272 -128 0
-323 -542 -499 0
-850 849 -833 0
927 -940 985 0
684 -195 438 0
-938 840 -65 0
221 -218 -274 0
921 -329 -17 0
-408 -494 -463 0
-717 740 -754 0
-313 -364 -383 0
-222 212 -248 0
-118 -180 103 0
575 -509 556 0
-924 7 -523 0
528 -597 551 0
-133 188 117 0
882 -533 -144 0
371 359 334 0
104 187 153 0
-259 293 -254 0
964 -214 -790 0
-147 101 198 0
282 -254 -267 0
-525 589 -501 0
139 -131 162 0
-54 -55 48 0
805 -889 -822 0
56 -92 53 0
334 -307 392 0
368 -377 -334 0
925 -976 933 0
-786 731 -715 0
-819 -850 813 0
68 -8 84 0
-20 -648 -293 0
-421 -439 413 0
-288 224 239 0
23 -908 193 0
108 -164 -139 0
810 880 -855 0
-54 -7 55 0
-971 -407 272 0
779 707 -767 0
-853 -598 -452 0
-719 -767 -798 0
-212 300 279 0
-399 -883 -72 0
585 976 372 0
-498 481 -409 0
-102 -794 -583 0
-897 -568 108 0
-706 781 -791 0
-560 520 -570 0
-6 44 -40 0
138 -170 131 0
-225 258 -226 0
379 -391 323 0
842 843 -869 0
-654 -644 628 0
-210 -771 529 0
136 980 -591 0
-470 472 -457 0
-998 950 -980 0
585 412 712 0
467 -766 262 0
-662 266 -141 0
-623 354 242 0
699 -639 616 0
-128 137 -146 0
-812 834 -860 0
-22 -456 -561 0
-347 378 359 0
-212 -233 -206 0
-96 -66 -98 0
-195 161 -200 0
-412 431 405 0
-526 -513 538 0
736 -770 779 0
-190 -159 179 0
-75 -58 -6 0
-163 -659 -928 0
-179 836 290 0
309 103 -241 0
-382 345 354 0
580 -583 543 0
550 112 -452 0
-262 -270 -263 0
-993 671 -231 0
-45 762 -923 0
842 409 -339 0
-289 -254 237 0
-798 -768 752 0
823 731 4 0
-82 712 -658 0
-575 -252 -316 0
-189 10 445 0
64 760 -950 0
-743 -787 -765 0
-977 -989 952 0
25 -68 -4 0
-647 -612 -621 0
-65 47 33 0
454 -289 324 0
-688 679 -646 0
871 -974 181 0
529 832 212 0
759 -734 707 0
-717 813 391 0
269 293 -268 0
181 -158 -115 0
308 -161 903 0
151 178 147 0
-185 186 161 0
326 739 -841 0
-482 -426 -434 0
869 -880 810 0
113 -196 105 0
-451 -419 496 0
-556 566 510 0
510 506 -574 0
-28 936 -230 0
-361 327 -380 0
853 -651 -759 0
763 688 -334 0
698 194 -272 0
-38 -863 174 0
378 307 373 0
-823 895 882 0
-154 -48 511 0
602 -625 -694 0
726 767 -707 0
521 -512 -572 0
830 838 826 0
-20 -70 -33 0
-129 920 518 0
194 -171 168 0
586 442 -920 0
-242 475 715 0
-634 603 -619 0
380 -312 -364 0
-141 172 175 0
-916 910 -926 0
-467 -486 443 0
-297 -994 458 0
-960 905 -976 0
339 -359 -382 0
6 -95 -13 0
-122 129 168 0
510 523 540 0
957 722 466 0
593 563 509 0
-287 744 -659 0
-604 -837 531 0
730 783 -764 0
482 -454 -430 0
891 -805 -841 0
916 -980 -956 0
-466 -414 491 0
198 -160 -180 0
409 457 489 0
-293 206 -248 0
836 509 -649 0
380 302 -377 0
975 186 593 0
-421 492 426 0
-50 23 25 0
38 -815 -420 0
-494 568 -50 0
-661 -228 339 0
422 839 770 0
195 177 -132 0
21 -60 -81 0
572 765 840 0
83 -16 64 0
-510 -506 516 0
649 315 815 0
770 837 -996 0
-467 432 -415 0
-397 810 412 0
-527 509 -594 0
843 -419 645 0
-563 -571 -525 0
736 175 491 0
757 -849 993 0
-561 952 102 0
744 726 794 0
-258 -506 684 0
219 -275 225 0
-364 374 -390 0
656 631 -686 0
89 31 98 0
370 -255 139 0
316 -479 -89 0
218 307 -565 0
201 106 998 0
-267 578 -631 0
236 662 31 0
303 616 895 0
-767 798 719 0
-649 -605 -682 0
100 33 -64 0
-710 -757 733 0
708 726 -773 0
-375 332 351 0
-868 -635 962 0
419 500 442 0
-956 -472 375 0
-598 503 563 0
410 881 163 0
622 700 -683 0
518 810 -152 0
392 739 -662 0
-125 116 168 0
-369 -365 -374 0
456 140 514 0
31 -33 -45 0
805 -160 -689 0
-265 261 221 0
531 -872 431 0
-840 -682 761 0
-534 418 741 0
-167 -953 17 0
-435 484 465 0
317 817 -178 0
396 -838 -774 0
-691 849 71 0
-287 -288 277 0
41 95 37 0
-553 -545 576 0
44 -87 -76 0
128 -190 171 0
-887 -12 799 0
-923 -508 -607 0
-532 490 880 0
-266 -240 218 0
860 -900 -814 0
155 -302 -526 0
-892 879 -898 0
-794 737 762 0
-51 -73 84 0
971 493 264 0
-862 -248 -116 0
-451 154 -717 0
692 526 -61 0
847 858 -884 0
728 -714 -798 0
-511 599 -525 0
-249 -250 269 0
123 137 101 0
111 113 -167 0
785 -662 -820 0
985 962 -975 0
-374 -387 -301 0
707 -153 881 0
201 -284 -263 0
181 -454 -277 0
-409 -2 210 0
435 -410 478 0
-879 882 -855 0
-198 -136 115 0
79 87 71 0
-948 -960 916 0
-404 699 118 0
995 913 -908 0
-412 -844 -722 0
-501 -582 -533 0
903 309 766 0
-726 -715 -710 0
956 -999 -948 0
-143 137 -158 0
891 -873 812 0
-781 702 739 0
406 444 415 0
330 -121 -833 0
884 -868 -892 0
-102 769 397 0
-987 -974 -960 0
154 194 170 0
-719 41 -141 0
-256 -80 862 0
342 358 -395 0
373 -389 -340 0
972 -878 202 0
910 -206 892 0
-710 -790 -798 0
-391 365 -352 0
-314 497 -806 0
467 -418 -447 0
-83 678 -575 0
-809 -858 830 0
-649 -217 -547 0
-104 198 107 0
272 -226 221 0
353 482 -893 0
-733 -798 -717 0
-680 866 -948 0
436 -490 -468 0
-519 -536 -567 0
-507 -520 -572 0
305 362 -353 0
502 581 -587 0
-885 -707 380 0
-795 -617 492 0
-484 823 -189 0
602 -611 639 0
-119 185 -191 0
102 185 158 0
329 -307 363 0
-279 -224 218 0
-245 -930 -736 0
29 -709 -180 0
101 -134 -153 0
271 -170 962 0
-392 -235 -801 0
497 414 452 0
-350 -381 324 0
-136 113 -112 0
448 463 428 0
-297 -209 288 0
-67 -14 -88 0
504 -516 511 0
-454 456 467 0
-578 -564 -542 0
441 498 -422 0
171 149 170 0
-836 858 888 0
491 -421 465 0
625 998 18 0
48 -96 -42 0
-495 -577 -372 0
540 -102 -760 0
-819 873 852 0
982 -816 -644 0
824 -107 -299 0
-953 -427 -622 0
-577 317 -716 0
-967 -990 -959 0
-741 755 734 0
-365 -342 -387 0
-146 104 -136 0
-514 508 -572 0
41 60 -37 0
-526 -575 -595 0
-385 -377 368 0
690 69 -356 0
466 834 -907 0
679 -629 676 0
663 28 -229 0
-181 606 -226 0
-494 -421 428 0
48 -60 -96 0
-772 664 453 0
-515 -532 -537 0
445 437 427 0
-124 619 -394 0
-947 -77 252 0
375 -358 -346 0
513 -510 554 0
-598 -590 -582 0
225 296 262 0
-80 33 93 0
302 -446 -602 0
-5 213 -529 0
779 752 702 0
367 -514 495 0
587 -506 571 0
-466 -219 -851 0
-1 -4 67 0
314 -628 -234 0
-300 -24 461 0
144 680 -419 0
-960 515 649 0
-716 777 -754 0
-67 -71 -94 0
456 -476 -454 0
609 -296 -414 0
-323 366 302 0
-974 -703 660 0
-30 79 82 0
-358 -390 365 0
369 -380 -352 0
520 147 981 0
676 -947 -276 0
-788 -39 932 0
-389 -365 386 0
-665 664 673 0
-552 -582 592 0
-689 -793 312 0
169 176 124 0
-355 383 389 0
-996 675 358 0
-910 -991 -912 0
-817 26 -769 0
-897 924 128 0
-122 -131 -189 0
-116 383 -10 0
152 -199 -137 0
-94 48 56 0
-89 428 504 0
-565 415 -682 0
934 926 923 0
-211 -502 325 0
772 -749 714 0
482 -872 105 0
679 666 -623 0
633 -680 658 0
319 932 74 0
-321 -314 324 0
678 -654 -608 0
736 142 513 0
-459 -442 420 0
26 -63 -20 0
-227 144 -440 0
917 -739 464 0
551 861 -956 0
-153 -401 65 0
-798 727 721 0
-465 -464 406 0
285 232 290 0
-517 513 546 0
272 -573 964 0
987 974 -913 0
969 910 -925 0
-498 -459 -487 0
-379 445 760 0
-982 -996 -961 0
897 610 -534 0
295 230 -213 0
319 -369 315 0
613 797 921 0
557 598 589 0
-95 14 47 0
-971 510 -622 0
-193 -156 -113 0
-865 59 -240 0
-437 -461 470 0
683 -645 601 0
162 700 -467 0
-374 327 -356 0
-526 516 -514 0
24 -100 4 0
-764 759 739 0
-83 23 84 0
82 -744 542 0
-129 -652 501 0
313 -980 703 0
725 763 752 0
538 548 596 0
-711 -767 -743 0
646 -640 -662 0
337 -407 666 0
-755 893 33 0
-978 996 939 0
938 988 998 0
-24 78 -31 0
370 504 938 0
-938 508 -219 0
929 -921 970 0
48 381 -453 0
-128 -157 -154 0
-179 118 181 0
593 -821 -240 0
174 192 172 0
-55 401 -604 0
435 410 -433 0
293 18 335 0
243 -229 218 0
-18 58 -94 0
-895 128 -476 0
332 385 -324 0
783 -534 -15 0
709 789 -775 0
-854 305 -262 0
-588 591 505 0
70 -47 -26 0
105 -183 178 0
425 -220 112 0
687 674 -690 0
646 633 623 0
114 127 -187 0
685 631 641 0
-439 237 175 0
686 -628 655 0
-44 -79 42 0
164 -147 167 0
-420 -487 -469 0
667 -637 -602 0
-992 -978 934 0
-520 586 -540 0
535 -587 -516 0
-369 340 -360 0
-945 907 968 0
846 -831 -845 0
-301 -690 -97 0
34 -77 -4 0
-239 -155 507 0
-641 -659 663 0
723 -610 -452 0
260 212 -285 0
993 302 117 0
-359 -348 -302 0
-331 -347 -341 0
-418 -472 452 0
255 214 217 0
-401 -462 436 0
-428 427 492 0
944 -166 -895 0
893 819 -837 0
600 794 993 0
-617 668 621 0
-295 -231 -219 0
161 139 113 0
459 -429 405 0
-697 639 -635 0
-814 864 872 0
-979 927 999 0
-92 -45 -61 0
285 -222 -221 0
433 657 -504 0
473 956 -509 0
-340 -939 425 0
195 -3 -267 0
-504 421 250 0
-671 395 -763 0
-923 -940 -963 0
-555 -553 -590 0
-510 -558 -580 0
-542 -741 147 0
-195 -452 913 0
508 -591 541 0
555 -564 512 0
-487 -444 466 0
-423 973 318 0
931 956 906 0
-258 -233 -244 0
-190 543 421 0
-379 309 -341 0
-389 -349 356 0
-228 281 -237 0
144 105 -132 0
-316 341 -388 0
669 427 752 0
531 985 455 0
918 -953 -968 0
-85 722 145 0
-460 423 -475 0
881 -865 -817 0
-727 57 347 0
77 3 -29 0
-179 -122 139 0
-761 736 792 0
-414 -421 464 0
-228 282 -260 0
275 -273 281 0
-492 -498 489 0
10 2 4 0
214 261 -228 0
-674 -618 680 0
64 143 -562 0
-738 -572 660 0
222 84 873 0
-586 582 -555 0
868 941 751 0
394 -396 392 0
260 300 -256 0
807 742 -84 0
-245 17 557 0
515 504 -563 0
347 -644 2 0
735 31 847 0
-66 -284 558 0
8 138 -591 0
95 453 -839 0
-540 550 575 0
709 -782 -704 0
-308 358 -381 0
560 594 569 0
7 -45 74 0
-2 -41 53 0
-348 383 374 0
995 -145 682 0
-369 -121 690 0
-490 -496 -471 0
-371 -317 -335 0
-791 -902 -195 0
229 -243 -287 0
-540 578 -538 0
810 877 888 0
-783 759 733 0
904 -8 133 0
-934 -972 978 0
172 -164 176 0
-554 -584 -543 0
-582 -189 -873 0
273 914 77 0
532 377 -159 0
882 825 -804 0
909 964 974 0
-842 486 974 0
-774 706 731 0
163 -184 -135 0
-412 -455 476 0
600 -595 516 0
340 -949 417 0
543 915 672 0
-289 340 683 0
289 -230 294 0
-889 892 -859 0
-10 -263 -926 0
942 734 833 0
638 653 627 0
-423 -63 925 0
254 460 -912 0
-973 -930 -947 0
866 828 822 0
988 938 -997 0
396 557 -650 0
-100 53 -46 0
-573 426 328 0
295 234 -238 0
489 434 495 0
87 -89 8 0
-664 614 646 0
-298 293 -205 0
760 -727 775 0
199 182 -165 0
372 377 -338 0
243 979 116 0
130 -125 189 0
382 -399 381 0
-707 705 -745 0
379 -355 -392 0
720 723 795 0
-146 -165 -120 0
-402 236 97 0
596 -683 269 0
-472 470 432 0
326 -804 408 0
24 -39 14 0
357 592 -885 0
648 223 -164 0
685 603 613 0
167 607 585 0
-948 -478 88 0
-324 808 -438 0
-894 408 99 0
10 -783 -340 0
-658 -645 694 0
-471 -478 485 0
715 50 162 0
314 -339 394 0
839 -377 -131 0
-743 -933 -667 0
496 423 -463 0
247 -218 -233 0
405 -711 -284 0
-542 -640 -384 0
-675 -638 631 0
-569 566 -551 0
705 -726 -722 0
-236 279 257 0
-949 -529 -449 0
361 -376 391 0
-814 -455 -670 0
933 608 -804 0
512 513 527 0
-982 -191 -773 0
-763 -792 -776 0
-555 529 -503 0
314 374 -393 0
66 -759 530 0
159 126 165 0
-855 -841 852 0
-443 -500 470 0
-581 -872 -458 0
-515 473 352 0
-144 139 -161 0
310 -720 -678 0
-673 686 696 0
-18 520 -377 0
-363 -400 -346 0
700 -609 -615 0
880 911 636 0
-632 926 741 0
-555 392 -631 0
-582 -526 571 0
631 677 688 0
-537 -653 490 0
139 108 190 0
-425 442 483 0
-339 599 -189 0
818 892 -885 0
-230 -231 219 0
-843 -35 786 0
552 -406 622 0
-82 -685 -587 0
481 -308 588 0
-7 -69 61 0
556 515 553 0
-917 -944 942 0
674 -598 -240 0
-178 517 474 0
-864 875 899 0
370 518 189 0
-461 301 228 0
-494 12 670 0
599 598 552 0
-574 -491 -945 0
162 -426 -542 0
754 -746 -705 0
958 -909 -946 0
-924 698 896 0
-385 -324 307 0
321 942 725 0
-602 -668 -632 0
910 280 -636 0
734 -768 733 0
258 552 -832 0
131 -144 173 0
-759 708 777 0
-527 576 584 0
-519 -527 -513 0
-546 586 560 0
111 -138 183 0
-914 -973 955 0
887 341 -537 0
-813 887 -806 0
-785 -732 -761 0
-847 842 -809 0
109 -726 -417 0
-259 534 619 0
695 -30 -280 0
394 291 953 0
-704 703 731 0
127 571 -664 0
-97 24 -27 0
990 -908 -954 0
896 330 273 0
286 -971 304 0
-748 -136 479 0
302 -307 -369 0
-702 601 -298 0
265 652 -450 0
-498 -464 427 0
304 -201 617 0
796 736 718 0
-719 714 -787 0
587 -467 -936 0
540 167 832 0
81 -45 -62 0
-349 30 -206 0
771 -724 -800 0
-996 635 745 0
-996 -907 -989 0
871 179 488 0
-140 -778 68 0
638 -652 629 0
-245 -203 -209 0
-697 -680 695 0
8 45 -2 0
-480 -469 434 0
-844 -862 -898 0
126 101 145 0
600 -766 -980 0
320 184 -300 0
-417 354 -64 0
160 105 171 0
597 -523 591 0
48 -52 -20 0
-218 -278 -294 0
829 814 -813 0
696 -682 -700 0
128 344 -992 0
967 964 -942 0
-75 -427 728 0
-289 -252 -201 0
-612 -599 -1000 0
-273 -292 -250 0
-401 238 701 0
774 -423 -876 0
-700 570 -97 0
-860 868 820 0
-192 176 -191 0
63 555 -819 0
215 -202 228 0
-805 -836 896 0
665 685 -603 0
528 163 -297 0
508 -514 523 0
781 631 -510 0
-898 -862 815 0
-951 -971 -974 0
-559 582 547 0
-810 812 864 0
829 889 896 0
-491 -437 -496 0
20 -586 345 0
-719 708 -733 0
832 -892 849 0
-213 259 273 0
-610 -786 210 0
715 -714 743 0
10 758 414 0
503 118 984 0
-576 656 336 0
246 250 -300 0
-442 446 -465 0
-175 -138 166 0
-505 -821 363 0
-694 763 524 0
761 793 -743 0
-141 418 951 0
-416 487 482 0
-194 -526 -694 0
-239 -245 -296 0
-218 726 -691 0
979 193 505 0
-794 -23 -453 0
-751 -902 536 0
-974 941 -957 0
-720 571 -42 0
-821 -854 813 0
277 176 811 0
-456 447 -459 0
234 -916 -523 0
-355 -382 -364 0
-472 420 500 0
-649 423 815 0
-259 -281 -240 0
-50 149 -983 0
-245 -210 -277 0
-596 224 -833 0
-710 -237 -148 0
-780 785 704 0
553 523 566 0
-801 -764 61 0
185 126 -187 0
-910 -996 932 0
-669 -681 -651 0
187 171 185 0
310 697 -706 0
-621 -601 626 0
-492 161 912 0
245 -296 213 0
780 740 -784 0
-330 -758 435 0
451 -611 903 0
-356 -207 -440 0
-424 -848 397 0
256 739 633 0
459 -481 -475 0
-527 -574 599 0
-773 382 -849 0
-552 440 -942 0
-150 -932 618 0
150 -101 162 0
888 883 819 0
-748 566 982 0
-929 -145 -587 0
-623 693 680 0
835 126 49 0
867 879 -896 0
361 -789 186 0
-191 183 -137 0
485 404 -467 0
-585 537 -555 0
155 -193 122 0
-18 6 -66 0
679 -665 622 0
864 863 897 0
-644 44 592 0
993 853 -396 0
319 -332 331 0
967 914 -924 0
380 196 645 0
-400 356 -387 0
718 -742 791 0
-386 -325 -320 0
702 792 -767 0
442 408 -499 0
7 -5 -51 0
998 259 -806 0
886 744 -355 0
-57 -33 69 0
-811 884 839 0
-445 -492 453 0
-779 -342 -199 0
919 824 423 0
-864 -813 -887 0
-363 388 396 0
683 -692 623 0
322 -334 -398 0
353 -90 213 0
-837 811 823 0
387 305 373 0
661 615 -664 0
-623 -751 -831 0
-905 -971 -991 0
-232 -242 264 0
-948 -301 -600 0
-918 932 987 0
-783 -741 -779 0
-261 -264 295 0
-685 -646 -661 0
969 -398 -125 0
-649 586 752 0
-853 -11 793 0
-979 935 -925 0
-214 385 -616 0
884 319 -501 0
-471 455 -473 0
536 -995 425 0
-116 -173 187 0
771 -750 -779 0
549 -587 567 0
237 96 194 0
-679 610 691 0
327 583 -609 0
-698 684 619 0
-484 477 493 0
266 44 -502 0
796 757 768 0
734 760 715 0
697 630 -700 0
-655 -489 -367 0
-50 -25 -64 0
902 696 -763 0
-397 879 -772 0
-416 -733 -575 0
-581 -591 -534 0
-238 401 -881 0
-892 107 -202 0
332 -372 322 0
169 115 176 0
544 -575 558 0
880 -270 364 0
-762 -367 237 0
-951 661 -244 0
165 164 -127 0
-870 886 -837 0
-353 -890 177 0
-921 79 897 0
952 -293 410 0
-574 564 575 0
-130 -394 -943 0
-648 692 -684 0
-44 23 74 0
323 -352 -328 0
-538 -574 592 0
866 847 -830 0
-512 -555 511 0
-258 204 -296 0
-391 -395 -328 0
-242 -238 -216 0
-12 10 36 0
224 -220 -219 0
987 -917 -986 0
51 6 85 0
690 -689 623 0
503 83 356 0
-292 220 217 0
887 -872 -871 0
-908 -969 -921 0
-503 446 -796 0
-251 212 225 0
-408 -452 -480 0
-461 -190 754 0
172 647 548 0
-252 288 -275 0
451 -412 438 0
-836 260 -547 0
-14 95 53 0
806 387 -492 0
-764 757 -755 0
579 -154 -958 0
-394 -403 -880 0
-731 562 110 0
-477 489 -471 0
929 925 921 0
227 207 265 0
-65 -295 461 0
-976 791 851 0
-24 -3 -77 0
412 493 453 0
-350 390 392 0
403 470 -469 0
315 -368 -317 0
-678 788 -150 0
-328 -518 -620 0
-485 434 -495 0
101 130 111 0
665 -370 -543 0
272 -290 284 0
-287 258 -279 0
-650 698 -632 0
178 113 -173 0
235 -246 231 0
-87 96 -2 0
638 519 304 0
688 22 220 0
-751 748 772 0
-414 410 422 0
-903 -983 -935 0
484 -492 -418 0
-121 163 119 0
441 -420 -456 0
-937 -487 -237 0
198 135 -148 0
-844 148 359 0
-437 -942 -867 0
759 -741 -783 0
250 -232 -271 0
-18 370 839 0
-720 -731 -753 0
892 -884 820 0
213 210 -294 0
-786 775 -737 0
321 -391 -359 0
547 887 -917 0
-859 -790 -285 0
-830 -863 -866 0
-855 -887 812 0
806 170 628 0
696 607 -615 0
456 195 -255 0
605 -622 -631 0
-19 -77 -28 0
221 -714 73 0
-624 895 -389 0
-793 419 -108 0
-718 287 -899 0
-278 270 -217 0
-237 203 245 0
-842 -419 72 0
-800 567 444 0
308 -395 323 0
-411 -456 475 0
312 305 314 0
-930 -126 -443 0
-750 -749 744 0
-488 -437 420 0
242 241 -228 0
-702 737 -772 0
35 78 -41 0
-65 16 -86 0
746 -708 768 0
-997 -101 -775 0
-415 410 499 0
-35 -85 27 0
904 -967 -953 0
220 202 241 0
700 655 -688 0
867 807 -889 0
735 759 -747 0
-210 -267 209 0
-411 -733 -156 0
-157 185 191 0
395 534 -461 0
-309 564 989 0
-545 -785 -904 0
-583 -611 -712 0
754 799 783 0
-277 -232 205 0
710 -719 -766 0
-858 861 -856 0
633 -220 443 0
405 -403 -446 0
-844 835 807 0
91 92 -48 0
-265 227 221 0
-644 -821 471 0
113 119 146 0
343 -369 382 0
417 730 217 0
618 671 -693 0
19 -30 -13 0
83 247 -171 0
-283 377 -8 0
314 -222 -866 0
-685 42 545 0
-635 -631 -670 0
892 849 -891 0
-826 -863 878 0
-810 819 824 0
-145 127 167 0
693 -647 -629 0
-477 668 -292 0
-961 -787 -438 0
809 814 810 0
973 -623 851 0
-201 -861 594 0
-343 -98 929 0
341 343 363 0
-271 -244 252 0
388 -321 -326 0
-296 217 261 0
-738 277 657 0
6 -97 -75 0
-717 -741 720 0
-326 -569 -150 0
593 -128 932 0
-604 612 -634 0
773 303 -277 0
911 -455 -206 0
-583 546 517 0
-28 3 36 0
390 -52 542 0
95 23 -43 0
-45 88 -95 0
801 897 876 0
863 164 -213 0
-872 -899 891 0
983 358 463 0
-351 380 393 0
989 976 948 0
633 681 613 0
-511 -568 596 0
-566 -494 -611 0
520 -594 561 0
-540 -566 -596 0
-320 851 105 0
-614 997 448 0
-24 356 -759 0
549 -500 -303 0
771 -291 -842 0
-46 -74 -87 0
-952 -943 -967 0
-249 168 305 0
-291 860 -669 0
-693 626 -677 0
-619 628 -665 0
670 -206 -481 0
-930 311 -782 0
242 -299 -295 0
864 127 988 0
558 -526 562 0
124 167 -162 0
897 -811 843 0
-153 -107 177 0
953 446 306 0
-832 -899 859 0
-684 690 -609 0
328 -389 -394 0
-656 -668 663 0
-269 276 282 0
-185 -173 -147 0
-534 665 -302 0
828 -357 282 0
-127 -614 909 0
-484 -432 407 0
710 866 390 0
-893 455 -579 0
149 641 786 0
964 918 958 0
-341 397 310 0
440 -460 426 0
160 155 -156 0
-845 143 564 0
-42 353 125 0
-902 887 323 0
-62 42 -76 0
287 273 -298 0
-53 -822 743 0
504 589 530 0
892 819 813 0
417 -583 866 0
-938 909 -903 0
813 -828 -872 0
918 963 926 0
254 205 -284 0
628 676 -651 0
251 -219 218 0
618 556 5 0
890 -867 896 0
102 -145 197 0
-968 -922 -907 0
-309 378 -375 0
-443 408 433 0
325 318 -399 0
-377 318 332 0
975 926 966 0
245 290 -204 0
-479 464 -462 0
-256 -247 -250 0
845 -864 816 0
-161 -896 -31 0
-293 747 410 0
-89 -59 44 0
251 244 -202 0
-147 105 -157 0
509 649 -413 0
592 430 -239 0
-636 165 -86 0
-529 542 557 0
962 -978 933 0
549 517 515 0
645 -942 741 0
134 38 270 0
-441 -820 -757 0
-889 863 -814 0
829 999 782 0
-880 -657 358 0
523 663 233 0
504 549 509 0
-871 -817 878 0
677 -726 872 0
-678 652 648 0
-860 -832 -836 0
346 905 781 0
384 382 -336 0
989 1000 939 0
616 -650 675 0
-926 979 -966 0
949 -921 -983 0
12 -100 27 0
-240 227 226 0
-885 -816 -878 0
-696 -580 822 0
601 644 643 0
215 225 -247 0
598 564 580 0
406 -467 -482 0
-396 -919 768 0
-7 -990 165 0
-57 16 -55 0
-115 222 345 0
-612 -603 663 0
-376 -344 -399 0
-394 396 -353 0
455 -324 -888 0
94 -22 -73 0
746 -742 -709 0
-471 -367 -561 0
763 -854 934 0
-727 759 -763 0
584 -532 -540 0
589 -545 501 0
-420 210 609 0
27 8 81 0
-998 394 19 0
791 4 345 0
-933 944 960 0
984 1000 -920 0
810 816 -835 0
-543 538 581 0
-681 374 -147 0
-636 -275 14 0
813 831 840 0
400 393 391 0
863 -532 692 0
-573 -589 524 0
705 -641 531 0
-43 -83 73 0
-749 158 880 0
577 -552 501 0
-357 -509 715 0
432 430 -468 0
-200 156 116 0
-153 273 553 0
-839 -968 157 0
-424 414 490 0
-921 969 959 0
-959 990 -965 0
89 -77 -75 0
920 -718 -133 0
-690 -615 642 0
19 446 -627 0
-461 488 415 0
-196 124 193 0
-854 808 -825 0
409 -434 -462 0
955 -915 -980 0
-37 510 -811 0
372 -136 -720 0
525 -501 593 0
670 -610 -631 0
-45 -497 -243 0
-731 712 710 0
-622 687 658 0
583 -405 338 0
7 -92 -42 0
255 225 279 0
-76 93 23 0
282 -320 -105 0
965 -973 934 0
-439 -448 490 0
-581 565 595 0
-819 814 -817 0
-63 883 147 0
-331 747 -267 0
29 62 71 0
27 370 475 0
243 -237 -223 0
-996 635 -549 0
632 612 -655 0
-183 200 114 0
-54 -43 86 0
855 -885 -866 0
-754 -712 -730 0
-15 2 35 0
623 647 -678 0
-232 -34 173 0
-815 -819 -849 0
586 553 515 0
-826 -894 813 0
15 -12 76 0
-363 106 -930 0
-815 898 -823 0
-500 -218 391 0
155 162 -110 0
-487 460 -489 0
421 436 -408 0
775 454 77 0
-720 -34 688 0
591 573 530 0
-330 -327 373 0
-687 -258 535 0
800 730 -782 0
594 951 -772 0
-913 829 176 0
920 392 -725 0
112 -125 -109 0
-311 200 446 0
226 -536 -70 0
950 -924 -997 0
-667 608 648 0
205 211 296 0
65 572 396 0
-643 608 -612 0
-299 287 -281 0
556 599 594 0
485 35 -537 0
-407 437 -448 0
776 490 594 0
-426 -438 -441 0
928 -914 -938 0
-754 -721 -728 0
-737 429 626 0
848 885 823 0
100 118 -804 0
714 728 -785 0
457 429 470 0
501 587 522 0
451 -492 -500 0
-185 -101 -125 0
-203 296 -230 0
-376 -903 -128 0
-38 750 -400 0
-574 -510 560 0
951 962 -940 0
-704 -729 -753 0
-761 -599 604 0
888 -845 828 0
477 -500 446 0
503 446 253 0
479 -421 -441 0
478 -497 412 0
841 97 572 0
606 644 649 0
626 657 690 0
-142 -191 139 0
231 -287 -208 0
713 740 -760 0
-500 -417 486 0
594 149 -339 0
718 704 731 0
103 122 -172 0
931 -912 -957 0
-65 -868 -532 0
649 -694 -648 0
689 -785 121 0
580 586 -518 0
740 -215 -969 0
-656 -781 336 0
-943 19 -341 0
745 -647 137 0
811 586 -631 0
969 884 -674 0
820 882 -899 0
-618 -605 -623 0
341 -328 378 0
-340 -338 362 0
930 -666 788 0
572 -521 586 0
156 -744 -10 0
-786 746 -758 0
349 380 315 0
22 37 39 0
556 -598 -513 0
-885 -827 -811 0
-503 -584 -589 0
558 501 594 0
-417 415 -444 0
-188 675 314 0
6 849 -194 0
348 369 -334 0
-691 -611 610 0
-470 760 -376 0
272 -463 538 0
-414 30 379 0
-813 -823 -815 0
411 553 -388 0
-174 -429 722 0
-984 -938 992 0
-824 -718 -332 0
734 503 -96 0
-506 -561 505 0
-319 328 349 0
849 851 -833 0
-153 -196 -130 0
-199 141 160 0
-670 651 -639 0
856 -823 -871 0
139 594 -30 0
-176 -27 355 0
-909 422 261 0
151 147 -182 0
32 -349 -849 0
387 -63 933 0
-708 796 -743 0
405 621 529 0
179 -180 -126 0
181 -155 -184 0
567 -210 -800 0
-887 858 874 0
-18 -28 68 0
-991 -575 639 0
90 49 18 0
-973 -930 904 0
546 443 99 0
-533 959 -271 0
718 -713 800 0
-292 768 424 0
700 -557 746 0
891 -807 867 0
-207 556 -770 0
-288 229 -213 0
-22 -199 660 0
607 -688 -646 0
-223 -169 50 0
201 -451 789 0
479 -559 -223 0
606 -913 -525 0
710 884 -433 0
-227 206 -270 0
-722 -886 389 0
543 59 -122 0
-621 882 -240 0
602 665 631 0
-658 -665 -637 0
-347 332 -346 0
998 -980 983 0
-141 132 -122 0
86 -10 92 0
7 769 638 0
755 761 -714 0
-645 675 643 0
-122 -199 -131 0
80 124 753 0
530 583 -553 0
873 -846 -861 0
174 -163 129 0
904 974 -976 0
441 516 671 0
487 309 -242 0
-350 309 386 0
136 198 195 0
-600 -884 8 0
64 -87 77 0
510 -210 788 0
-901 953 939 0
848 -954 -171 0
-30 -115 513 0
-776 766 704 0
-26 -41 -21 0
724 -717 781 0
466 892 -573 0
-197 101 -193 0
10 -987 594 0
-155 137 119 0
-806 826 -832 0
-559 580 -524 0
-415 -408 -429 0
-473 410 -497 0
558 522 -569 0
275 -269 -282 0
-812 -504 -271 0
-807 -887 846 0
226 222 219 0
-107 725 355 0
670 -601 -677 0
-205 -241 270 0
-346 204 998 0
-874 285 -706 0
-573 556 574 0
32 952 534 0
390 -374 -393 0
-818 -898 826 0
448 46 893 0
-733 -927 -586 0
-317 335 302 0
716 455 272 0
944 -959 -940 0
-791 -828 -172 0
256 -246 -240 0
8 -74 -97 0
-355 335 338 0
809 887 -820 0
611 667 616 0
-628 692 -654 0
9 -6 -48 0
808 -871 -838 0
-543 317 243 0
-263 -254 -300 0
967 -974 -946 0
679 -59 -502 0
820 717 -533 0
187 -119 128 0
-231 244 -226 0
-794 694 209 0
-888 -855 842 0
-440 -453 482 0
-15 88 32 0
531 -942 125 0
-485 250 167 0
-556 -533 -501 0
915 -699 -799 0
-486 -467 -417 0
771 875 -281 0
637 618 604 0
-449 -432 -492 0
-400 980 -156 0
743 766 -715 0
-209 -238 -233 0
-907 966 -904 0
-121 -129 139 0
-870 900 813 0
906 957 -919 0
714 516 358 0
464 948 -672 0
-201 -464 848 0
447 -493 442 0
-898 -856 -812 0
468 634 987 0
-776 748 -701 0
-196 809 -549 0
555 -74 -789 0
-338 400 -335 0
-353 374 322 0
988 -210 427 0
-229 405 -758 0
-239 290 267 0
-757 -873 -611 0
614 -595 -346 0
-310 -654 -120 0
253 152 -744 0
62 -378 710 0
-545 -507 -519 0
358 -325 363 0
925 325 198 0
-575 540 589 0
-770 -724 -761 0
-491 -478 -409 0
-371 624 -540 0
612 -638 -678 0
327 323 -399 0
222 -909 -347 0
883 -824 -806 0
131 110 -138 0
-161 138 116 0
-853 889 884 0
468 -621 507 0
-115 -137 -175 0
151 -200 114 0
-128 -254 23 0
-873 -170 248 0
-504 326 -764 0
846 25 -254 0
-642 -879 737 0
-201 268 -234 0
-182 -491 218 0
-544 -554 591 0
525 559 -561 0
589 549 -574 0
188 -357 -235 0
-180 -639 533 0
-526 -742 463 0
963 280 531 0
-9 443 129 0
-380 -361 -332 0
-157 -807 240 0
902 -985 951 0
508 538 -596 0
-639 -776 -467 0
-2 50 -3 0
547 -507 -574 0
532 -598 -550 0
826 -553 141 0
-979 960 -968 0
-995 -921 -968 0
-417 492 -460 0
-769 -646 -234 0
571 584 -522 0
436 -475 455 0
341 982 -563 0
531 -568 567 0
-685 -631 -605 0
-2 55 53 0
-500 -661 -158 0
-604 -620 676 0
989 765 -345 0
190 -165 -116 0
-74 590 -175 0
463 448 -466 0
-692 641 -660 0
626 -25 -463 0
23 21 -10 0
724 155 884 0
856 697 -65 0
958 -972 -903 0
-358 944 840 0
561 592 504 0
214 -271 -227 0
508 -506 566 0
62 67 -73 0
396 356 349 0
499 -439 481 0
-946 -998 911 0
720 -262 -412 0
69 -21 70 0
-335 -559 -248 0
829 879 857 0
-805 -492 -597 0
-809 44 -983 0
-351 387 -334 0
21 -84 -55 0
-397 390 -312 0
-641 967 542 0
-447 425 -446 0
499 5 256 0
-987 -906 910 0
-161 -31 -668 0
849 -873 -869 0
404 430 -413 0
-683 612 668 0
-72 -43 48 0
54 -416 115 0
797 -778 -715 0
840 845 -894 0
775 770 776 0
487 -469 -492 0
186 196 104 0
-916 491 -829 0
-659 -610 611 0
-55 -82 -6 0
509 631 716 0
159 -460 -923 0
179 -990 -475 0
685 -682 639 0
-394 306 -339 0
318 377 -322 0
-151 122 108 0
956 -779 496 0
637 -676 681 0
248 349 -491 0
556 -572 -577 0
423 801 -556 0
463 -420 492 0
728 -739 -708 0
-22 96 88 0
330 360 391 0
-462 413 469 0
145 -150 -192 0
-62 731 377 0
-750 418 74 0
495 -440 -434 0
-989 -271 125 0
-115 -755 -397 0
425 421 495 0
46 393 764 0
149 146 114 0
-556 552 506 0
-544 -773 168 0
-45 -415 -681 0
-633 -568 458 0
107 170 -165 0
492 -102 -603 0
422 799 -225 0
-417 8 221 0
159 429 367 0
-885 -255 -67 0
714 70 662 0
-886 802 -805 0
-574 -566 -557 0
-661 -633 677 0
976 -188 352 0
625 -661 -660 0
-348 571 -69 0
-552 -52 449 0
-248 -222 284 0
-659 621 610 0
-779 380 500 0
215 931 358 0
-549 574 520 0
222 973 -579 0
-803 -543 -722 0
-201 -228 249 0
772 -760 -768 0
-843 454 933 0
-228 -238 225 0
216 -781 -134 0
-83 -12 50 0
269 -235 -292 0
-586 557 -548 0
827 -891 -834 0
488 -434 -402 0
-518 249 664 0
-36 750 847 0
-238 -983 -514 0
-560 839 -185 0
922 928 917 0
558 -907 -847 0
-894 -868 -801 0
-631 -700 646 0
413 154 554 0
-694 289 960 0
880 879 -827 0
-391 488 -166 0
-981 658 528 0
-981 901 -918 0
339 344 314 0
434 478 444 0
-510 686 -844 0
412 -457 -441 0
420 492 -436 0
-218 -544 993 0
372 -701 -677 0
880 -461 -501 0
665 649 -607 0
-426 -500 -450 0
307 326 313 0
896 -876 812 0
740 746 -714 0
726 755 -717 0
-865 851 -827 0
605 -874 39 0
841 -849 834 0
545 -503 555 0
952 949 -902 0
-457 498 -467 0
-117 106 -193 0
-525 -550 -509 0
-147 156 -180 0
-107 -176 -146 0
60 599 393 0
-634 903 120 0
623 -466 -334 0
-633 693 -628 0
598 102 78 0
-77 -53 46 0
-397 -368 369 0
285 283 -266 0
-801 247 777 0
-162 -107 114 0
-21 120 824 0
317 367 374 0
431 -408 -419 0
-479 969 -334 0
401 -458 -408 0
520 -562 -587 0
-287 -178 977 0
-211 242 202 0
478 453 -488 0
-174 241 -776 0
-281 -143 409 0
-295 272 281 0
-391 348 367 0
344 -377 -342 0
-966 934 -967 0
-394 375 -336 0
773 -121 -63 0
-673 -399 -447 0
460 99 -266 0
784 743 -766 0
-703 152 78 0
150 139 186 0
-419 482 429 0
-48 85 -51 0
-353 100 925 0
428 851 -317 0
735 -751 730 0
555 -577 -507 0
512 -619 -429 0
6 986 445 0
395 388 344 0
122 340 746 0
514 -584 529 0
-384 354 -334 0
-229 -300 261 0
-874 820 858 0
-379 -363 397 0
-554 546 587 0
359 -181 449 0
-510 -177 -736 0
-661 632 -662 0
-830 -825 820 0
-88 -277 577 0
42 22 -61 0
504 789 -219 0
-807 803 -880 0
321 302 310 0
482 488 -408 0
-384 385 -344 0
-556 518 -502 0
57 23 31 0
190 -150 -103 0
-423 -410 445 0
626 -696 -694 0
809 -869 853 0
610 -660 615 0
-675 619 -669 0
-592 546 567 0
401 421 416 0
482 167 207 0
527 -502 -580 0
-37 916 -392 0
-109 101 -118 0
668 391 -772 0
231 553 484 0
-847 680 -343 0
782 576 -426 0
24 -74 -78 0
-301 344 -328 0
-761 816 81 0
429 519 -351 0
328 320 -310 0
-912 928 995 0
-858 893 -862 0
92 48 41 0
-267 108 48 0
552 -280 -393 0
514 -524 563 0
-581 -566 508 0
402 891 741 0
-141 -183 -119 0
388 480 -557 0
-269 254 238 0
646 659 649 0
595 517 516 0
707 -773 -733 0
405 603 895 0
-974 918 -909 0
530 -181 839 0
472 -357 80 0
45 -331 687 0
-281 -258 274 0
-482 456 -412 0
92 -25 -23 0
-417 486 -480 0
688 -658 -634 0
132 -112 104 0
288 251 222 0
613 -860 442 0
-166 -178 133 0
518 504 577 0
-34 59 10 0
-21 -10 61 0
811 807 -810 0
456 -480 466 0
369 314 -363 0
-561 -519 -589 0
403 -40 -129 0
-290 205 -297 0
-583 -409 955 0
-651 -699 -695 0
326 719 142 0
215 -410 176 0
381 279 -494 0
-748 -728 -714 0
-892 -908 466 0
540 -780 916 0
271 -35 -431 0
-11 73 -74 0
177 274 -483 0
773 -563 375 0
391 -315 -388 0
-162 704 -687 0
-688 136 58 0
898 918 -248 0
72 67 86 0
-976 949 1000 0
909 906 -993 0
369 -389 -355 0
742 778 -744 0
-996 -999 987 0
370 -682 -548 0
849 881 808 0
-856 -241 -41 0
-64 456 -808 0
610 342 776 0
575 -560 536 0
-944 -951 981 0
-481 416 -415 0
627 -694 684 0
-839 -824 872 0
863 957 385 0
-54 -336 -468 0
-576 -530 -548 0
-522 -266 -802 0
-698 289 -335 0
249 235 279 0
574 562 571 0
907 576 -699 0
766 823 -465 0
-431 -489 -403 0
997 -965 954 0
-319 -349 -315 0
-896 -866 837 0
-112 -102 -125 0
252 276 245 0
608 813 -714 0
-983 103 536 0
-245 -209 233 0
-144 154 109 0
-548 -930 425 0
-404 720 -265 0
-367 327 303 0
255 -1000 853 0
261 -203 281 0
384 -982 -570 0
-560 -523 -531 0
-857 99 387 0
-86 38 -75 0
-924 941 -950 0
18 -397 -254 0
863 29 -251 0
159 -134 150 0
533 423 153 0
-302 338 384 0
-156 192 200 0
-38 -41 -29 0
490 -820 -110 0
1000 -612 -579 0
-942 -906 -957 0
960 -933 923 0
-281 851 -540 0
181 -160 164 0
-100 -35 -37 0
767 -703 769 0
37 -568 114 0
-266 -297 250 0
841 -838 -900 0
815 -876 -830 0
160 -784 -419 0
-279 205 -278 0
141 -710 -500 0
49 87 51 0
-700 -116 -67 0
420 253 -200 0
356 -391 -353 0
939 -726 11 0
-485 -111 -3 0
-721 749 714 0
933 908 971 0
27 89 95 0
734 764 -729 0
191 112 106 0
-599 762 -824 0
-272 242 -237 0
396 -314 372 0
160 -181 -167 0
338 923 -658 0
-735 -49 -635 0
414 -431 -448 0
843 881 -815 0
-132 -966 -49 0
-725 -636 950 0
336 338 310 0
-123 -114 161 0
404 410 -499 0
2 11 23 0
-671 -683 676 0
8 -494 -351 0
940 -913 -901 0
-861 -844 -863 0
-213 227 265 0
-714 609 -833 0
-812 313 431 0
-335 -124 -205 0
318 -344 368 0
-780 -760 -712 0
-698 -644 662 0
-834 -186 -668 0
-534 541 -527 0
-503 595 -576 0
-172 176 -144 0
403 232 148 0
946 561 -403 0
-570 -599 -547 0
-774 703 -782 0
945 924 -985 0
443 -198 -608 0
250 217 230 0
-683 153 -910 0
-3 -931 -506 0
582 -549 -516 0
162 -152 135 0
-41 353 907 0
518 503 588 0
441 429 -440 0
-98 59 -86 0
-953 -954 951 0
-685 677 -667 0
-952 -885 -221 0
-181 510 667 0
961 972 999 0
882 681 380 0
782 559 -370 0
524 -529 556 0
-938 621 748 0
61 99 32 0
-549 -596 543 0
-277 -259 261 0
358 -321 -393 0
883 -870 -845 0
-192 383 28 0
326 -383 -361 0
-903 932 -931 0
281 276 -250 0
702 -252 -25 0
-443 912 813 0
-638 -620 649 0
-133 -334 629 0
-304 379 -367 0
-47 25 64 0
984 857 429 0
858 538 333 0
836 -888 -871 0
-771 978 -453 0
751 771 -701 0
-939 -961 905 0
-100 67 -7 0
347 -534 703 0
-555 209 -24 0
-69 -21 64 0
389 -360 364 0
-611 -642 668 0
-995 70 299 0
185 187 -195 0
-103 -160 -125 0
98 79 -71 0
-683 -634 620 0
512 -69 277 0
-775 -737 762 0
-216 -710 507 0
-687 -690 -655 0
-174 144 197 0
393 305 -359 0
-579 593 -573 0
661 -630 -678 0
625 -651 -698 0
436 -681 931 0
574 -543 -598 0
654 677 603 0
-524 -414 205 0
-290 942 -697 0
718 771 701 0
-606 -621 611 0
-898 -809 816 0
974 -46 612 0
154 -118 -194 0
-894 -655 -786 0
485 -432 412 0
-367 396 -391 0
43 9 33 0
105 -729 -24 0
863 -843 -884 0
917 882 -234 0
553 569 518 0
1000 721 142 0
213 148 682 0
978 456 638 0
145 846 -437 0
-323 707 408 0
-749 -725 760 0
-172 -120 -113 0
-89 14 -58 0
21 -893 -713 0
-178 130 -149 0
-156 -181 178 0
-103 -194 -154 0
625 650 -692 0
-835 407 -322 0
699 -543 -222 0
-726 -755 -749 0
-34 -935 694 0
-815 334 -249 0
-755 753 721 0
-787 778 -717 0
129 -522 849 0
-364 -933 -648 0
561 -241 -919 0
740 39 210 0
-861 875 819 0
-767 -772 761 0
-295 607 -36 0
827 -883 -891 0
-263 -922 -607 0
396 541 -90 0
770 807 -566 0
-263 380 773 0
635 -695 -643 0
801 -849 804 0
99 -7 -60 0
-594 975 111 0
127 -165 145 0
-925 -936 -985 0
170 -51 -496 0
314 341 305 0
171 881 -611 0
-63 -37 17 0
-57 -268 946 0
929 -904 911 0
-21 -489 335 0
-607 13 239 0
658 -408 598 0
518 -513 -525 0
-271 -930 849 0
-469 -495 -479 0
-329 387 -380 0
-429 420 -452 0
611 -644 696 0
-19 -800 -181 0
-106 709 875 0
-48 17 -87 0
-963 960 -929 0
558 -576 502 0
314 312 355 0
288 -272 -284 0
19 391 -642 0
-758 757 769 0
-929 1000 937 0
-613 -687 -609 0
237 934 159 0
660 670 -633 0
-823 859 -807 0
816 -881 -887 0
-86 23 -46 0
-485 454 -452 0
434 384 727 0
-259 210 -241 0
-900 -844 -837 0
575 -501 -536 0
234 -206 210 0
113 -106 136 0
-120 -314 469 0
-357 -180 27 0
-527 -520 518 0
476 -410 474 0
231 222 -210 0
-431 428 -486 0
667 672 -658 0
470 489 446 0
251 274 244 0
-349 -344 -336 0
916 -218 54 0
402 -440 -422 0
853 -887 818 0
-182 238 -409 0
209 -245 -298 0
-559 -534 -529 0
-998 -935 945 0
-584 -525 560 0
922 -529 65 0
-102 147 -164 0
488 938 324 0
515 -439 -267 0
-502 595 -585 0
382 -385 -345 0
883 -824 802 0
-898 -630 -423 0
-396 -352 -358 0
-749 788 -736 0
-830 -811 825 0
-309 301 306 0
364 -867 178 0
555 713 220 0
-170 -876 -511 0
-540 148 -701 0
783 586 -921 0
350 397 372 0
-888 583 43 0
764 755 -768 0
-911 -968 -961 0
78 123 -740 0
438 -467 444 0
953 954 915 0
220 -755 631 0
441 495 437 0
-604 58 792 0
86 33 -40 0
-529 -582 -520 0
-573 184 -247 0
604 -210 455 0
535 -528 511 0
-837 -404 -686 0
-419 -474 480 0
672 -648 -620 0
129 -143 -197 0
-351 341 311 0
-994 47 414 0
102 793 -565 0
888 877 801 0
729 -799 726 0
-377 -400 364 0
162 361 440 0
-389 391 -393 0
-185 -190 -168 0
686 -574 445 0
-804 890 -827 0
289 -186 -688 0
-566 637 318 0
747 -318 -262 0
-447 468 431 0
-735 -723 -745 0
-716 -574 959 0
-5 41 -16 0
-711 -844 -966 0
660 666 655 0
-688 645 683 0
-24 -90 28 0
-601 -653 -672 0
-829 -368 -83 0
-462 -480 -445 0
523 576 -574 0
788 707 -781 0
408 -638 -887 0
-787 743 788 0
-412 442 -438 0
-517 -529 -509 0
327 301 341 0
269 220 259 0
589 560 -543 0
924 -190 270 0
295 -197 -606 0
-649 628 -684 0
788 888 -393 0
-281 -299 288 0
955 830 142 0
-177 201 48 0
793 -597 50 0
238 248 -275 0
-927 666 -759 0
-714 797 -779 0
883 809 807 0
504 839 -184 0
-844 834 -826 0
954 -983 -967 0
-32 -92 -28 0
677 -651 -623 0
239 121 -759 0
1000 490 379 0
-239 230 267 0
279 240 206 0
63 -184 289 0
-601 -615 -606 0
471 844 183 0
259 245 213 0
-89 -808 208 0
969 981 -983 0
821 -996 28 0
126 -125 -143 0
718 499 -356 0
849 -583 -715 0
-487 597 870 0
-665 636 -610 0
-87 82 46 0
-663 -634 -632 0
359 -328 -343 0
490 -448 -429 0
-567 -513 -505 0
160 75 -229 0
-589 815 -216 0
720 -434 -191 0
433 -972 310 0
482 421 -448 0
403 -754 -363 0
329 354 -336 0
90 99 27 0
-441 491 470 0
-419 -860 105 0
251 -246 238 0
52 -39 44 0
297 -216 -272 0
-471 -415 488 0
-693 887 115 0
-619 -681 651 0
-713 -371 -919 0
807 542 -902 0
941 -980 -908 0
-278 -114 -481 0
583 569 -523 0
-272 -180 615 0
-794 -749 759 0
-188 -153 147 0
545 -764 -903 0
-7 455 -385 0
-75 -850 917 0
-975 -967 923 0
-576 -561 593 0
15 -87 26 0
-942 521 212 0
-782 19 -946 0
-873 872 -891 0
-918 951 922 0
-36 50 38 0
-924 909 973 0
921 -953 -950 0
132 162 141 0
-409 453 438 0
67 21 42 0
182 -392 -580 0
614 759 405 0
946 280 72 0
924 949 -991 0
556 -42 761 0
404 -410 -435 0
-807 -176 -302 0
-941 -909 -905 0
-916 912 956 0
129 -987 358 0
632 -693 -679 0
379 390 349 0
-677 -143 -364 0
-496 401 -426 0
648 -943 -200 0
140 -102 184 0
-191 -746 48 0
742 -266 -468 0
-268 285 -215 0
-359 789 268 0
-812 53 -446 0
-288 -207 262 0
564 533 -547 0
906 -994 -919 0
954 906 -998 0
577 718 276 0
-928 919 942 0
-648 -603 605 0
537 503 598 0
743 -707 750 0
255 252 -248 0
-807 -278 519 0
638 -629 -698 0
-852 900 -833 0
-536 -566 -524 0
883 844 863 0
-714 794 -719 0
-717 -760 777 0
-828 -282 319 0
-453 706 -927 0
874 831 863 0
-257 267 258 0
611 650 -653 0
-659 -963 848 0
355 -377 303 0
108 -173 104 0
534 551 515 0
-981 -935 962 0
-467 -37 113 0
-760 -642 120 0
-712 -4 910 0
861 -824 866 0
-600 -581 -524 0
232 -609 454 0
541 -522 547 0
283 84 349 0
-238 -252 -268 0
-203 -498 -47 0
8 23 11 0
284 -241 296 0
-116 121 -184 0
927 -944 959 0
