p cnf 1000 2800
635 627 -900 0
-739 17 -406 0
754 468 -964 0
78 -985 345 0
491 -687 592 0
473 -97 643 0
-373 -980 421 0
-20 8 -430 0
-750 224 293 0
-585 974 289 0
288 -917 -795 0
-509 -875 222 0
481 383 299 0
-904 357 889 0
-503 -380 -613 0
-630 842 -446 0
-623 -164 923 0
-221 731 940 0
563 797 -2 0
-139 -415 540 0
255 -888 -684 0
100 -29 -297 0
88 863 837 0
-707 -362 354 0
-763 -947 157 0
529 -43 199 0
650 257 202 0
451 -579 283 0
175 41 448 0
-479 847 561 0
353 -352 -57 0
227 -584 415 0
305 601 423 0
810 309 -553 0
295 126 830 0
945 725 -639 0
50 334 611 0
-247 -394 61 0
-761 162 578 0
264 -304 -481 0
-868 123 -649 0
790 966 419 0
-759 639 166 0
-817 -797 -528 0
12 -159 357 0
56 -712 -205 0
941 -615 -699 0
-976 973 974 0
-609 -433 819 0
-744 -206 651 0
-380 438 -676 0
672 465 313 0
-467 780 -807 0
-389 -224 442 0
96 -569 358 0
750 452 -311 0
605 -954 -909 0
528 706 83 0
-904 509 908 0
295 -599 -511 0
-871 436 -147 0
-403 -941 -273 0
815 916 -980 0
-514 339 43 0
-78 -139 -485 0
-344 451 784 0
960 -558 -689 0
547 -167 -734 0
13 84 168 0
-495 -410 -422 0
953 -686 -898 0
-601 123 -267 0
753 309 658 0
276 291 945 0
-863 -63 -401 0
565 -190 452 0
977 406 370 0
-221 -788 703 0
-353 -914 -620 0
-181 -839 -221 0
-578 897 -693 0
-413 -471 -713 0
459 628 419 0
-343 617 860 0
-438 -621 775 0
-224 726 940 0
656 -343 787 0
363 935 2 0
563 521 381 0
564 -632 51 0
-243 -795 -878 0
394 -408 -935 0
267 967 -776 0
-56 651 635 0
-683 -54 876 0
543 -29 505 0
-277 922 -562 0
-160 334 155 0
-545 34 574 0
-327 265 323 0
829 -319 -879 0
-816 -394 -685 0
-243 -566 -376 0
-300 -825 -779 0
479 -868 470 0
621 188 728 0
-95 308 15 0
-394 901 919 0
-690 367 4 0
-534 -538 911 0
408 759 -923 0
531 -542 567 0
441 400 -483 0
109 -145 -497 0
44 -596 -685 0
404 475 -235 0
316 81 -149 0
-264 -515 523 0
844 200 631 0
-809 65 116 0
163 -658 -119 0
657 -85 205 0
515 -700 301 0
-606 -286 -859 0
171 291 -758 0
552 -157 90 0
846 -554 104 0
685 999 -141 0
98 630 62 0
600 522 -174 0
274 -303 -55 0
-713 -884 -612 0
-997 465 -569 0
-964 -919 636 0
368 -379 -137 0
-786 375 119 0
-897 606 740 0
-794 -30 165 0
895 -112 -848 0
-185 -552 -144 0
-217 726 -247 0
627 -679 115 0
-274 -283 -230 0
-310 -528 -200 0
-681 -919 286 0
188 -63 489 0
771 -893 -192 0
404 93 -908 0
-832 59 -744 0
-562 861 576 0
130 -192 -708 0
-475 -159 893 0
-710 213 513 0
222 -627 722 0
-405 543 12 0
-850 -384 -554 0
211 871 -233 0
-315 960 207 0
674 677 884 0
128 884 -813 0
-933 383 -207 0
997 575 -198 0
-425 47 855 0
729 -205 -443 0
-97 -631 -526 0
528 23 -978 0
-883 358 -877 0
336 -781 -930 0
-983 -773 262 0
734 -634 -341 0
440 -206 -373 0
-961 253 994 0
-998 550 -13 0
796 669 -617 0
494 -486 703 0
-672 42 -88 0
540 -669 -383 0
787 -297 -829 0
369 -99 -444 0
503 -230 -165 0
-632 215 778 0
-785 -131 82 0
-94 541 482 0
658 -823 -913 0
-778 381 624 0
-528 -602 -850 0
313 991 159 0
-156 -245 657 0
-197 -414 296 0
-320 -405 964 0
-236 -647 -628 0
-885 -28 -445 0
-541 -320 961 0
824 -359 99 0
-788 -124 735 0
-800 462 958 0
268 -895 -443 0
-15 -196 -654 0
-117 -431 -638 0
552 185 708 0
590 398 880 0
379 -576 275 0
-708 -287 -418 0
-303 296 277 0
322 -632 364 0
-799 780 -89 0
-571 -254 754 0
-824 526 -931 0
-477 543 9 0
-353 -762 489 0
-743 -167 891 0
981 -571 718 0
53 -23 205 0
358 511 -188 0
872 735 -467 0
-739 361 106 0
-86 772 -336 0
335 520 957 0
568 86 -595 0
-157 -116 186 0
-822 319 -865 0
626 -201 -391 0
172 -766 -503 0
995 -451 551 0
-469 -92 908 0
-406 -647 767 0
481 -81 -420 0
-776 263 -845 0
969 413 897 0
-275 -294 -51 0
-457 428 975 0
859 740 -469 0
-373 764 -222 0
-624 -900 67 0
-473 -105 139 0
-785 400 152 0
-601 463 -489 0
629 -15 -529 0
-117 679 115 0
-524 545 596 0
497 -82 655 0
592 -277 -531 0
681 -72 -432 0
388 367 417 0
-998 229 902 0
-22 158 -700 0
-841 740 -585 0
-109 -621 -700 0
634 764 -368 0
404 -203 702 0
34 453 -236 0
-73 -547 675 0
761 -316 -544 0
712 -64 -248 0
221 -615 617 0
-66 -866 -474 0
475 -183 -509 0
-449 834 -716 0
-650 979 804 0
-384 -620 -789 0
-864 -159 383 0
-540 537 -399 0
-950 -36 365 0
-819 460 -290 0
-262 -297 -829 0
-327 495 700 0
-34 -321 4 0
814 -460 447 0
-632 -490 266 0
801 919 107 0
-656 145 871 0
-352 875 -778 0
-222 670 216 0
-469 -879 -59 0
-100 -106 -215 0
918 787 -943 0
-958 560 -347 0
-167 -412 -605 0
262 -986 -228 0
-925 620 -354 0
179 -905 284 0
539 -42 390 0
-20 233 -699 0
804 774 -937 0
994 -805 213 0
-430 224 333 0
-175 -446 -45 0
691 302 -779 0
-863 108 -71 0
-446 -250 -933 0
791 604 -379 0
-281 167 799 0
-333 468 -381 0
786 -336 -980 0
-858 416 -989 0
-383 640 232 0
-241 -154 -858 0
-428 -152 -446 0
971 917 -918 0
238 -628 348 0
164 138 -630 0
-626 612 677 0
537 -305 -484 0
-152 130 6 0
-162 460 408 0
629 400 457 0
-509 210 10 0
67 154 572 0
-494 42 369 0
-760 -606 769 0
-455 -757 847 0
-348 -598 -586 0
-993 -528 -698 0
92 -681 318 0
-70 667 -376 0
-46 -269 611 0
-19 959 56 0
697 -173 591 0
-235 -177 276 0
619 -752 -700 0
180 775 -767 0
-261 -753 -686 0
650 754 -360 0
-932 -710 -394 0
867 283 -455 0
-905 -474 -120 0
776 -233 474 0
-401 528 -761 0
-934 -958 -843 0
644 -692 563 0
913 316 772 0
77 -769 -905 0
-356 453 -997 0
427 789 -39 0
-525 -73 78 0
-88 -37 -526 0
906 -723 -591 0
227 -146 -348 0
788 995 -470 0
834 -521 -20 0
-773 -830 -255 0
190 916 35 0
921 -163 332 0
62 -61 805 0
551 652 -737 0
973 986 -5 0
282 955 -102 0
714 -465 566 0
-175 -307 8 0
-24 -72 -620 0
34 528 190 0
-541 -683 -151 0
146 214 -768 0
-411 446 958 0
159 -504 -322 0
874 438 41 0
283 340 -564 0
-231 818 598 0
-530 -762 409 0
822 -410 394 0
152 545 904 0
409 803 -702 0
553 102 44 0
-848 506 182 0
-776 755 -40 0
-245 733 -832 0
607 -78 124 0
-517 -291 571 0
345 949 -635 0
263 550 201 0
440 348 -391 0
892 -330 532 0
-533 886 385 0
423 972 -210 0
-756 936 597 0
-691 -381 -627 0
431 -358 933 0
-746 -706 -768 0
519 -327 900 0
212 686 370 0
665 -58 -484 0
47 651 -272 0
-669 -666 281 0
989 -273 12 0
-13 155 -540 0
498 -88 86 0
97 122 442 0
-45 -423 -347 0
65 627 -104 0
-282 -960 -380 0
52 941 -916 0
476 -950 -76 0
-644 615 -156 0
867 -150 -520 0
498 297 720 0
740 776 -635 0
613 534 -541 0
-27 -554 -644 0
897 -633 -785 0
700 536 270 0
262 -311 -837 0
-227 831 -204 0
205 -508 -417 0
-402 -726 702 0
185 -777 207 0
-680 582 310 0
306 -236 544 0
612 -10 550 0
303 -29 839 0
593 -404 627 0
-735 380 866 0
-311 200 23 0
96 -223 -943 0
725 764 605 0
-956 242 183 0
376 -796 383 0
856 -702 -274 0
-119 176 963 0
269 575 398 0
-541 -210 253 0
-368 403 610 0
-610 799 818 0
-976 641 -905 0
-606 961 -160 0
-466 -462 784 0
-32 -228 700 0
-203 226 449 0
-350 186 50 0
856 -700 842 0
-310 729 -439 0
681 -497 940 0
-703 -368 435 0
-611 -550 -640 0
-383 365 592 0
-889 -767 17 0
530 428 -866 0
-71 252 -264 0
-985 79 -586 0
288 141 805 0
-557 -968 -555 0
240 633 323 0
-522 387 -41 0
515 265 979 0
676 -963 -334 0
442 -698 -643 0
137 -531 688 0
964 128 252 0
190 762 -580 0
-272 421 -494 0
-84 -631 -137 0
943 -17 333 0
730 -831 659 0
-749 -710 -800 0
-156 -967 220 0
32 -116 -765 0
-452 -655 550 0
755 -569 -889 0
-119 -525 -63 0
769 922 703 0
887 827 154 0
-253 112 747 0
899 -551 191 0
-36 -398 883 0
894 -420 -662 0
13 939 910 0
115 859 327 0
-968 760 -291 0
589 -609 -518 0
-48 -247 -929 0
487 131 243 0
125 -326 -37 0
-657 -80 -733 0
889 -904 392 0
94 -437 789 0
-144 -722 -574 0
-965 490 890 0
-957 -387 156 0
779 -849 185 0
677 419 932 0
-770 -524 21 0
-86 -577 -396 0
845 -441 -341 0
428 -772 -205 0
-465 -446 514 0
967 103 910 0
-326 186 757 0
896 -144 -549 0
146 14 -748 0
-584 610 672 0
-539 -524 887 0
-695 337 680 0
273 -94 553 0
-931 -983 850 0
227 -3 135 0
-147 297 765 0
55 -165 -269 0
-765 -889 991 0
206 -948 -347 0
699 -795 -656 0
808 732 747 0
-842 -651 -403 0
104 805 -882 0
-593 -97 -695 0
-871 942 -289 0
-213 263 709 0
-576 -203 -687 0
-408 286 558 0
623 643 249 0
890 -730 82 0
37 279 -205 0
538 857 77 0
194 342 -696 0
-507 -322 -889 0
488 951 172 0
199 583 979 0
-771 762 -903 0
-623 -254 573 0
488 25 -725 0
371 -837 -73 0
-602 -984 561 0
898 307 285 0
-522 225 769 0
324 -373 -751 0
429 -280 347 0
315 220 -168 0
534 210 324 0
-92 -189 175 0
-510 -580 -258 0
8 23 -920 0
681 -653 -108 0
-464 979 -469 0
744 -16 643 0
483 430 236 0
-891 -804 -746 0
-666 202 -264 0
374 -624 -138 0
-718 -568 619 0
-579 58 512 0
-841 497 -931 0
262 983 431 0
-765 -846 -289 0
-39 -825 241 0
718 -279 -264 0
-751 102 -309 0
470 69 559 0
692 -230 121 0
-199 633 -231 0
93 -342 -295 0
-382 -555 948 0
-951 493 345 0
472 40 -790 0
412 397 -869 0
-681 -691 -312 0
-389 412 786 0
-770 -32 747 0
161 237 1 0
164 -10 -407 0
123 367 -585 0
-343 236 -293 0
653 486 -853 0
444 811 -315 0
722 -304 -429 0
-77 126 -339 0
626 -693 -721 0
251 834 335 0
78 -460 -696 0
-311 -812 126 0
-182 417 -57 0
-588 -292 158 0
48 -646 -42 0
-61 244 -770 0
555 445 -956 0
-91 -733 -768 0
-420 379 -81 0
642 -322 -412 0
785 -828 397 0
89 312 -823 0
432 788 -592 0
893 -657 826 0
867 973 640 0
-4 -100 -672 0
-299 177 632 0
-159 -419 609 0
-630 777 55 0
943 900 -279 0
867 -82 479 0
712 78 536 0
767 -665 -68 0
-903 954 448 0
5 -845 -813 0
620 24 311 0
-569 -848 19 0
211 -20 236 0
-472 -26 -436 0
33 725 905 0
384 96 -927 0
-758 651 807 0
469 968 -730 0
327 572 621 0
-104 -675 -283 0
-840 912 542 0
-89 210 -58 0
-22 -526 447 0
905 -858 419 0
-397 725 866 0
588 -976 -123 0
-406 130 -876 0
802 -253 771 0
-615 953 -530 0
-666 -697 -702 0
954 -631 -867 0
635 242 -798 0
-961 929 165 0
-573 -405 -754 0
253 432 750 0
836 466 -181 0
266 -708 -124 0
868 841 -927 0
44 540 -225 0
-716 126 236 0
-316 -257 -791 0
-405 706 -662 0
-520 -934 -823 0
632 -794 -360 0
929 149 526 0
188 675 669 0
-313 -972 559 0
354 -384 -304 0
43 340 -811 0
-742 -360 -101 0
-367 -829 729 0
-872 -891 285 0
923 340 413 0
62 -642 -662 0
-669 -782 -251 0
350 406 7 0
-570 -60 -619 0
-61 1000 878 0
-965 -956 -333 0
919 509 563 0
-672 783 -596 0
414 -283 -484 0
-464 -938 -167 0
-338 -756 -786 0
584 76 -889 0
-239 766 547 0
-402 850 916 0
-306 -920 -936 0
-784 -791 321 0
467 -647 -191 0
-419 -76 738 0
-280 -852 164 0
-175 -460 341 0
690 724 -239 0
818 755 330 0
-208 965 -629 0
964 394 -375 0
-737 -84 -391 0
528 -289 -818 0
-532 -692 -163 0
-453 959 -655 0
907 554 387 0
-689 849 -765 0
-412 275 252 0
-461 776 591 0
345 159 308 0
-861 280 16 0
749 960 -387 0
-148 -870 -940 0
633 933 -812 0
248 390 207 0
352 -679 -408 0
-371 -113 924 0
332 -543 -450 0
916 861 580 0
313 456 -416 0
-212 175 -607 0
252 -996 91 0
-44 -734 -343 0
526 -665 -122 0
174 -968 -553 0
619 -491 759 0
-264 -372 -353 0
-627 -182 869 0
791 43 -839 0
468 810 365 0
-316 -882 -88 0
-99 696 344 0
-689 -368 406 0
-918 478 896 0
-512 -76 827 0
-350 396 -504 0
119 833 -402 0
523 731 -521 0
801 -356 -299 0
644 -761 -827 0
-84 -392 -562 0
117 -845 558 0
-702 -374 750 0
37 978 -154 0
790 846 720 0
-412 -261 -688 0
-867 -810 561 0
896 216 186 0
270 -106 -970 0
415 629 425 0
-695 267 962 0
246 459 -342 0
206 -316 -546 0
441 -663 -25 0
246 -421 -603 0
-461 -480 -91 0
281 -270 -586 0
-675 -16 712 0
991 126 528 0
-329 -907 -960 0
329 483 -567 0
130 322 -292 0
775 -349 -212 0
-161 210 -895 0
-929 -480 640 0
-734 -232 -737 0
-35 -61 29 0
-744 -843 -884 0
281 59 -184 0
-942 -653 -207 0
69 -182 10 0
848 675 966 0
-402 -15 -802 0
-293 633 -836 0
-549 802 184 0
-988 622 -760 0
-100 717 -940 0
-799 215 -528 0
977 -33 205 0
-740 -414 -871 0
-753 874 888 0
465 167 1 0
974 -404 306 0
-428 -908 641 0
792 92 -111 0
213 856 -352 0
856 819 716 0
967 614 971 0
6 708 -185 0
-870 -315 -345 0
239 -462 -44 0
-703 -762 -779 0
-919 872 533 0
990 324 867 0
457 -467 -28 0
877 296 -716 0
-233 -617 707 0
-98 -321 209 0
-938 315 -60 0
778 -629 583 0
-895 319 -169 0
968 -158 -588 0
-721 -670 970 0
451 -466 -383 0
-130 -133 -625 0
-59 -699 -506 0
24 -634 -520 0
929 460 892 0
332 521 256 0
-191 -247 -86 0
116 743 656 0
-615 468 -359 0
500 337 -634 0
272 -52 777 0
386 911 -874 0
532 170 -918 0
963 -689 -109 0
624 -690 -584 0
866 -466 -223 0
-428 -236 950 0
8 577 90 0
-652 -475 723 0
809 -103 -713 0
-446 -887 -178 0
-372 -826 68 0
900 -116 267 0
163 2 860 0
800 -814 50 0
-266 -242 -822 0
119 219 -934 0
532 879 -647 0
-836 595 151 0
-915 -328 -528 0
-245 -255 573 0
-6 506 600 0
647 -225 657 0
-812 -548 828 0
-973 503 -965 0
-521 -551 135 0
-90 711 777 0
-629 -345 -166 0
-622 522 -483 0
269 115 -908 0
-392 854 -856 0
717 445 -314 0
294 704 -880 0
-995 472 23 0
69 761 -197 0
633 959 874 0
296 -546 -657 0
982 503 784 0
-79 -981 694 0
-840 83 -714 0
332 -129 -453 0
355 799 804 0
167 854 701 0
-170 283 -77 0
612 -467 -629 0
482 -542 934 0
-728 109 107 0
-13 240 -128 0
-666 -264 -299 0
573 -945 -350 0
780 -867 -208 0
-167 184 423 0
-130 -656 607 0
91 573 -811 0
-863 -248 -672 0
459 944 -418 0
317 853 529 0
-332 124 -635 0
-905 190 153 0
-250 -417 103 0
-721 -790 662 0
821 -331 571 0
441 345 646 0
964 825 -928 0
-430 378 59 0
880 510 87 0
-242 64 -658 0
-662 202 118 0
296 -427 181 0
-961 906 -976 0
862 -150 431 0
456 -605 972 0
-842 352 -685 0
-512 967 214 0
-786 -217 500 0
610 -49 -777 0
-999 -787 593 0
-992 705 609 0
-969 -354 438 0
-235 -864 857 0
-456 -97 -990 0
-706 -665 303 0
349 985 952 0
-758 98 998 0
921 988 803 0
840 -91 448 0
-769 831 787 0
186 706 912 0
927 548 -936 0
643 425 -416 0
-751 -320 -496 0
994 105 763 0
241 298 -443 0
-969 500 4 0
-923 681 -526 0
776 -634 442 0
960 885 -433 0
-93 148 315 0
36 -909 806 0
-571 -897 323 0
573 -210 -612 0
-712 48 799 0
-104 759 785 0
699 -720 739 0
-975 -350 -273 0
889 480 348 0
573 -293 -252 0
-449 712 824 0
277 -714 -691 0
-604 185 -668 0
904 5 -20 0
-185 -443 535 0
379 -566 79 0
431 -170 -996 0
-203 480 -807 0
-561 540 886 0
-56 540 99 0
881 66 -58 0
443 -757 352 0
147 -659 270 0
134 -964 -93 0
-216 -807 912 0
168 186 -648 0
-442 890 -980 0
36 465 -928 0
-586 471 -468 0
489 -972 66 0
410 -106 684 0
373 -11 -75 0
-683 -513 -86 0
-816 277 391 0
-143 690 235 0
-159 -734 -667 0
-752 299 -79 0
89 326 783 0
26 -945 310 0
418 -627 102 0
-993 -477 -760 0
28 422 179 0
829 194 415 0
871 -420 734 0
-575 980 506 0
384 -404 -585 0
279 -910 336 0
-569 648 897 0
405 -356 -658 0
654 538 -531 0
129 -230 -889 0
-497 33 -883 0
551 -9 1 0
-141 -956 439 0
534 278 -126 0
773 -609 929 0
364 -157 -595 0
103 -310 -970 0
633 363 186 0
-519 -667 737 0
-627 628 -429 0
-242 -467 -277 0
-923 955 -687 0
124 483 -627 0
588 -432 65 0
745 -211 -349 0
62 871 495 0
245 -192 -415 0
817 -457 -871 0
-557 -284 -884 0
-227 -607 -788 0
543 -262 527 0
-701 271 915 0
-793 -930 540 0
98 821 948 0
773 -285 576 0
-428 983 934 0
-143 -82 895 0
-136 929 -167 0
-849 -261 728 0
-78 -363 723 0
164 846 -578 0
71 581 60 0
-437 618 -608 0
670 352 328 0
-476 362 -274 0
-237 -466 -764 0
-989 -39 -303 0
-433 -57 872 0
65 -539 820 0
983 -920 -283 0
40 269 -251 0
-42 826 551 0
-463 133 -794 0
-195 642 647 0
668 926 -886 0
983 274 605 0
-355 609 556 0
-672 191 279 0
248 -172 -48 0
128 -71 835 0
969 -92 220 0
423 626 592 0
-633 120 502 0
235 302 845 0
-668 -735 472 0
259 343 481 0
966 -864 919 0
-483 -505 -376 0
-46 995 292 0
-652 -223 -982 0
-852 -965 -633 0
205 521 988 0
925 -415 -787 0
-971 992 -111 0
34 -635 -680 0
797 987 308 0
-577 481 224 0
-15 336 -213 0
-907 -574 -355 0
-157 -923 952 0
-473 -818 682 0
-242 -988 675 0
-875 434 -535 0
-150 -267 -952 0
84 618 604 0
220 -417 532 0
788 204 620 0
-248 -741 103 0
986 -805 317 0
318 762 162 0
-158 -663 864 0
-671 -462 -131 0
-882 -245 104 0
-230 -116 670 0
-125 -992 7 0
406 488 -21 0
663 -637 242 0
-22 24 -954 0
869 959 -63 0
-649 949 641 0
399 -130 124 0
-749 -303 269 0
884 -56 178 0
317 -513 -679 0
-767 -945 -893 0
-898 312 335 0
440 -433 87 0
907 604 272 0
551 484 800 0
-610 617 -662 0
98 -716 -148 0
-848 -271 12 0
959 -941 -214 0
-610 845 -716 0
-458 -344 -681 0
-715 256 526 0
-235 799 32 0
-883 929 -580 0
105 -411 -681 0
324 -433 -410 0
164 -830 -507 0
-325 -981 70 0
41 -634 196 0
-10 973 374 0
6 642 -237 0
885 983 744 0
451 -468 669 0
433 -184 -833 0
881 307 -880 0
545 629 897 0
151 -413 152 0
-563 4 314 0
-541 -813 -261 0
754 7 -422 0
-539 65 964 0
41 237 -110 0
345 -776 529 0
936 -848 -188 0
-586 979 -308 0
-14 -955 305 0
283 390 -133 0
-441 -290 -335 0
750 -42 891 0
-763 -97 -827 0
-325 936 -338 0
-36 39 776 0
-716 4 -132 0
-86 33 1 0
678 -251 151 0
300 589 42 0
-679 -718 972 0
-927 -307 -666 0
607 661 -539 0
989 539 740 0
596 -491 -748 0
367 662 905 0
681 -571 -128 0
-864 -154 -368 0
677 425 -46 0
-987 434 500 0
-293 880 304 0
816 822 801 0
427 -962 -202 0
-978 -809 -582 0
-81 -123 -640 0
-463 738 -446 0
-761 -88 -522 0
580 -368 -56 0
-338 -734 -510 0
631 -281 -384 0
-564 205 422 0
-840 656 318 0
-866 -180 -298 0
973 209 602 0
264 -65 258 0
-493 -761 -142 0
-992 -426 -676 0
331 -623 96 0
120 -154 61 0
-96 942 -217 0
188 -814 -477 0
293 658 -880 0
188 276 -665 0
-633 -313 759 0
-915 -60 -528 0
54 -341 -68 0
-67 746 -225 0
-824 894 -567 0
-39 -12 5 0
-822 -927 -672 0
709 -120 263 0
-239 -221 479 0
-758 -927 -784 0
-214 -831 -997 0
758 -715 -589 0
-213 177 514 0
-820 740 528 0
354 396 701 0
687 -568 476 0
980 -946 762 0
3 -88 -752 0
-365 -620 -756 0
-324 266 814 0
-2 438 -620 0
-545 -153 868 0
323 -319 -592 0
609 517 589 0
368 -257 -952 0
-315 610 351 0
-195 985 -333 0
514 5 -553 0
784 -78 138 0
260 -770 -103 0
766 138 726 0
-718 395 -2 0
-467 786 -707 0
-320 -558 -119 0
508 -47 466 0
805 -429 501 0
745 827 -812 0
-801 580 -203 0
-453 755 80 0
-736 -194 -728 0
-896 30 785 0
985 -376 625 0
-2 137 78 0
839 472 -801 0
771 -971 -829 0
-453 830 -407 0
772 -860 796 0
758 71 -994 0
480 -583 631 0
-992 25 -261 0
365 -166 -728 0
-898 -373 -509 0
998 -186 154 0
-391 832 -358 0
-993 448 660 0
178 -227 -783 0
-353 -382 575 0
239 570 385 0
325 -612 940 0
171 -324 -90 0
979 61 917 0
689 -439 -731 0
-336 852 -864 0
574 688 436 0
-288 -517 -425 0
89 639 678 0
-333 681 -759 0
-938 -504 60 0
-650 736 733 0
776 990 190 0
-233 -875 -359 0
-775 -858 128 0
-58 831 -453 0
-782 986 928 0
103 631 -76 0
-522 656 -569 0
-569 -80 -41 0
-875 -537 291 0
750 99 341 0
-211 -434 86 0
-484 160 -382 0
313 219 759 0
456 -773 471 0
534 198 -672 0
-789 -288 496 0
387 175 -704 0
231 -782 -519 0
189 -565 354 0
802 -602 108 0
318 523 491 0
991 908 510 0
-755 -557 -407 0
132 -170 -409 0
113 -29 907 0
852 -781 352 0
-305 178 460 0
-468 160 529 0
-532 -715 941 0
268 -939 443 0
195 808 549 0
625 698 -783 0
93 -958 -664 0
-881 -554 -953 0
-440 964 665 0
698 -974 -704 0
785 758 154 0
265 -43 -114 0
349 -218 560 0
296 -659 -732 0
-370 -489 -67 0
-59 -989 160 0
-503 -195 32 0
-783 -297 -83 0
-5 878 24 0
-736 -522 419 0
616 -451 338 0
-913 -372 -871 0
-109 -93 975 0
-26 -490 346 0
221 -350 -956 0
714 -859 577 0
-548 -481 -69 0
74 456 518 0
-821 -387 -887 0
-237 679 644 0
804 -479 -15 0
690 127 315 0
210 433 602 0
758 884 -125 0
-677 77 471 0
-498 52 -308 0
-136 -555 -708 0
739 -450 206 0
-120 669 -388 0
704 964 277 0
374 -520 860 0
648 -108 -226 0
147 587 -526 0
-850 -509 691 0
234 960 -389 0
529 751 -983 0
-887 210 -996 0
269 811 -347 0
885 -524 -682 0
278 -22 179 0
-893 -638 232 0
508 268 709 0
66 330 212 0
-429 191 -742 0
828 -445 484 0
273 -755 -263 0
635 38 478 0
-969 -163 364 0
51 -214 442 0
-837 -560 -60 0
-30 769 146 0
526 98 486 0
771 896 464 0
314 104 90 0
-707 -589 -630 0
87 -940 -231 0
572 -388 682 0
-784 290 756 0
-346 888 -32 0
-306 402 -723 0
-357 727 46 0
972 -200 -564 0
826 203 218 0
-528 -570 -980 0
-26 343 815 0
818 76 361 0
-486 -939 -444 0
-187 380 -336 0
-133 -881 -286 0
-183 56 190 0
-907 857 -69 0
-700 972 420 0
827 -624 762 0
-717 -808 -822 0
-939 56 549 0
112 -265 -293 0
548 -289 512 0
-332 -127 -395 0
-447 999 2 0
908 34 105 0
-24 -511 -961 0
-141 867 -388 0
274 -340 -207 0
119 -629 -75 0
-568 -279 -503 0
38 -2 -70 0
760 -845 947 0
49 -390 555 0
-920 -997 -75 0
-649 338 -258 0
38 -1000 -188 0
612 753 -811 0
-509 -856 580 0
751 -322 67 0
628 838 -520 0
-528 910 -708 0
-756 -66 106 0
-580 28 -49 0
20 138 -912 0
-251 81 -433 0
99 226 -687 0
-141 -323 947 0
-187 849 -746 0
-644 995 333 0
-71 -490 390 0
214 -363 876 0
245 661 965 0
-96 99 -734 0
-271 982 -799 0
288 166 963 0
-205 256 -436 0
-823 -259 -582 0
-119 -938 -424 0
408 178 47 0
929 520 207 0
-875 -241 -234 0
996 336 -585 0
917 157 -402 0
80 -428 522 0
105 297 25 0
-881 -566 110 0
-717 323 -58 0
151 -397 889 0
571 -976 -225 0
59 689 -25 0
-741 -40 19 0
39 33 436 0
-337 341 -426 0
-93 -889 -560 0
-208 -345 137 0
-662 -887 -405 0
-809 653 229 0
-268 -851 -591 0
-420 745 -328 0
-358 627 -61 0
348 -362 646 0
331 98 117 0
938 240 -24 0
381 -757 756 0
-443 214 -142 0
-447 395 923 0
111 -247 -498 0
-41 -277 688 0
500 -762 -903 0
880 -659 -166 0
-582 -377 -982 0
1 -248 -38 0
-6 -852 -54 0
-805 294 958 0
-585 261 227 0
-679 -165 777 0
-660 254 -20 0
-974 65 911 0
-943 -372 -990 0
306 428 766 0
-651 -980 985 0
-240 178 903 0
-222 625 653 0
336 614 540 0
655 329 -418 0
-754 540 -647 0
254 -522 -864 0
5 -794 111 0
856 -708 837 0
636 782 46 0
-682 -347 620 0
-950 -113 -993 0
-760 889 796 0
-470 -229 -439 0
245 571 963 0
-490 -702 937 0
-42 424 820 0
362 763 105 0
-140 -864 -896 0
315 -573 685 0
-591 -871 -614 0
-218 585 -547 0
632 903 -506 0
308 -289 388 0
-565 468 -53 0
633 -165 564 0
-297 500 779 0
-583 -341 917 0
-12 -489 146 0
-710 -925 514 0
66 -344 -731 0
-442 -555 -39 0
-611 535 -711 0
-350 448 738 0
610 -182 560 0
-967 735 -82 0
-271 -677 -486 0
706 -992 -305 0
479 382 -245 0
765 707 -309 0
-575 -867 755 0
-744 -468 639 0
702 707 -678 0
762 742 -570 0
-484 805 176 0
828 83 -767 0
603 -927 436 0
149 -221 -46 0
373 -500 -121 0
729 302 -778 0
922 771 80 0
-322 630 -151 0
132 331 -430 0
-486 87 932 0
-433 468 197 0
-15 -563 -376 0
511 591 -113 0
-760 495 96 0
689 591 -734 0
889 -272 830 0
-569 -709 -245 0
483 35 -175 0
794 604 142 0
720 -182 -971 0
307 -331 192 0
-810 371 717 0
-582 -507 137 0
-900 -540 972 0
-674 909 -803 0
58 284 -591 0
774 45 -40 0
959 -702 356 0
466 -815 -934 0
77 915 -447 0
-267 49 629 0
175 -745 -372 0
-680 273 962 0
937 45 847 0
-557 -228 -550 0
-438 -335 275 0
-627 667 235 0
-649 429 -954 0
865 -410 -717 0
27 168 437 0
-824 -109 162 0
601 -705 992 0
753 -523 -291 0
674 407 -78 0
355 528 -410 0
-535 444 261 0
903 -822 640 0
801 -756 -608 0
601 946 -906 0
300 -510 -411 0
666 783 733 0
410 -298 -284 0
-313 981 536 0
-704 -460 -525 0
-423 -629 64 0
43 852 243 0
-296 642 -768 0
-225 741 -28 0
304 996 -518 0
-268 951 172 0
-844 160 156 0
-112 -26 -856 0
774 -154 432 0
-391 854 -305 0
82 182 -585 0
-733 683 894 0
717 -759 116 0
-233 657 -59 0
662 1 883 0
279 765 879 0
-394 -381 -807 0
406 -725 -702 0
332 -315 123 0
-90 -890 -766 0
706 809 338 0
17 -382 -320 0
-676 147 -702 0
-887 532 767 0
303 -536 -3 0
-830 -712 869 0
412 -315 129 0
434 373 75 0
-879 -650 927 0
946 622 -796 0
-672 -825 330 0
-998 -691 -935 0
-36 706 -61 0
-951 -978 -111 0
-630 995 269 0
321 -314 -570 0
346 372 625 0
-757 660 -700 0
400 806 976 0
399 896 -14 0
-290 -592 295 0
168 -428 -831 0
943 -262 -652 0
-133 -357 -224 0
-13 784 -330 0
147 -686 916 0
-110 240 -631 0
692 -587 312 0
793 -579 944 0
451 -934 -510 0
23 -760 980 0
50 779 -346 0
747 -665 855 0
983 988 -783 0
29 762 -437 0
97 -344 -579 0
771 328 689 0
-135 -775 80 0
429 307 610 0
-830 -958 -321 0
-690 -865 -172 0
-546 -499 -887 0
562 -849 -992 0
617 -938 144 0
-365 -879 -401 0
-833 -200 -285 0
761 43 -309 0
-988 548 -832 0
-143 248 -232 0
-759 157 -434 0
741 547 -995 0
794 -964 -860 0
-460 323 986 0
855 -618 828 0
840 -953 -400 0
-255 -838 247 0
495 -557 -42 0
-426 855 -169 0
-828 220 87 0
-736 883 638 0
-323 226 -915 0
783 -413 339 0
-838 205 860 0
-642 102 -702 0
24 883 299 0
563 -659 400 0
-442 -60 -846 0
-85 -272 -953 0
-702 -890 655 0
197 -173 -628 0
-859 -501 572 0
457 362 299 0
707 697 -717 0
212 -370 883 0
-573 -831 -175 0
-935 -630 -489 0
244 -195 -952 0
864 -899 986 0
838 -661 -6 0
-114 547 -933 0
-847 804 754 0
-955 -749 -296 0
-766 -579 47 0
535 357 666 0
-263 -646 -744 0
-580 226 364 0
-497 -177 311 0
547 -405 508 0
-666 692 -640 0
-307 896 735 0
-528 -392 -415 0
-749 191 22 0
-36 -455 628 0
21 -40 199 0
287 -678 -393 0
-206 501 728 0
950 -644 -296 0
-772 -39 435 0
972 -287 133 0
6 952 983 0
-874 233 -521 0
422 65 62 0
-565 -996 644 0
-896 -418 -604 0
-869 532 690 0
-889 -948 980 0
-118 -328 -314 0
-446 -81 -177 0
-878 -776 489 0
-241 736 220 0
-102 -928 -553 0
528 569 -550 0
-16 452 -380 0
724 352 -692 0
475 591 -422 0
717 -257 -851 0
-988 498 -691 0
-93 509 806 0
174 -598 384 0
-934 -131 173 0
965 196 -280 0
513 -2 -27 0
153 -300 -889 0
-832 841 874 0
87 -413 -432 0
963 -452 -943 0
-884 -371 446 0
-573 619 -39 0
-65 963 149 0
-590 -359 -25 0
338 -994 -661 0
-215 -336 438 0
397 -70 -966 0
699 523 225 0
-111 585 -814 0
577 883 901 0
-327 375 -206 0
158 -792 95 0
555 740 -293 0
-556 407 -865 0
974 -443 219 0
-389 -794 97 0
313 219 987 0
141 834 543 0
616 -420 842 0
159 -395 397 0
-522 4 -874 0
-872 -996 -446 0
519 427 373 0
195 -675 534 0
-97 47 -870 0
879 817 -715 0
681 792 210 0
-525 -219 -709 0
-775 310 -691 0
-263 -439 -908 0
-869 -802 -466 0
299 985 92 0
-480 -544 -823 0
-456 59 817 0
649 377 80 0
-406 -27 388 0
743 -249 -529 0
-293 187 866 0
438 155 81 0
-384 850 627 0
294 -856 596 0
-741 -108 -284 0
-374 -202 361 0
971 552 -208 0
861 -435 840 0
573 51 243 0
-286 735 -220 0
795 721 -41 0
871 801 280 0
795 683 124 0
-621 603 968 0
-881 -456 793 0
-991 462 -440 0
122 91 -149 0
-658 -766 850 0
776 870 356 0
273 -314 -116 0
-531 26 -539 0
-989 -573 -848 0
-902 17 448 0
179 -121 472 0
31 -883 605 0
592 -800 90 0
-542 669 496 0
-350 832 -992 0
-756 249 56 0
157 -890 565 0
-732 175 -239 0
-647 -865 78 0
900 -636 162 0
495 698 764 0
425 164 -605 0
949 389 -500 0
-772 -160 371 0
-245 -479 531 0
46 29 -594 0
294 108 -27 0
-253 -662 -85 0
-463 -933 -641 0
787 822 291 0
663 -877 -108 0
627 -812 75 0
792 -732 -362 0
-433 -523 954 0
-182 -508 -547 0
-275 39 305 0
734 424 -162 0
976 4 -112 0
578 897 105 0
897 -19 449 0
-306 588 -256 0
59 909 -718 0
374 490 -45 0
754 270 906 0
947 -404 560 0
327 155 273 0
111 188 -963 0
-120 -851 -8 0
-41 139 195 0
393 -484 -244 0
-939 -291 432 0
-531 -582 813 0
39 844 -351 0
-94 -97 -90 0
380 525 31 0
-399 -352 130 0
-574 522 -39 0
780 590 -796 0
-639 402 44 0
632 -692 369 0
-679 -157 -931 0
-126 -303 319 0
39 -842 -584 0
-161 -801 -404 0
-28 701 -236 0
-124 865 -270 0
291 692 572 0
542 793 632 0
504 908 -966 0
-768 -495 -815 0
-89 626 -470 0
-336 363 -854 0
-683 -518 -707 0
756 110 998 0
-98 759 632 0
-436 -394 -789 0
-375 -378 86 0
168 166 39 0
-976 100 525 0
-777 799 -91 0
839 189 -445 0
-436 160 198 0
320 -733 225 0
456 650 -561 0
3 -402 -682 0
-785 -964 -13 0
-585 -666 288 0
429 538 584 0
64 522 -608 0
-511 323 -921 0
-206 -901 -822 0
-503 85 -425 0
-801 289 492 0
-783 -474 -21 0
833 421 876 0
34 -17 118 0
154 200 -482 0
624 -786 776 0
607 878 -528 0
-440 649 49 0
-182 510 661 0
361 597 792 0
940 220 -593 0
-243 879 -27 0
223 -192 -467 0
194 284 -605 0
-79 -776 89 0
9 -655 -55 0
-901 808 196 0
-99 337 -168 0
-805 -70 256 0
-393 -953 -476 0
-705 272 671 0
-975 928 -583 0
-415 183 -260 0
558 -167 788 0
-863 -322 442 0
916 475 436 0
34 -538 -882 0
922 -749 -287 0
111 -747 906 0
-492 -475 -685 0
-855 -653 -410 0
290 -690 735 0
-179 109 -53 0
-910 481 -745 0
232 -290 560 0
-223 -791 -633 0
656 903 -278 0
-469 -395 320 0
222 473 119 0
916 557 781 0
134 957 -352 0
325 -36 -219 0
361 -770 -544 0
-786 620 59 0
-968 343 338 0
775 -309 -251 0
-988 -703 678 0
446 -546 316 0
296 135 76 0
-288 -990 -703 0
788 882 -65 0
-229 -186 963 0
-958 -577 -395 0
94 360 239 0
-534 721 558 0
237 -383 -873 0
-396 -987 -277 0
568 -177 -168 0
118 -582 208 0
-361 -439 175 0
698 -734 -524 0
-461 -801 914 0
-177 -818 -598 0
356 566 -316 0
795 -715 -467 0
160 87 343 0
-515 -764 769 0
520 78 529 0
-550 -450 -120 0
-297 -180 874 0
-370 524 996 0
848 -750 688 0
459 677 -818 0
387 -875 -343 0
606 -621 -9 0
248 -724 -526 0
523 -989 823 0
529 -834 398 0
-557 433 341 0
183 -70 -152 0
-21 941 -782 0
-636 -919 -699 0
-432 -79 -233 0
-329 -160 462 0
-332 156 -647 0
817 115 -703 0
559 410 302 0
-717 984 453 0
639 -673 -285 0
334 941 655 0
710 -93 -253 0
415 -538 -790 0
417 -937 820 0
-850 -293 -162 0
878 -670 -807 0
-341 -384 977 0
824 -414 112 0
-428 426 -244 0
771 -613 583 0
-916 75 -631 0
-902 -4 164 0
-527 -200 -623 0
903 -238 89 0
758 730 -889 0
-747 -352 908 0
-735 442 572 0
838 -91 -293 0
31 -556 -873 0
-961 24 -278 0
-740 721 -271 0
-370 -890 -684 0
730 10 52 0
-346 797 906 0
-798 -863 483 0
451 -499 696 0
304 344 -50 0
374 278 895 0
-937 978 -116 0
562 -267 -850 0
-842 -985 34 0
181 880 -51 0
13 794 519 0
109 177 100 0
264 834 -488 0
-825 131 -87 0
-190 572 206 0
-384 -155 -595 0
800 -340 163 0
-584 -122 181 0
914 -446 365 0
-645 278 258 0
-174 -570 -62 0
-387 156 -121 0
716 260 -83 0
74 -183 -283 0
-889 -31 612 0
499 -905 -365 0
-530 58 -507 0
331 -745 128 0
-262 -966 -514 0
174 -784 760 0
311 -460 932 0
846 125 -504 0
296 -376 -220 0
393 -531 -605 0
-673 -422 -815 0
-545 -366 500 0
-371 -953 -302 0
419 -137 498 0
-196 -512 488 0
580 -509 887 0
-863 490 -904 0
381 -963 685 0
341 -51 -90 0
-732 -810 -875 0
-835 -300 -880 0
-79 -617 -988 0
793 843 942 0
-371 827 -225 0
-368 132 -88 0
-883 600 -149 0
-369 767 415 0
-272 498 12 0
670 -519 104 0
-892 -153 439 0
968 -223 -833 0
-27 -482 889 0
-235 -797 586 0
214 594 771 0
-669 -420 539 0
946 791 -257 0
595 -739 287 0
-523 -841 496 0
149 -322 165 0
688 -289 -448 0
-393 -906 685 0
460 -632 624 0
-643 -935 -434 0
-108 579 91 0
947 -336 -884 0
-990 -166 998 0
-821 664 405 0
255 -997 -387 0
-938 -187 -804 0
-265 -261 788 0
-504 -384 362 0
494 839 -986 0
516 374 -97 0
-348 547 -638 0
28 -22 246 0
-222 715 -480 0
-767 -321 939 0
487 -191 -255 0
342 -152 589 0
280 -594 -855 0
344 -165 -986 0
-659 858 70 0
-136 118 -659 0
797 489 -991 0
532 -639 892 0
413 126 236 0
-227 287 32 0
-954 731 -568 0
-946 311 -902 0
705 190 382 0
808 -8 -514 0
-584 -861 -663 0
66 -586 -185 0
670 -714 -605 0
893 -810 162 0
-871 749 -8 0
-250 -809 -825 0
692 256 -680 0
-920 -795 205 0
439 -916 -216 0
17 -463 730 0
-785 -747 -869 0
390 969 -950 0
-67 737 -28 0
484 777 -368 0
-605 266 -465 0
145 -183 -372 0
-495 -865 -805 0
-302 -471 -583 0
884 20 286 0
574 978 -158 0
-977 -384 525 0
340 -614 427 0
877 -954 -348 0
-593 -26 -498 0
-627 -97 -560 0
456 -233 -367 0
-937 -478 -284 0
288 518 307 0
953 475 -96 0
470 -300 -358 0
437 458 516 0
-22 -483 290 0
118 -312 967 0
-904 247 570 0
371 449 -928 0
592 -84 -459 0
185 -983 -68 0
-33 947 520 0
205 -53 45 0
202 355 -599 0
-946 -1 681 0
663 893 -754 0
-999 211 351 0
189 968 -794 0
896 -659 -512 0
566 577 237 0
-430 -801 -610 0
769 -833 883 0
983 127 533 0
274 507 -746 0
-878 -917 -256 0
-15 621 323 0
473 -91 -25 0
-565 265 839 0
88 -789 -902 0
-895 722 924 0
-763 -812 -208 0
244 970 -518 0
-835 -807 988 0
130 426 881 0
487 -483 -530 0
-535 477 584 0
-151 138 -365 0
847 -768 607 0
-508 330 45 0
458 416 -905 0
47 961 917 0
-892 -320 -180 0
570 -707 -949 0
-598 -243 -591 0
-702 659 -804 0
400 497 272 0
-62 -959 560 0
-322 588 297 0
970 -416 521 0
-724 -653 -616 0
-298 -271 -154 0
-897 -691 902 0
-574 444 323 0
-455 -41 34 0
-41 -337 380 0
722 319 -320 0
870 -703 938 0
-658 263 -896 0
344 -393 323 0
-679 -393 145 0
622 -726 135 0
-507 -715 292 0
-480 938 288 0
335 764 -169 0
598 -30 45 0
184 -351 -843 0
-577 -149 -11 0
844 169 -819 0
371 772 645 0
-433 763 949 0
-133 128 -322 0
822 679 -583 0
947 835 -529 0
-487 -105 207 0
611 291 -568 0
-344 -68 972 0
101 -149 364 0
-664 201 257 0
297 602 -254 0
-866 -983 585 0
-163 743 -304 0
-711 617 -120 0
-257 556 588 0
-923 -162 -403 0
-891 -5 -956 0
783 -439 -426 0
366 353 -957 0
27 -3 -69 0
544 -222 892 0
72 200 361 0
260 -514 -164 0
240 -552 -135 0
-334 551 683 0
-202 89 809 0
-383 863 -887 0
106 577 592 0
-702 237 534 0
710 -601 211 0
844 -254 272 0
-263 648 -163 0
172 -93 390 0
-224 -635 459 0
-661 328 155 0
553 -591 -100 0
513 722 -718 0
-167 520 853 0
50 -752 -828 0
390 255 -425 0
632 -944 -624 0
49 -205 -581 0
299 459 -733 0
-710 -36 139 0
528 -38 -602 0
-717 -157 268 0
52 753 -330 0
274 863 482 0
-728 -759 -241 0
-28 142 479 0
865 154 -552 0
-531 912 -730 0
-932 904 249 0
-797 -878 -143 0
90 318 517 0
-781 -387 -36 0
308 -477 -440 0
-352 867 393 0
89 10 765 0
497 -494 624 0
292 -245 197 0
-156 938 -95 0
786 188 -612 0
-372 815 171 0
-764 -790 -692 0
806 -710 664 0
-642 1000 911 0
395 103 -600 0
118 -644 39 0
625 -989 241 0
-458 412 -897 0
173 -832 272 0
532 -796 180 0
-781 -173 -805 0
122 826 -334 0
671 414 995 0
295 -462 482 0
320 -170 454 0
52 -951 547 0
-724 373 -164 0
-909 -832 610 0
-359 554 698 0
-18 951 -220 0
704 790 681 0
-306 -725 243 0
830 -373 17 0
75 528 248 0
497 -365 564 0
974 163 -656 0
-441 738 -257 0
-665 787 7 0
-368 -761 -507 0
268 -498 -589 0
515 -250 -172 0
-967 302 443 0
833 -756 865 0
-356 -675 212 0
924 -428 848 0
738 -782 -304 0
281 -722 588 0
-870 633 474 0
156 252 923 0
-442 -728 144 0
582 824 671 0
-328 -217 -63 0
419 238 -720 0
631 842 -747 0
-531 -878 -792 0
-594 526 -99 0
144 -828 781 0
228 -908 -691 0
575 -892 38 0
-910 847 64 0
-967 -922 26 0
511 -830 870 0
505 262 141 0
352 -269 125 0
-923 372 -510 0
13 -159 -138 0
191 482 880 0
857 -209 -223 0
-196 -466 -984 0
492 734 378 0
547 186 -175 0
948 -970 -202 0
-998 850 -550 0
779 209 -91 0
-104 841 525 0
-689 -595 135 0
-126 204 -320 0
-286 -710 476 0
174 798 -558 0
7 -376 -30 0
-704 -557 420 0
253 347 -714 0
706 -670 -648 0
-203 379 598 0
-948 277 353 0
151 811 -755 0
892 322 981 0
-185 -918 454 0
-460 801 86 0
298 60 -885 0
-515 450 -43 0
-78 -572 -417 0
925 564 -80 0
-319 -330 -996 0
581 -748 -689 0
698 -849 -254 0
719 870 -698 0
-846 -104 -767 0
-970 -359 981 0
949 -261 5 0
-966 -611 -772 0
53 -996 -890 0
944 433 447 0
-858 705 -639 0
35 791 -292 0
929 -515 -616 0
-331 837 820 0
6 710 -563 0
-541 511 -731 0
-603 224 982 0
-84 -954 124 0
46 -806 -363 0
493 271 -62 0
456 509 -329 0
50 -232 -365 0
-450 -529 688 0
-690 -149 410 0
-755 -221 -2 0
67 769 280 0
49 -435 753 0
-922 -471 454 0
6 -988 245 0
180 700 51 0
-994 941 825 0
912 -50 -884 0
315 461 -448 0
-707 -728 -809 0
-819 -652 801 0
-449 633 -868 0
-687 597 -352 0
-280 170 174 0
119 560 -303 0
-351 -252 -330 0
298 -771 884 0
368 235 -971 0
-521 720 495 0
534 -206 213 0
-131 -375 744 0
887 -36 87 0
748 156 65 0
32 498 993 0
-67 990 210 0
37 -413 -666 0
-3 -108 -830 0
-821 -868 -355 0
82 226 112 0
34 672 497 0
759 890 -578 0
-447 -43 683 0
-49 -831 -501 0
-387 225 605 0
-542 861 25 0
644 -902 -911 0
-139 -174 -380 0
901 -686 -482 0
366 -857 -762 0
812 -684 -836 0
-239 -571 556 0
527 600 -181 0
508 -137 692 0
-141 945 83 0
-635 312 931 0
780 -239 -813 0
982 -316 -813 0
-330 86 322 0
717 637 845 0
432 -626 890 0
316 -842 957 0
-211 232 -740 0
-983 -931 161 0
377 -897 -702 0
-631 -440 -917 0
646 708 -252 0
-561 303 693 0
-651 42 82 0
539 -442 114 0
-126 368 -891 0
547 2 166 0
45 933 699 0
315 -728 -137 0
-643 -1 -812 0
-1 106 -376 0
120 660 -965 0
-74 644 -564 0
308 518 325 0
-638 -595 -956 0
-923 338 209 0
-365 669 -806 0
634 -510 -79 0
308 874 154 0
590 -74 719 0
-794 761 -838 0
842 -983 253 0
-705 943 728 0
-183 957 527 0
627 -778 217 0
339 451 507 0
-974 715 449 0
-26 280 450 0
679 986 -109 0
-819 -246 -429 0
639 559 857 0
692 977 637 0
-484 197 439 0
-242 117 428 0
-759 537 505 0
-816 -428 973 0
231 190 -11 0
600 -768 228 0
614 -608 549 0
648 696 -634 0
53 267 -214 0
-930 804 -512 0
-860 976 -445 0
410 -389 -680 0
244 385 -308 0
781 -344 980 0
-316 10 562 0
486 -943 -751 0
779 707 179 0
-463 631 339 0
-494 -944 442 0
-699 700 -47 0
693 341 -202 0
-539 390 214 0
32 339 664 0
-36 241 -866 0
849 -74 -349 0
-600 108 269 0
-255 -718 -336 0
663 903 500 0
-677 -276 -315 0
495 215 831 0
-987 582 -464 0
519 61 420 0
-5 131 -334 0
786 444 -302 0
467 -355 740 0
-551 779 352 0
530 -813 -288 0
320 258 824 0
492 237 324 0
964 -389 15 0
127 558 391 0
564 -697 -746 0
771 -861 663 0
942 -376 601 0
127 -568 419 0
-929 100 449 0
-80 -59 699 0
-581 229 424 0
-147 -434 845 0
847 -927 -149 0
-656 219 -265 0
288 516 225 0
174 -85 -749 0
-378 -781 -102 0
575 -249 280 0
-555 721 782 0
796 786 -339 0
718 -947 273 0
-594 -517 -287 0
176 398 -395 0
-479 8 -941 0
323 -648 82 0
-403 775 221 0
-858 383 -751 0
-820 221 974 0
-396 -814 599 0
-771 -458 616 0
885 990 -952 0
-929 952 338 0
189 414 88 0
-818 106 -248 0
17 717 -139 0
771 142 -269 0
851 -517 805 0
139 -356 -41 0
-403 -776 -87 0
553 -902 2 0
812 108 698 0
426 184 545 0
477 474 174 0
545 325 -33 0
868 -859 -316 0
-721 -414 975 0
-772 -458 193 0
-501 494 -404 0
-859 -621 -788 0
415 490 -729 0
-17 310 881 0
730 -228 -457 0
551 387 -740 0
-691 321 -326 0
-777 -768 -390 0
565 -568 -29 0
625 -502 339 0
867 -388 657 0
874 -451 100 0
-226 943 -322 0
371 -202 273 0
105 -830 -498 0
-19 790 135 0
-205 7 502 0
768 -296 -436 0
639 346 141 0
-637 -954 -762 0
221 -974 550 0
-118 -68 650 0
349 412 353 0
472 329 401 0
253 -446 -210 0
-70 177 -506 0
906 553 -893 0
-368 -233 318 0
-784 77 435 0
-952 890 505 0
-779 -673 175 0
-264 904 -761 0
822 -86 272 0
-331 571 744 0
-520 933 -902 0
769 749 798 0
-685 181 -932 0
280 204 145 0
-826 92 -285 0
229 -588 225 0
141 -661 920 0
890 -9 20 0
242 -828 -279 0
207 -18 529 0
-464 90 451 0
-233 -269 938 0
678 -276 -426 0
-755 744 680 0
83 -12 588 0
696 -289 325 0
800 -688 116 0
99 902 715 0
686 -556 530 0
-95 731 -960 0
872 -596 481 0
561 -82 461 0
-832 898 251 0
-554 442 -933 0
809 833 -687 0
941 -11 -390 0
309 -183 -204 0
-440 354 -424 0
300 301 663 0
891 -455 -385 0
-310 -810 -83 0
-839 -837 188 0
594 165 500 0
599 -739 861 0
439 200 923 0
528 138 425 0
706 94 -655 0
-2 -803 -337 0
-653 961 -43 0
297 101 -114 0
386 -602 466 0
798 479 -168 0
282 -76 -827 0
439 128 -240 0
-755 -796 799 0
917 583 696 0
764 822 360 0
-936 -933 -286 0
-296 -917 -644 0
-143 -709 577 0
-432 749 240 0
-149 -515 385 0
-238 416 -830 0
-482 306 -90 0
768 809 -929 0
198 895 696 0
-96 -634 -702 0
553 -104 206 0
520 -737 336 0
-648 -114 -799 0
-80 342 -982 0
864 -458 895 0
495 -379 438 0
775 997 -163 0
466 743 341 0
-728 309 710 0
302 -661 281 0
272 -558 506 0
20 52 47 0
464 468 -758 0
493 -810 877 0
-635 -173 -801 0
-19 -412 359 0
533 -357 -491 0
-192 -124 509 0
-966 417 520 0
-687 751 253 0
278 88 375 0
197 897 407 0
-413 42 -941 0
811 -927 837 0
12 30 -9 0
-519 -423 860 0
-389 700 746 0
347 -416 969 0
-474 777 -450 0
691 -131 380 0
-626 -373 -490 0
935 -702 108 0
-973 901 780 0
-529 -750 332 0
624 659 -333 0
207 357 539 0
911 -818 403 0
-715 457 -380 0
249 252 -345 0
-795 876 -325 0
158 471 -35 0
-248 301 -738 0
-797 -448 -132 0
-391 -363 -689 0
72 363 649 0
-118 -872 919 0
-815 762 51 0
-356 -6 280 0
-647 -579 -678 0
-217 387 97 0
21 -984 -125 0
602 -255 -577 0
-98 489 668 0
-495 229 744 0
-424 -489 -504 0
808 637 -472 0
-222 437 9 0
-814 -529 293 0
-244 435 -866 0
836 79 -176 0
-430 -829 -434 0
940 -901 -188 0
787 300 672 0
-43 -303 -939 0
839 177 49 0
950 630 -931 0
592 710 -8 0
-910 -630 -969 0
422 151 -432 0
-727 435 181 0
-374 -297 383 0
-556 620 405 0
-483 792 -880 0
697 538 252 0
864 -859 803 0
313 993 20 0
923 -369 -785 0
-510 466 210 0
50 -935 -78 0
-169 599 -207 0
-670 914 -388 0
-752 -801 -682 0
-854 -898 375 0
-674 404 685 0
101 -326 -169 0
-397 -724 79 0
121 489 412 0
-440 -34 -272 0
954 279 226 0
-238 -603 652 0
-159 -158 -248 0
-992 -372 -591 0
-7 -293 -287 0
392 332 -710 0
-532 -448 58 0
791 238 724 0
290 465 37 0
200 -380 -359 0
924 -517 565 0
-807 -950 376 0
514 393 -67 0
617 -474 463 0
892 -520 -447 0
462 -630 -981 0
264 169 -609 0
533 -916 993 0
-523 -371 981 0
-806 386 -305 0
53 -780 -21 0
9 -419 -739 0
734 -117 443 0
-117 -751 -790 0
-902 525 248 0
-22 -547 -670 0
-755 905 542 0
214 -645 122 0
-247 -795 -724 0
-655 251 -900 0
-163 776 -793 0
-392 -709 552 0
595 -643 -36 0
-887 119 -307 0
526 19 729 0
3 -723 249 0
-808 -470 20 0
943 445 -582 0
427 794 -117 0
474 907 571 0
186 -742 482 0
650 552 358 0
-405 -245 810 0
343 -1 509 0
558 692 -342 0
384 -434 248 0
358 -491 -651 0
802 -492 -128 0
-382 872 -32 0
81 -434 -576 0
-891 972 491 0
612 -348 -294 0
783 524 978 0
-186 -755 580 0
405 -550 -656 0
62 -146 203 0
-348 -243 -221 0
-412 358 871 0
-973 821 -142 0
491 -965 148 0
12 364 -75 0
-110 334 951 0
-716 -524 460 0
-122 516 -909 0
-390 -943 -403 0
18 797 478 0
-157 26 994 0
264 -907 -756 0
858 -628 135 0
282 890 -928 0
-825 -155 966 0
-327 -345 317 0
-453 673 -12 0
-994 291 402 0
48 -726 -641 0
-867 -569 -47 0
700 -103 -984 0
-580 -220 917 0
-673 -970 582 0
-824 -408 614 0
624 905 911 0
-725 515 911 0
-126 207 192 0
436 -51 536 0
365 394 -437 0
184 430 59 0
709 457 -531 0
-94 -50 241 0
56 -912 -833 0
-34 -594 -587 0
-219 -426 -890 0
-550 864 -798 0
-742 -120 988 0
-374 -889 -592 0
399 -854 49 0
-719 942 -416 0
671 772 380 0
-784 375 628 0
955 920 -914 0
-786 405 -16 0
-713 755 156 0
186 324 -714 0
-968 566 -208 0
-126 -458 -257 0
944 -494 -249 0
-668 995 877 0
-859 -680 -369 0
776 -794 411 0
416 -172 -807 0
97 -744 317 0
-707 435 844 0
-11 784 -866 0
-523 421 -549 0
-278 -767 -877 0
-21 -145 490 0
-946 -794 -458 0
-679 461 359 0
-267 450 -835 0
694 870 -201 0
238 222 -89 0
-470 -746 908 0
-476 -349 660 0
-837 483 -441 0
-856 791 270 0
-893 762 831 0
-170 -815 -835 0
300 -335 715 0
283 10 -304 0
-21 -201 -343 0
-323 -570 885 0
739 797 141 0
-205 -397 741 0
334 690 -772 0
-812 232 -156 0
-846 111 425 0
695 573 339 0
521 817 396 0
-867 -166 436 0
-927 480 181 0
760 -163 -217 0
302 -640 724 0
537 404 -867 0
-488 -19 -428 0
-219 671 -948 0
-414 613 -758 0
660 -353 -528 0
-215 678 148 0
151 775 923 0
208 588 300 0
763 -810 -132 0
-67 -138 913 0
-587 138 915 0
542 835 350 0
-449 -938 -246 0
-134 364 -1000 0
242 -233 116 0
535 -682 281 0
781 241 548 0
347 502 -490 0
-794 784 588 0
909 35 666 0
745 -89 308 0
202 -711 -600 0
363 18 -593 0
57 -427 263 0
-708 -483 292 0
-999 206 -465 0
-950 388 -583 0
532 -822 838 0
-200 -188 -821 0
-125 -619 107 0
962 -527 -85 0
-505 -415 -992 0
-878 -670 41 0
-275 -640 -841 0
72 464 -881 0
-433 -150 259 0
508 226 -906 0
-544 -848 535 0
-972 664 -997 0
-132 -660 -404 0
-615 731 -458 0
-591 -691 879 0
-254 -144 828 0
-978 -601 399 0
790 -950 828 0
-506 -731 -216 0
645 -720 260 0
-475 337 -768 0
196 -69 -99 0
-473 634 194 0
8 97 844 0
308 -142 -763 0
229 -753 -980 0
570 -379 618 0
524 831 -26 0
883 -674 406 0
-95 -925 -235 0
-365 404 -712 0
806 -320 779 0
668 173 -507 0
676 271 7 0
-15 -905 943 0
-854 -263 -306 0
739 772 -990 0
-838 -926 232 0
-846 -760 225 0
-677 971 151 0
292 -968 679 0
652 341 107 0
-662 -473 900 0
-655 904 134 0
-838 -212 -983 0
105 812 -982 0
-620 828 -689 0
524 492 -974 0
-698 -749 -987 0
226 958 -563 0
-657 -559 -18 0
-746 -903 978 0
637 -424 895 0
-27 -247 614 0
-778 -788 -328 0
769 121 -496 0
-633 -260 -571 0
986 -237 892 0
551 934 556 0
-956 -899 602 0
53 -120 606 0
12 870 834 0
669 -974 -244 0
528 -132 357 0
882 -776 688 0
-236 178 711 0
246 -476 -189 0
-505 35 -750 0
-739 702 -717 0
680 943 633 0
775 286 -422 0
91 -678 758 0
-820 453 -950 0
994 -817 130 0
385 -116 326 0
-226 653 -889 0
768 -866 -550 0
