p cnf 1000 2800
560 129 -530 0
343 -101 541 0
692 -133 -297 0
-984 -849 811 0
-571 -180 -962 0
663 195 -380 0
597 172 -960 0
85 135 -45 0
745 -667 -723 0
648 -231 801 0
-73 797 -676 0
210 296 455 0
761 -515 -492 0
472 -723 303 0
-360 196 274 0
111 370 -533 0
-748 -543 -265 0
729 -539 -179 0
710 -975 639 0
857 483 -439 0
-439 636 879 0
-501 -724 680 0
232 -51 -986 0
794 569 601 0
-631 570 869 0
32 -406 165 0
59 -638 533 0
417 -508 289 0
-652 -701 -279 0
-711 399 -553 0
-987 53 268 0
595 -558 -360 0
-10 -262 -14 0
-799 866 -499 0
-583 -637 462 0
266 798 -826 0
217 -793 -249 0
-132 -918 -776 0
335 96 -723 0
552 572 -434 0
533 119 811 0
805 487 -214 0
-386 733 908 0
195 136 -522 0
292 496 -984 0
-764 104 -851 0
-702 -291 -263 0
307 795 598 0
582 901 -576 0
396 549 64 0
829 -367 946 0
379 -828 813 0
-80 -458 -821 0
944 750 -70 0
586 150 -251 0
-69 534 758 0
-309 520 -221 0
724 -544 -923 0
-967 -269 -8 0
-880 -371 -581 0
722 -390 558 0
53 -498 -901 0
-29 950 -667 0
396 -619 424 0
345 421 274 0
-371 793 -71 0
515 745 978 0
-925 564 -176 0
-788 560 737 0
-511 811 940 0
-483 569 -672 0
400 -423 -797 0
36 -145 714 0
600 -156 -10 0
-950 -641 -362 0
862 935 -584 0
919 642 -619 0
117 338 -957 0
-669 519 892 0
676 -33 422 0
-798 253 -433 0
-654 -33 831 0
-279 -122 -50 0
-156 -675 763 0
22 927 -673 0
656 -226 695 0
-286 -551 -609 0
706 908 745 0
-583 -178 -590 0
-348 441 714 0
492 -72 803 0
583 -44 -742 0
-621 498 -753 0
770 636 -266 0
447 517 828 0
-77 516 431 0
-502 -270 340 0
-835 165 181 0
970 392 -833 0
491 -84 761 0
-997 321 829 0
-357 921 -582 0
197 750 -781 0
-811 188 -94 0
346 -500 97 0
-916 984 -160 0
9 -77 737 0
-232 -911 -906 0
508 -644 -172 0
-348 -493 -9 0
560 195 -748 0
7 -606 -322 0
36 754 876 0
-792 -823 266 0
487 102 -506 0
-349 152 852 0
665 66 125 0
215 -416 -67 0
768 602 514 0
-842 -723 477 0
-581 981 -887 0
-563 599 -325 0
408 979 -94 0
-581 -309 609 0
-745 -142 -463 0
-747 -108 -875 0
255 -45 449 0
243 -873 -336 0
-903 366 -165 0
-765 -694 787 0
392 -284 -197 0
227 738 828 0
-588 994 963 0
-688 -179 448 0
-950 -205 800 0
-583 -27 154 0
-2 702 -532 0
806 -850 -9 0
994 591 24 0
-167 577 -504 0
201 -128 -987 0
-861 414 -389 0
708 843 -173 0
702 -906 -496 0
869 -686 -9 0
791 -380 431 0
777 -121 974 0
289 -464 703 0
-816 505 -272 0
-724 -594 -190 0
-2 -334 -613 0
-215 -330 -288 0
-221 -270 390 0
-583 -493 812 0
-622 -980 292 0
-542 709 -611 0
-469 -54 -540 0
761 -351 -294 0
138 469 -98 0
-696 406 594 0
194 503 386 0
908 639 -110 0
582 -915 47 0
-156 -336 -768 0
556 -833 -682 0
733 -758 -523 0
829 735 142 0
-381 -303 -180 0
-408 -520 462 0
-59 758 -6 0
-257 724 385 0
109 -690 339 0
988 -364 478 0
905 -674 31 0
755 96 -290 0
-576 -896 -145 0
-65 60 -480 0
-648 52 135 0
296 520 693 0
-539 132 -83 0
843 -934 902 0
-165 -450 929 0
963 -297 -805 0
795 489 32 0
50 -283 371 0
-947 -428 -955 0
-691 977 -962 0
631 299 -524 0
-833 497 586 0
-400 121 431 0
-229 -510 145 0
933 -225 -464 0
329 463 365 0
590 -647 93 0
555 648 291 0
816 -123 683 0
-149 -606 203 0
-36 357 -223 0
503 662 -175 0
-374 228 -688 0
720 -205 651 0
-26 48 -300 0
-839 -700 -150 0
433 -732 -797 0
246 662 -634 0
486 933 -265 0
393 -878 -503 0
-278 621 -162 0
590 147 74 0
-1000 -727 831 0
-410 -726 958 0
-919 -576 735 0
-57 936 -753 0
-536 728 577 0
-33 416 -718 0
-800 -679 -128 0
-962 754 980 0
-91 -248 168 0
789 648 468 0
541 -399 194 0
253 865 960 0
157 876 -539 0
930 570 729 0
465 528 447 0
67 -669 -74 0
-194 -651 -72 0
30 -163 892 0
556 358 -949 0
-615 -337 348 0
280 -179 403 0
610 555 822 0
917 -83 429 0
-976 428 458 0
468 -150 -76 0
-694 675 383 0
98 -758 565 0
690 -735 -618 0
689 -160 -609 0
473 435 438 0
182 -710 -288 0
-948 -770 -571 0
913 -17 599 0
713 977 -69 0
903 114 804 0
821 283 264 0
-730 -199 982 0
-76 -632 333 0
-949 -662 879 0
-767 -666 675 0
-549 -710 258 0
795 550 853 0
-304 262 -501 0
-702 316 864 0
-809 -463 823 0
341 269 733 0
-582 28 412 0
41 -925 674 0
-784 -952 45 0
-474 -767 -675 0
690 313 585 0
91 -951 303 0
-362 148 -131 0
618 892 579 0
-649 350 7 0
-370 50 -471 0
952 427 223 0
-219 -660 -90 0
135 218 -594 0
585 570 479 0
-485 -136 902 0
863 -705 -960 0
846 585 769 0
-373 986 271 0
222 -48 594 0
901 -670 -499 0
900 859 903 0
956 -606 -755 0
-903 572 -691 0
789 -825 587 0
-59 234 -967 0
-331 387 -68 0
-920 158 781 0
410 -83 856 0
508 -700 -607 0
337 759 100 0
838 710 -653 0
495 105 -649 0
-770 866 363 0
850 -286 896 0
-655 -827 -140 0
-10 52 -662 0
847 873 -213 0
530 -15 -202 0
496 -360 123 0
-212 -368 462 0
-762 753 954 0
657 495 964 0
-244 -602 485 0
24 152 -80 0
830 -179 389 0
-713 879 983 0
-224 340 -490 0
-276 -769 -368 0
348 -899 -251 0
328 46 -249 0
-271 -213 867 0
-711 206 -388 0
-759 -51 -915 0
809 -643 -869 0
-215 637 -802 0
264 -288 926 0
992 -363 -483 0
223 549 929 0
-690 847 552 0
-921 -950 39 0
-524 -296 366 0
-100 725 937 0
-544 -77 388 0
943 -901 630 0
-371 265 36 0
-24 613 -109 0
-204 415 -38 0
541 -124 -164 0
545 -442 788 0
-851 -407 -742 0
349 716 208 0
-543 -28 45 0
859 942 -753 0
369 -206 802 0
-508 -258 -959 0
-458 -81 650 0
672 -735 414 0
-317 -320 -185 0
-139 -564 -85 0
-345 181 -290 0
460 967 96 0
-543 986 -978 0
711 709 137 0
-702 5 281 0
-518 663 263 0
-85 501 179 0
837 -855 268 0
-50 -907 -928 0
751 283 -62 0
-752 -238 371 0
-586 422 -528 0
575 669 -401 0
-112 556 -128 0
-481 369 -19 0
556 803 529 0
990 -702 -670 0
405 -66 372 0
-533 61 959 0
-86 -248 -295 0
750 -74 -128 0
352 553 539 0
581 258 945 0
284 818 554 0
853 910 221 0
-747 22 -158 0
20 139 -251 0
-360 569 -25 0
556 -858 -747 0
-266 -264 544 0
-119 677 -181 0
923 759 -499 0
-939 -258 490 0
48 -626 933 0
-673 -962 34 0
932 172 -47 0
-128 565 30 0
84 -814 -566 0
-947 797 606 0
-347 -968 127 0
-318 521 624 0
114 -21 731 0
-385 -66 -561 0
-900 -146 551 0
47 -985 912 0
-331 -795 747 0
-551 -589 114 0
-399 -981 -616 0
529 -699 689 0
170 -55 529 0
-333 435 844 0
-342 511 -230 0
-603 -825 -929 0
326 2 409 0
83 -229 -304 0
-274 316 159 0
-204 -865 77 0
910 -898 252 0
857 747 -794 0
999 -138 100 0
-294 120 965 0
470 182 535 0
262 -573 566 0
-922 769 -907 0
-293 -493 753 0
258 -869 -324 0
342 734 -242 0
545 556 -909 0
-773 -787 -233 0
-810 497 666 0
-418 971 -168 0
585 -72 -426 0
548 889 -313 0
704 -503 519 0
-995 -640 -423 0
-203 -55 22 0
6 -233 -613 0
-471 12 -401 0
552 -763 -699 0
663 626 -342 0
-678 -509 976 0
-1 -986 -205 0
480 -640 -420 0
-70 919 -989 0
-373 298 177 0
600 -804 -364 0
246 -379 732 0
-57 948 -536 0
956 133 551 0
453 677 -172 0
-169 -143 -491 0
-635 631 -884 0
256 35 160 0
-882 956 300 0
52 880 553 0
281 -808 -359 0
-398 -600 -153 0
-161 -140 -918 0
880 368 -519 0
293 352 550 0
-523 -211 -466 0
-799 542 628 0
399 933 -85 0
-22 -211 -195 0
391 -416 -857 0
-209 -746 303 0
-527 223 21 0
506 425 243 0
887 -954 257 0
675 807 -583 0
589 868 144 0
-809 -143 -702 0
342 -961 386 0
-997 -948 979 0
-674 -426 52 0
760 -75 483 0
666 732 101 0
-410 2 399 0
-772 -946 -196 0
307 423 313 0
-764 -224 708 0
-904 -277 309 0
386 -398 -67 0
-455 859 521 0
-959 236 189 0
-639 -60 -294 0
309 266 807 0
175 -812 -818 0
-652 492 252 0
-432 -991 -120 0
-332 -492 -171 0
78 950 220 0
427 -454 287 0
466 995 -463 0
-141 -946 157 0
626 20 526 0
-597 -638 -657 0
801 -968 659 0
690 367 319 0
970 919 -300 0
507 958 -373 0
-618 656 340 0
434 -554 -423 0
-989 156 -87 0
928 -834 586 0
967 650 -465 0
-388 478 -695 0
-929 890 -601 0
685 135 -595 0
105 475 114 0
5 15 -458 0
-815 -816 -822 0
-156 -951 868 0
355 -116 -259 0
663 -515 -843 0
-164 63 -185 0
974 -65 151 0
91 -65 108 0
-668 -232 810 0
-217 779 -208 0
148 -464 -173 0
-746 804 356 0
-328 608 879 0
-791 -511 62 0
-193 -961 184 0
102 483 872 0
-195 716 -516 0
-417 -781 831 0
18 -589 638 0
691 -173 518 0
579 211 -13 0
503 -314 -107 0
471 -193 842 0
70 -713 581 0
-437 -929 719 0
-791 709 316 0
165 -338 210 0
-200 922 -929 0
-602 611 930 0
449 -963 -603 0
-199 -342 -679 0
-801 92 261 0
47 959 761 0
-982 373 55 0
570 352 -665 0
908 -830 -182 0
-389 -91 -130 0
45 699 -120 0
-92 815 758 0
162 -682 -780 0
-288 -478 286 0
-171 14 -556 0
144 -534 21 0
-889 894 -474 0
-649 -511 -149 0
156 949 -473 0
467 -115 938 0
848 598 587 0
-412 861 -476 0
488 -753 324 0
825 124 693 0
-72 -53 -996 0
-337 -394 468 0
737 531 504 0
-647 -238 294 0
-58 544 -886 0
-808 -976 326 0
-804 -193 413 0
665 -658 647 0
922 -901 54 0
-727 394 566 0
-205 250 -260 0
989 -524 -483 0
-947 -814 823 0
-722 -857 947 0
332 -951 -671 0
-766 490 -672 0
-492 -342 -939 0
-789 861 -261 0
559 293 300 0
302 799 -486 0
-360 688 -818 0
-158 -931 -803 0
364 250 -677 0
-108 -286 744 0
149 -528 -142 0
743 861 227 0
155 -920 -203 0
921 407 -3 0
-759 916 -644 0
-244 42 503 0
-632 -467 -280 0
-995 492 -281 0
-386 662 228 0
455 723 507 0
715 -243 -405 0
703 -728 913 0
707 701 164 0
-367 -496 336 0
495 279 -89 0
-635 -709 506 0
476 -921 -807 0
-132 290 -995 0
-280 869 770 0
-138 -943 978 0
340 135 574 0
-632 143 63 0
-783 -262 566 0
-927 -188 822 0
-170 -553 331 0
792 -836 -910 0
481 807 139 0
-869 -818 -682 0
-766 -822 772 0
-92 -944 -591 0
564 997 788 0
895 244 -100 0
-399 879 993 0
-474 550 180 0
-841 -443 -543 0
536 -203 317 0
988 -520 574 0
177 292 -239 0
-150 366 -140 0
850 -961 543 0
451 -587 -779 0
599 559 829 0
-655 587 23 0
-832 -567 -88 0
598 -523 -241 0
-216 743 -969 0
852 -485 -638 0
763 -52 -436 0
-621 -873 -28 0
536 -658 -329 0
-250 -348 -913 0
159 255 -910 0
-28 91 -108 0
-984 -27 -329 0
-254 26 -433 0
283 636 517 0
232 -266 445 0
-692 324 549 0
738 -866 -974 0
954 -807 -358 0
597 -104 64 0
945 218 -523 0
982 -472 697 0
-758 423 -837 0
114 247 31 0
-884 269 -820 0
-457 357 -405 0
-176 -952 -295 0
-806 -138 -890 0
-564 223 512 0
960 -227 -410 0
638 802 -946 0
-811 -45 244 0
-285 -311 595 0
167 -833 -305 0
-997 -37 -968 0
232 -54 550 0
110 -434 317 0
140 809 -986 0
115 396 430 0
-539 -981 607 0
-375 -272 -813 0
-669 -575 574 0
1000 967 -293 0
842 980 -19 0
-834 -174 -733 0
-298 -161 -611 0
411 -230 572 0
951 126 421 0
479 791 70 0
331 282 -394 0
-624 -499 -546 0
-431 -99 141 0
-380 100 -299 0
8 798 918 0
58 -839 885 0
409 -921 925 0
-284 258 -385 0
644 376 320 0
-486 -715 49 0
-583 -736 659 0
-858 -119 507 0
806 454 -561 0
-427 -371 756 0
446 -451 -833 0
-989 609 -197 0
-580 144 -97 0
-526 765 776 0
-688 -419 246 0
557 -410 -300 0
847 -901 -632 0
801 632 -987 0
154 601 -993 0
-913 -711 -481 0
863 -220 752 0
-16 339 396 0
-437 45 13 0
-660 166 747 0
601 44 689 0
486 -715 517 0
-278 632 877 0
643 -883 -691 0
594 588 -831 0
575 409 209 0
-533 974 -200 0
-492 -843 -790 0
20 -264 -230 0
-934 860 180 0
773 851 -609 0
640 -87 862 0
-187 932 -529 0
150 573 477 0
-512 -50 -164 0
-255 871 -793 0
364 581 -443 0
-858 310 -940 0
-709 722 890 0
-971 882 309 0
931 941 -181 0
74 401 899 0
610 886 -588 0
859 651 657 0
-448 -783 237 0
606 -547 600 0
-808 619 549 0
16 651 -182 0
-725 -445 -242 0
58 737 -271 0
-414 -432 -211 0
866 -718 30 0
-224 370 549 0
-132 -18 -334 0
667 303 -348 0
-257 -674 -289 0
508 576 -699 0
-90 -605 -286 0
273 753 163 0
-483 837 292 0
895 -844 -367 0
406 128 -608 0
5 706 869 0
-988 -672 996 0
266 -505 604 0
-609 439 53 0
610 -284 -427 0
70 -690 -689 0
282 -685 439 0
-915 481 -988 0
-637 851 -803 0
-980 275 185 0
461 -311 -637 0
622 -259 -850 0
-838 -906 703 0
773 90 660 0
-333 483 -841 0
170 -446 674 0
-84 -694 567 0
-600 -521 -288 0
-791 352 -67 0
-172 922 -938 0
-971 538 -438 0
392 -607 -454 0
34 274 720 0
790 627 -755 0
227 959 212 0
391 -351 520 0
-126 -520 822 0
80 670 -792 0
518 498 824 0
997 479 -588 0
-195 -206 -123 0
431 194 -923 0
-543 713 629 0
-609 895 -443 0
-106 -17 657 0
-152 762 559 0
-797 968 697 0
-735 775 -980 0
5 337 -552 0
-573 -491 346 0
855 712 -559 0
134 -218 164 0
-409 815 674 0
-737 680 577 0
238 -989 440 0
296 653 544 0
-502 376 416 0
15 347 -933 0
-937 590 -69 0
-730 915 -744 0
-121 -40 307 0
451 432 -50 0
-368 804 287 0
753 -731 362 0
283 835 -429 0
19 197 -315 0
66 -989 -223 0
-538 -848 -654 0
980 146 370 0
-357 -573 -154 0
-257 408 -691 0
-402 -596 -979 0
-486 984 73 0
97 875 155 0
139 816 -705 0
-890 353 -509 0
838 779 493 0
-389 375 -299 0
-708 61 751 0
-727 -859 284 0
-105 -154 -445 0
-23 240 -501 0
118 -378 -609 0
23 -332 295 0
-811 230 318 0
-346 -562 -442 0
641 935 326 0
-548 127 -824 0
362 -858 -638 0
-363 -922 105 0
646 584 705 0
-227 948 547 0
167 -660 49 0
-475 -757 632 0
416 -233 523 0
605 617 -430 0
237 723 -488 0
-487 -355 -334 0
-322 -500 848 0
-905 485 789 0
-650 -872 614 0
212 -623 305 0
-898 225 -401 0
-193 799 -623 0
327 -887 -938 0
-861 -19 967 0
864 -81 754 0
-708 -825 730 0
-696 -852 966 0
-381 -154 519 0
-728 325 611 0
-907 -412 319 0
517 -43 778 0
-747 462 -99 0
533 -787 -910 0
-103 -748 -698 0
778 -797 167 0
555 745 436 0
355 -486 578 0
94 977 742 0
-243 -660 954 0
226 -101 955 0
785 -131 -654 0
381 987 -760 0
-928 -846 -702 0
720 -311 -265 0
907 549 129 0
526 -394 954 0
-974 981 652 0
-100 -614 -600 0
-123 -5 2 0
-776 217 -127 0
-983 96 981 0
-764 -808 -768 0
482 -450 -759 0
828 -422 -14 0
116 441 -536 0
-439 -280 408 0
729 -632 579 0
515 -500 490 0
-577 -694 449 0
691 -48 584 0
76 -91 -973 0
-304 -621 968 0
-289 812 329 0
-180 -927 -518 0
134 -720 703 0
973 161 -244 0
41 322 -377 0
-259 -977 367 0
849 -631 798 0
-265 -611 -271 0
774 214 491 0
450 231 569 0
10 529 -694 0
232 -371 394 0
923 -607 979 0
-671 93 6 0
586 -939 780 0
-480 -750 -236 0
645 -77 299 0
346 239 -762 0
406 -373 914 0
999 -7 -790 0
299 -202 -773 0
-39 612 -135 0
-875 357 -965 0
-272 935 -627 0
690 227 -960 0
849 782 990 0
99 864 213 0
-907 572 -497 0
116 893 239 0
-899 932 -976 0
587 -501 -114 0
-540 271 -707 0
737 50 -427 0
358 231 -493 0
457 333 842 0
129 -587 -425 0
-301 244 -453 0
-144 -890 -903 0
583 400 933 0
536 -241 199 0
123 548 803 0
362 -818 -735 0
383 -154 654 0
-167 224 783 0
-154 566 -925 0
-276 -447 780 0
-740 654 716 0
-212 763 -616 0
-352 456 158 0
275 -423 530 0
537 -519 -827 0
-494 -576 -526 0
-488 -976 342 0
387 -854 -378 0
391 -702 173 0
-455 801 848 0
477 317 345 0
-730 -514 201 0
-323 -845 198 0
230 611 -256 0
956 510 626 0
317 114 -838 0
508 419 303 0
-38 -92 -788 0
-167 568 661 0
-490 218 -841 0
103 546 907 0
-441 -905 -347 0
25 344 463 0
751 -921 599 0
-369 -413 725 0
524 997 469 0
-553 -850 -147 0
-773 -86 507 0
449 785 -415 0
119 858 -929 0
670 730 649 0
-778 831 726 0
986 657 579 0
-718 -910 -917 0
-222 -485 -69 0
840 -366 -583 0
730 -586 330 0
937 -391 630 0
746 -657 891 0
-538 -760 -143 0
-219 436 -81 0
-193 47 836 0
255 -549 646 0
-586 389 -693 0
-219 606 -474 0
768 425 -951 0
481 498 70 0
-752 181 -258 0
765 -720 -433 0
-748 -607 690 0
375 589 -129 0
-148 -806 203 0
733 227 -670 0
658 393 949 0
337 151 -718 0
61 -254 -798 0
730 -424 -103 0
441 -646 464 0
350 -75 -137 0
814 375 -82 0
-929 70 -431 0
-832 731 -714 0
856 -967 -298 0
482 942 -637 0
213 376 230 0
-501 -44 -6 0
-485 117 -469 0
750 -552 -476 0
-963 891 -506 0
-866 -555 449 0
-692 275 235 0
326 -472 505 0
428 -363 586 0
724 -37 433 0
239 107 463 0
394 775 -890 0
254 121 -844 0
-691 -667 499 0
-542 -814 -168 0
621 733 -113 0
847 -269 -909 0
242 129 -705 0
499 -637 -987 0
315 158 -734 0
48 -1000 -448 0
-664 -948 96 0
-818 615 -906 0
746 -693 654 0
438 191 -129 0
-858 -761 703 0
208 731 -527 0
84 699 -128 0
-530 85 632 0
814 -856 -337 0
-487 819 46 0
828 375 23 0
-219 -405 -540 0
576 77 965 0
536 -904 -522 0
614 875 -677 0
-827 -270 183 0
-544 488 -11 0
278 -1 -520 0
171 612 887 0
533 -919 -858 0
168 292 -690 0
682 486 -417 0
-343 508 189 0
-378 855 502 0
-792 -754 -159 0
-116 -71 343 0
332 666 906 0
123 -979 -336 0
471 966 771 0
712 206 -509 0
75 983 818 0
852 -506 755 0
611 297 974 0
-383 -729 -993 0
177 -57 334 0
342 921 885 0
-931 -212 440 0
248 964 -65 0
192 -272 -541 0
33 -770 -382 0
-858 -276 990 0
744 442 -566 0
141 21 267 0
12 -47 -283 0
740 -510 -263 0
117 -827 753 0
968 983 -899 0
805 -386 -336 0
513 -700 -319 0
-281 -75 537 0
-375 581 -528 0
-418 -251 -857 0
476 301 258 0
-961 19 -626 0
-993 -638 -198 0
375 -154 762 0
248 511 -306 0
-588 -416 400 0
521 -109 -551 0
573 -876 -267 0
344 -744 820 0
912 615 334 0
857 171 396 0
-854 655 449 0
456 911 -262 0
-850 714 19 0
524 417 846 0
-45 -268 -77 0
-854 -220 -421 0
-865 -501 -949 0
-802 -11 -858 0
62 -454 -294 0
962 -473 90 0
-357 -7 767 0
86 -780 -315 0
581 389 -842 0
-859 505 -571 0
852 773 144 0
202 212 680 0
-835 980 265 0
966 -407 374 0
-956 -963 -995 0
424 950 -597 0
527 -943 -173 0
-560 888 691 0
463 -509 -586 0
-764 911 960 0
357 749 245 0
-244 646 -360 0
564 244 -947 0
-678 -213 429 0
-383 317 436 0
246 -227 -794 0
201 -173 983 0
831 44 736 0
422 622 338 0
-721 649 81 0
-371 613 -228 0
726 741 -927 0
487 443 890 0
-866 -67 672 0
-850 -327 175 0
-166 696 15 0
844 -599 -357 0
-211 -64 448 0
535 781 -744 0
-534 -368 -690 0
-940 -131 659 0
246 -117 -140 0
473 809 788 0
377 -790 -336 0
715 -354 -721 0
422 596 -976 0
112 576 -455 0
-12 723 -275 0
-172 509 -117 0
-736 -145 685 0
790 931 -226 0
-288 169 -733 0
917 63 913 0
-962 -974 -793 0
-203 -224 -377 0
-699 299 645 0
9 409 -693 0
-657 -913 878 0
666 627 526 0
451 399 -699 0
514 -120 -418 0
-610 -667 797 0
-462 672 -220 0
-607 485 -727 0
554 -440 -901 0
834 -373 103 0
342 741 700 0
927 -694 -706 0
835 377 184 0
-608 138 -341 0
-237 962 295 0
-472 186 -462 0
-214 871 -638 0
-730 -224 801 0
1 -231 -541 0
943 87 628 0
194 341 -106 0
972 -855 -808 0
925 821 -790 0
-355 -42 -60 0
853 -527 -556 0
-247 718 -320 0
259 854 -213 0
92 -261 245 0
-107 773 -766 0
-687 347 375 0
636 -942 -530 0
52 -718 143 0
797 743 669 0
644 714 447 0
-816 450 918 0
-308 58 -703 0
60 93 -172 0
522 650 -230 0
379 790 -888 0
429 -659 -502 0
-143 548 -713 0
984 -870 819 0
907 -256 283 0
416 -315 -5 0
-225 619 154 0
236 -831 -199 0
981 -439 -291 0
-175 -186 -54 0
-8 573 62 0
-610 172 -627 0
-849 -294 935 0
-321 653 -19 0
215 231 810 0
-952 -324 368 0
624 -772 924 0
-260 -155 -645 0
-966 887 603 0
205 271 -744 0
553 564 -845 0
430 -911 559 0
-448 559 636 0
495 -425 -880 0
-500 942 848 0
-805 -592 83 0
-783 453 321 0
339 -962 -593 0
751 112 -728 0
-148 638 461 0
951 -706 -399 0
-526 990 -797 0
429 -223 -459 0
835 -222 790 0
199 263 -883 0
900 830 296 0
-304 -52 104 0
-541 467 983 0
-86 886 -445 0
190 256 -131 0
402 824 758 0
-880 -568 764 0
-145 589 -43 0
140 -830 -240 0
637 952 111 0
-263 997 333 0
294 -119 -377 0
-366 -639 105 0
206 -641 571 0
903 -35 829 0
384 707 424 0
438 -177 -147 0
-760 116 905 0
35 -952 939 0
816 -593 102 0
945 364 -563 0
-541 -273 -953 0
-448 -693 981 0
12 537 -571 0
-158 -929 -855 0
-919 -840 204 0
583 433 -202 0
214 829 -649 0
176 -272 178 0
-862 551 860 0
-132 -899 -15 0
-260 434 711 0
942 -130 -790 0
-831 77 34 0
99 -199 706 0
-274 -324 755 0
740 -106 -799 0
-150 -735 -906 0
649 -809 -458 0
-161 921 880 0
-828 847 648 0
981 173 -9 0
772 769 202 0
20 556 -916 0
-323 244 -536 0
652 -793 -628 0
523 -854 400 0
848 -80 -541 0
390 988 431 0
537 812 554 0
-769 39 -8 0
-277 -692 -187 0
-516 -978 934 0
243 374 447 0
-187 -45 -995 0
865 -393 -443 0
617 -878 -15 0
-349 -96 624 0
-507 -114 -55 0
-311 976 417 0
375 963 -406 0
-565 245 -381 0
900 599 -479 0
835 -145 415 0
-689 172 -400 0
-292 -798 567 0
-682 237 -212 0
-489 -919 -673 0
-475 -802 -655 0
-746 -771 -321 0
-608 -307 652 0
461 -304 833 0
-761 207 498 0
-767 -959 -533 0
-341 3 -398 0
-853 738 18 0
799 -165 -250 0
-371 951 654 0
362 -267 -305 0
-357 134 490 0
885 -442 -689 0
340 418 326 0
-937 -676 430 0
-442 -699 374 0
513 -168 -187 0
-126 12 104 0
800 902 110 0
405 516 225 0
-871 782 523 0
316 -291 194 0
-902 -615 -88 0
-567 -136 597 0
330 996 298 0
-88 -914 959 0
312 751 -173 0
949 87 -541 0
-99 550 407 0
250 484 -137 0
451 687 -206 0
410 479 -498 0
659 896 -567 0
-384 -319 392 0
894 124 761 0
-64 -335 190 0
-701 -622 -142 0
-639 215 -749 0
184 510 -851 0
-736 127 -199 0
-318 15 274 0
492 100 120 0
-361 -106 159 0
231 567 920 0
-140 -314 -33 0
728 -634 799 0
707 16 -42 0
-412 308 -271 0
-900 -59 -487 0
-551 792 683 0
-849 -564 718 0
-898 556 -23 0
223 106 419 0
162 867 -953 0
916 997 -644 0
446 -563 -704 0
-245 -989 -426 0
-144 -150 498 0
-889 105 -833 0
289 -113 625 0
148 -96 709 0
-778 -645 589 0
-394 -270 278 0
-17 -45 -705 0
74 -394 160 0
44 556 540 0
-447 -2 813 0
515 805 77 0
32 -754 -619 0
-979 -376 -526 0
-104 -534 911 0
-277 -881 920 0
38 -521 -258 0
63 -944 294 0
-21 471 379 0
-524 154 941 0
239 909 -323 0
-785 157 -319 0
-304 -28 243 0
259 -236 144 0
-22 69 464 0
656 379 -392 0
802 190 -183 0
682 329 -459 0
542 -443 -420 0
909 282 539 0
-440 -958 -640 0
917 -55 -277 0
277 -572 80 0
290 -755 541 0
-871 -717 712 0
-165 707 -341 0
-202 255 200 0
-648 -792 485 0
-337 -497 -661 0
960 -170 -747 0
887 604 443 0
-59 151 63 0
-380 -492 -783 0
-402 -693 445 0
202 261 -556 0
-743 282 182 0
66 998 288 0
-165 524 710 0
371 215 327 0
844 922 -670 0
-131 -88 40 0
-79 259 -510 0
743 383 35 0
-33 -730 971 0
-518 33 -712 0
791 560 -933 0
949 505 -232 0
-878 862 29 0
404 -74 153 0
-31 977 -692 0
420 -771 686 0
-472 785 -302 0
-408 -403 179 0
-98 658 927 0
-729 833 -341 0
437 873 224 0
-196 -442 -339 0
178 -357 295 0
-721 -77 648 0
-203 -686 -891 0
-72 1000 682 0
-428 -264 916 0
465 316 772 0
842 697 -712 0
520 -471 -284 0
344 103 -655 0
408 750 -268 0
-96 609 361 0
-835 -865 518 0
-255 832 561 0
296 -924 -478 0
913 -279 556 0
287 -137 -696 0
-280 -466 669 0
-671 -263 938 0
54 -730 -292 0
268 -859 44 0
-57 334 778 0
594 -840 -926 0
9 -358 -567 0
-566 224 150 0
-596 684 -521 0
154 -273 -679 0
721 8 212 0
-337 -505 -381 0
650 -216 941 0
-730 10 -811 0
-431 99 684 0
-731 823 749 0
-700 408 580 0
688 78 263 0
-17 -150 -775 0
-924 101 -600 0
-944 -667 -193 0
-496 -803 -242 0
854 546 207 0
784 -663 700 0
-217 -593 -895 0
-961 944 806 0
985 888 621 0
-995 -859 816 0
899 966 623 0
-359 549 948 0
69 369 -732 0
-591 -55 -768 0
633 110 -474 0
469 -195 -438 0
-643 -894 -394 0
-219 -252 -624 0
-750 -273 -926 0
550 -275 -55 0
765 669 -394 0
-415 -123 345 0
665 -525 726 0
-976 -157 -336 0
816 608 335 0
41 362 -889 0
377 -230 -412 0
-832 -73 930 0
-2 491 902 0
572 640 458 0
735 -942 846 0
-275 962 -572 0
-958 756 42 0
790 938 634 0
-91 661 -103 0
-488 363 337 0
89 -713 384 0
-225 680 814 0
866 -671 477 0
495 442 660 0
968 -179 399 0
-890 521 -520 0
-673 373 494 0
-911 15 454 0
3 473 -991 0
-512 634 -17 0
-648 889 127 0
179 -798 599 0
-832 -286 760 0
-636 486 -392 0
23 707 249 0
467 303 -649 0
327 307 580 0
568 -936 864 0
914 347 -911 0
-260 -699 -209 0
547 300 -861 0
-742 245 -185 0
-470 36 939 0
-950 -906 287 0
148 638 163 0
-808 -444 142 0
881 -7 921 0
917 653 -46 0
429 365 934 0
346 621 -275 0
361 398 -720 0
-431 -865 -699 0
-736 452 -786 0
-932 868 -967 0
-192 -353 725 0
-961 731 279 0
643 449 -466 0
961 868 -642 0
570 -82 763 0
649 -217 -248 0
-117 112 -437 0
952 -6 193 0
-207 -370 269 0
-842 841 152 0
484 -464 -560 0
-413 -802 -762 0
981 -88 892 0
-41 -947 579 0
15 110 -173 0
656 425 -273 0
939 -823 -25 0
-812 784 -341 0
-17 -326 -555 0
492 -348 -866 0
461 -1000 303 0
575 -178 400 0
-573 238 522 0
-792 -312 564 0
-826 -143 -960 0
186 684 87 0
-833 -240 -704 0
-521 712 48 0
-946 -271 -24 0
169 662 90 0
-626 -26 -333 0
157 851 116 0
477 53 -181 0
-579 996 -295 0
-292 -298 -823 0
2 -11 -512 0
-946 351 805 0
95 -458 -720 0
-343 -898 -1 0
-350 -597 565 0
-498 -894 -859 0
-861 -557 824 0
-722 -245 778 0
351 -101 631 0
423 616 153 0
-759 388 146 0
658 -489 -52 0
655 -965 80 0
-749 -512 -136 0
227 -761 -216 0
148 -670 -971 0
-553 734 402 0
392 -189 -182 0
741 918 -565 0
219 -419 719 0
362 -525 -318 0
835 -609 -925 0
34 -154 -768 0
-447 717 -506 0
-260 526 -644 0
-481 615 -488 0
-228 -379 131 0
-181 558 232 0
15 -665 -610 0
1 19 -568 0
822 -424 -547 0
-511 -755 947 0
136 -908 911 0
-181 -514 -277 0
287 -182 -799 0
-954 -792 -248 0
-179 -74 276 0
722 213 -824 0
-635 666 -164 0
83 489 -835 0
452 860 -921 0
245 323 270 0
79 -23 98 0
-328 -339 131 0
-225 425 -105 0
733 215 -938 0
-534 567 132 0
-423 125 -869 0
-547 526 445 0
-607 977 837 0
-150 -975 -636 0
208 428 -413 0
358 162 36 0
-457 966 -960 0
54 353 -721 0
-550 -857 -41 0
151 589 -54 0
552 -913 -971 0
734 333 -421 0
-792 -483 528 0
-282 -778 -388 0
581 -358 964 0
949 -871 420 0
-866 837 579 0
-297 -909 987 0
-832 -729 581 0
913 -641 320 0
-360 -264 -983 0
122 -558 -342 0
848 4 79 0
141 -771 -319 0
-105 60 -209 0
-508 889 586 0
-429 -462 -245 0
909 648 -875 0
816 698 264 0
337 -133 -442 0
14 16 993 0
-127 220 440 0
-46 154 -541 0
438 845 -889 0
12 278 234 0
41 -862 -460 0
-228 -581 -941 0
-186 903 640 0
-215 841 813 0
980 799 635 0
-973 -914 570 0
232 -92 152 0
888 -867 542 0
470 -501 -540 0
544 409 601 0
768 824 -913 0
-540 922 208 0
663 -437 -134 0
445 -754 732 0
-597 -52 664 0
-828 -428 254 0
-429 435 732 0
-190 415 873 0
710 -164 -483 0
-158 532 426 0
-113 -66 -420 0
-396 503 277 0
762 -408 598 0
109 824 2 0
246 881 794 0
405 -499 -55 0
818 509 500 0
750 -740 660 0
-473 292 -121 0
417 349 938 0
346 577 -926 0
-903 353 144 0
-20 318 506 0
-314 525 -360 0
360 -473 -937 0
676 973 -49 0
946 83 915 0
-713 827 -603 0
-79 -231 442 0
216 -274 418 0
-904 983 -740 0
-892 -67 -924 0
397 -767 941 0
-501 -359 -975 0
687 767 439 0
-858 692 808 0
-197 -809 326 0
-35 685 877 0
-652 496 -360 0
806 518 -757 0
-457 -31 578 0
-208 774 133 0
-775 -546 -64 0
-848 920 -374 0
591 -793 -789 0
-435 918 956 0
-818 -789 815 0
651 900 -430 0
-787 -547 962 0
554 -221 127 0
349 -940 -684 0
338 -373 486 0
-502 821 679 0
172 -774 271 0
890 -83 -774 0
372 -645 888 0
-309 -634 902 0
-82 -130 -686 0
705 -182 96 0
186 -580 227 0
-795 -599 850 0
-669 104 677 0
234 -318 498 0
-537 -951 271 0
-85 -700 -815 0
-239 -156 -927 0
632 -726 -490 0
-276 758 717 0
813 -442 394 0
-754 60 -663 0
-110 -647 -190 0
-523 815 -802 0
286 -518 107 0
101 -29 297 0
113 672 928 0
-829 -811 -300 0
-529 -97 -658 0
-79 1 145 0
-556 -223 -881 0
-363 808 -778 0
-778 -436 462 0
29 308 80 0
-302 -567 -273 0
-136 799 -862 0
-828 33 -954 0
-113 656 292 0
-343 -396 -819 0
962 266 794 0
101 -301 463 0
-101 386 267 0
-37 419 852 0
-200 817 -892 0
644 -283 247 0
956 -352 -767 0
-900 -536 -22 0
-273 -626 -198 0
-385 -717 175 0
-935 -873 -725 0
871 376 373 0
471 -993 483 0
-619 -415 -772 0
400 937 45 0
825 620 -947 0
370 516 -182 0
-230 -812 95 0
-896 681 629 0
871 -98 406 0
-701 -319 312 0
-84 75 -482 0
-863 -43 54 0
-999 299 345 0
816 -233 -561 0
-388 368 -604 0
-651 368 705 0
949 -102 430 0
297 148 -252 0
473 518 -252 0
68 454 -693 0
229 322 412 0
618 378 -260 0
76 -310 -417 0
-141 886 -137 0
961 210 707 0
488 855 571 0
495 680 598 0
-205 185 77 0
-430 -72 30 0
153 -165 -288 0
647 -861 -839 0
930 661 438 0
413 399 -961 0
836 -860 874 0
-768 906 753 0
922 -829 -738 0
-676 431 -829 0
632 26 220 0
506 922 618 0
-577 178 -85 0
891 -419 -622 0
-234 -775 798 0
-918 140 -398 0
156 925 -664 0
42 216 -49 0
-503 756 -601 0
52 -113 -442 0
-553 376 -636 0
660 884 936 0
-432 273 -216 0
-368 783 -67 0
-567 903 -196 0
-865 -496 -448 0
699 -349 -947 0
280 -765 271 0
695 665 309 0
297 260 -596 0
601 726 -904 0
-73 840 -386 0
-754 -876 -395 0
-167 -472 -71 0
757 -881 626 0
-63 32 951 0
923 422 687 0
-856 -8 -843 0
320 -647 121 0
746 -435 -922 0
-1 68 -385 0
-74 -214 -811 0
-500 -231 260 0
-712 -444 -74 0
-172 -393 211 0
828 -282 -802 0
-665 -904 408 0
-450 189 69 0
-221 603 -558 0
89 989 -636 0
-351 -24 -113 0
-349 27 346 0
-471 -596 623 0
856 624 750 0
-815 427 -434 0
-810 374 892 0
-892 747 -446 0
830 528 -899 0
172 -828 258 0
20 541 155 0
-721 -315 622 0
782 308 -787 0
331 370 -852 0
-317 502 -703 0
-158 594 -738 0
-672 83 -383 0
-280 55 -355 0
320 384 -598 0
267 -692 481 0
-317 -889 -12 0
-667 -204 -97 0
501 -283 735 0
-396 -953 272 0
824 734 129 0
967 12 674 0
-941 308 991 0
672 91 -197 0
845 -100 -831 0
111 275 -328 0
857 836 970 0
671 -100 599 0
-697 405 -123 0
-701 33 -517 0
-295 -375 -343 0
-190 -212 537 0
-850 -507 -759 0
679 277 -745 0
-777 346 716 0
-713 -861 -394 0
526 -285 -149 0
339 -889 -441 0
-979 -415 -593 0
568 458 -974 0
-744 317 665 0
173 -312 919 0
-181 -443 -255 0
-966 -238 708 0
30 120 745 0
-407 -177 605 0
185 839 106 0
-546 245 -148 0
-806 -239 -531 0
-973 595 149 0
854 649 -432 0
864 -797 622 0
815 714 832 0
-406 -340 -86 0
-1000 166 -629 0
925 903 -126 0
8 -790 32 0
984 244 -755 0
633 -645 264 0
856 -100 292 0
-65 -74 551 0
312 828 -668 0
889 -169 -318 0
-340 456 188 0
-802 221 120 0
845 305 -328 0
-651 -856 -849 0
176 -226 -210 0
-538 -963 268 0
-443 36 795 0
195 409 180 0
-425 74 -358 0
475 -310 -738 0
114 -691 736 0
599 -982 -224 0
592 740 758 0
-279 -885 589 0
433 -248 724 0
-635 -650 -25 0
-516 568 361 0
-829 687 662 0
387 -64 -476 0
-247 -316 -805 0
291 -142 287 0
674 509 513 0
-191 154 -23 0
-744 -849 -593 0
190 370 937 0
-105 844 966 0
-133 -12 855 0
757 -241 -454 0
-335 93 -799 0
-826 -596 312 0
30 -152 -209 0
-559 856 -147 0
-666 -512 404 0
-90 -557 -326 0
444 365 747 0
260 421 671 0
425 -766 626 0
-331 341 510 0
141 92 -785 0
942 145 369 0
186 -620 715 0
479 426 611 0
848 -965 -368 0
-240 -169 -356 0
170 579 947 0
-412 410 723 0
136 681 -373 0
213 -410 135 0
-308 -406 748 0
759 -26 -367 0
519 -542 693 0
-127 -124 -724 0
395 -66 121 0
912 -269 318 0
937 142 -709 0
-236 -552 -151 0
273 715 -238 0
-307 -835 -575 0
-513 -548 -927 0
-379 229 -537 0
903 325 382 0
181 -419 -996 0
964 559 864 0
-829 -601 745 0
-345 499 281 0
756 174 281 0
-849 15 441 0
-297 -980 623 0
-6 -826 -16 0
-117 867 65 0
233 153 667 0
186 -145 -507 0
669 -599 -405 0
246 960 -112 0
660 651 -582 0
640 -753 913 0
-809 -33 -295 0
-966 715 -1 0
-384 29 -951 0
-333 -456 -651 0
-599 274 -353 0
921 -37 -931 0
-894 755 771 0
280 -717 370 0
29 77 -584 0
-725 -909 173 0
61 107 -945 0
396 990 -812 0
955 940 -440 0
-626 102 -191 0
823 274 275 0
276 -48 -891 0
-728 325 -444 0
885 -277 45 0
-102 732 -955 0
-686 768 -328 0
872 595 157 0
-693 -779 827 0
-838 543 -477 0
652 358 -781 0
-982 145 329 0
846 780 737 0
-943 885 -519 0
667 405 -131 0
-983 -812 973 0
461 884 515 0
-823 -977 -690 0
-61 744 -954 0
429 782 -34 0
939 624 -271 0
553 -44 -364 0
918 -272 474 0
175 -197 -171 0
283 -424 -166 0
-156 -952 -717 0
-504 -242 -596 0
-474 -897 -206 0
-82 -150 80 0
-57 -928 911 0
-167 -13 966 0
95 -643 340 0
721 -650 -300 0
-484 -657 231 0
-487 -638 953 0
339 792 -120 0
-440 -427 612 0
-120 385 758 0
497 -394 243 0
187 329 -526 0
541 -667 -365 0
509 720 562 0
103 272 119 0
866 782 -890 0
-390 -451 -68 0
-150 315 83 0
952 -700 883 0
917 -588 -564 0
510 647 -694 0
-457 -579 -464 0
-243 -545 -287 0
62 926 551 0
10 -597 -670 0
-384 580 -830 0
-880 -921 98 0
988 548 610 0
598 -198 -894 0
-804 641 442 0
293 -701 -176 0
986 92 -96 0
-567 405 850 0
-936 -129 -131 0
-5 32 -550 0
262 646 645 0
-694 133 857 0
143 238 545 0
-341 -487 -10 0
168 -21 -451 0
705 -214 -347 0
122 -102 179 0
-711 475 -772 0
-297 240 710 0
740 -336 -430 0
650 -466 -842 0
-822 146 671 0
153 -923 337 0
186 -774 -801 0
771 -299 662 0
614 707 841 0
791 -973 756 0
6 962 -573 0
-698 -649 403 0
-290 388 -377 0
-867 714 -398 0
588 -523 -729 0
-438 -57 -930 0
-134 173 -213 0
548 -816 360 0
499 -757 191 0
-585 12 -293 0
1000 623 181 0
543 556 -70 0
868 502 899 0
-925 960 915 0
607 944 208 0
-851 224 -464 0
344 943 -635 0
159 753 -756 0
-717 -581 267 0
338 -758 858 0
439 -545 340 0
972 32 -582 0
-161 -627 -202 0
716 -915 486 0
706 804 343 0
427 713 980 0
466 157 -124 0
-42 964 -84 0
934 -912 -977 0
-83 415 905 0
-520 431 -427 0
-893 937 -654 0
-759 -395 280 0
117 -690 537 0
547 -843 242 0
-390 420 771 0
-131 893 -46 0
448 245 579 0
222 961 116 0
87 -12 342 0
190 44 -236 0
-549 -853 -97 0
720 -84 507 0
837 190 -474 0
971 -273 125 0
-546 -202 222 0
-129 384 284 0
859 -841 -408 0
834 454 -785 0
545 878 -245 0
-143 200 526 0
-525 95 -574 0
-862 922 759 0
-59 314 344 0
406 408 108 0
-754 49 -916 0
363 123 356 0
-781 813 133 0
957 219 643 0
-235 -588 -255 0
-484 -554 886 0
21 554 -169 0
685 706 -758 0
-395 -759 -529 0
726 -924 667 0
-62 786 323 0
-851 492 -339 0
744 -165 563 0
304 948 241 0
82 -426 -495 0
-749 -679 -526 0
-95 5 -659 0
943 236 -326 0
-987 450 431 0
-404 731 495 0
-391 112 548 0
491 -267 134 0
-557 351 -532 0
-774 814 713 0
474 -780 -762 0
-462 495 599 0
286 -627 244 0
621 522 358 0
31 913 578 0
-935 78 -824 0
440 78 -198 0
166 -998 -844 0
-586 349 567 0
-411 941 -810 0
-237 -103 -344 0
-344 65 345 0
-34 -40 -210 0
-181 -851 468 0
165 979 845 0
435 153 -568 0
-192 -898 98 0
456 745 522 0
-325 582 -342 0
-483 749 -321 0
456 -312 38 0
-102 -162 258 0
-552 -309 -516 0
-926 -955 -292 0
-206 445 -288 0
778 -460 -873 0
-945 3 533 0
674 -389 956 0
439 -334 -71 0
-510 -650 -133 0
129 -89 -781 0
832 -704 409 0
-122 -636 -591 0
-220 184 -532 0
928 895 630 0
-497 918 365 0
819 661 421 0
-565 -126 233 0
374 263 -712 0
699 618 546 0
-523 -360 112 0
-810 -994 597 0
110 -822 -315 0
255 -31 -717 0
347 876 -642 0
-425 -834 -562 0
855 -530 -818 0
695 -920 -400 0
-88 -147 537 0
-467 -123 -403 0
-125 166 -739 0
-309 870 767 0
872 537 -208 0
813 435 468 0
977 779 -498 0
894 -968 -957 0
932 311 16 0
-655 993 -287 0
-801 943 408 0
-204 857 -674 0
-632 972 191 0
392 682 -961 0
-986 -793 -873 0
-529 -856 -257 0
109 -719 -915 0
-352 -120 944 0
394 -504 374 0
922 -223 123 0
903 27 -675 0
-64 -224 71 0
639 217 -650 0
-368 -170 264 0
-647 461 433 0
-925 516 -976 0
-59 169 -132 0
674 262 -137 0
691 27 -675 0
-898 -418 327 0
-552 -520 -530 0
-268 773 -155 0
-754 -783 -70 0
999 838 950 0
-432 -217 799 0
952 -471 -580 0
-930 -812 326 0
392 124 544 0
-500 -590 935 0
-822 997 -934 0
-581 -859 -543 0
-737 -631 -225 0
-464 -310 -13 0
-526 -668 805 0
211 3 287 0
-176 -316 -615 0
-394 -570 -368 0
984 -23 308 0
917 -419 248 0
868 690 18 0
235 286 -86 0
-196 -108 749 0
370 -847 -427 0
-883 595 196 0
177 -961 174 0
-106 82 -877 0
437 -333 -33 0
293 804 -852 0
732 -123 310 0
652 -629 -562 0
712 888 -609 0
149 626 -509 0
539 914 -6 0
406 426 281 0
391 -239 -656 0
-751 556 273 0
774 -524 384 0
-967 -987 945 0
688 -740 378 0
582 376 47 0
-118 -140 815 0
105 870 -330 0
295 878 -793 0
227 -572 7 0
791 897 175 0
-301 -759 93 0
201 -701 176 0
-743 258 -286 0
-310 -681 300 0
343 -273 102 0
247 309 -15 0
-551 -269 -440 0
382 -843 -959 0
-570 -518 -637 0
967 -406 495 0
-214 266 -911 0
800 482 192 0
981 207 -354 0
-631 -315 -668 0
219 731 -375 0
981 509 629 0
389 911 -466 0
-884 -150 -460 0
670 574 -703 0
-599 -915 359 0
168 306 252 0
167 -516 -766 0
869 598 631 0
110 572 -374 0
108 102 514 0
634 720 -137 0
909 417 -440 0
567 -659 -599 0
-140 280 740 0
-849 800 -391 0
-884 -302 197 0
921 283 482 0
-372 -448 484 0
912 -919 -514 0
-328 -656 952 0
203 -292 254 0
361 776 -804 0
-539 -283 288 0
-523 -2 465 0
691 553 -531 0
191 -476 910 0
-912 -185 266 0
126 80 156 0
-782 -273 -724 0
-522 527 513 0
40 -410 -397 0
849 712 374 0
-470 663 710 0
372 -257 -753 0
-680 171 -391 0
337 -130 -927 0
369 -12 -72 0
591 -717 833 0
-917 -436 227 0
771 -625 767 0
-463 -668 -273 0
621 830 -144 0
971 821 873 0
-981 644 223 0
-138 724 -250 0
-696 -494 632 0
235 -915 -342 0
-750 106 737 0
-318 -412 65 0
320 838 317 0
575 -899 -145 0
-983 -160 602 0
-190 992 223 0
799 -260 -674 0
895 576 -584 0
250 -404 394 0
-151 457 314 0
945 -61 -475 0
-74 -814 -417 0
-682 -879 877 0
915 -804 500 0
-875 -519 394 0
838 180 -209 0
876 -148 -522 0
468 254 -141 0
-526 -65 -641 0
920 -757 966 0
600 466 -617 0
129 -937 -296 0
653 355 576 0
718 -962 781 0
-364 -511 855 0
-369 591 -69 0
-834 -30 499 0
221 -12 572 0
-198 465 231 0
-826 736 -972 0
-629 711 472 0
-291 685 -10 0
-215 -365 378 0
-153 -248 76 0
-782 -341 -128 0
969 -579 407 0
-949 911 -366 0
-350 300 30 0
328 468 388 0
-766 38 -20 0
-26 -323 -137 0
-828 419 176 0
-372 19 181 0
565 -811 -472 0
-486 400 -817 0
375 571 -30 0
-218 761 -611 0
-907 205 532 0
-808 -873 -664 0
-373 358 42 0
-612 963 200 0
-921 991 -423 0
-846 21 847 0
-318 -924 -967 0
306 -333 -793 0
225 -560 -406 0
-932 155 238 0
-92 648 -222 0
555 -209 -301 0
879 -4 -337 0
346 858 -953 0
-689 -372 -53 0
-899 336 108 0
389 -739 -628 0
437 -702 -389 0
120 449 -463 0
35 -627 986 0
-433 -82 688 0
-64 409 32 0
509 -841 -5 0
465 -167 -140 0
-269 -963 -112 0
-696 -919 143 0
361 -182 626 0
239 959 48 0
94 777 -616 0
423 -907 522 0
-782 -303 -535 0
-677 391 -719 0
715 280 292 0
123 -67 742 0
-290 652 573 0
-362 833 -387 0
311 8 719 0
-519 826 -448 0
-940 -743 -731 0
-935 -595 907 0
-805 -320 -439 0
535 -108 909 0
173 32 -87 0
-378 -391 759 0
759 704 -503 0
613 884 -40 0
-51 198 71 0
965 -483 -416 0
-885 -29 -464 0
114 354 -682 0
933 247 567 0
15 969 381 0
15 -765 -631 0
455 373 -607 0
547 -976 688 0
58 -296 853 0
-498 -801 -89 0
203 -659 806 0
997 -267 -413 0
428 -329 825 0
595 222 278 0
-454 982 996 0
105 -358 -489 0
-870 808 840 0
-475 209 800 0
-795 -615 -78 0
-9 217 762 0
-837 -538 310 0
890 -883 -86 0
593 -444 514 0
426 -241 -919 0
980 -207 -567 0
-80 -631 -375 0
770 879 282 0
730 446 -471 0
232 -204 525 0
697 276 895 0
306 -537 371 0
327 -462 875 0
836 -959 -584 0
-954 364 826 0
677 826 77 0
524 881 -306 0
181 -565 188 0
-125 769 278 0
599 800 589 0
768 739 -429 0
-570 -766 752 0
829 -402 -547 0
253 26 -12 0
-202 84 798 0
757 -989 -51 0
325 -484 156 0
-894 -756 -917 0
-227 618 -742 0
133 -495 286 0
421 -738 -807 0
369 -490 816 0
-383 605 -297 0
713 227 -407 0
-996 559 680 0
-490 187 17 0
-500 689 471 0
358 -219 -389 0
712 -261 441 0
-797 386 98 0
421 -705 -628 0
116 545 -52 0
684 -642 -803 0
-538 441 446 0
-707 -163 140 0
173 94 -221 0
-648 778 -46 0
-134 -187 676 0
1000 -722 -173 0
-435 -382 986 0
-130 -210 -685 0
-58 82 -898 0
122 -325 -373 0
-422 403 -763 0
355 -398 223 0
984 187 -427 0
715 -533 251 0
-352 978 -998 0
707 119 637 0
601 -482 -239 0
315 30 928 0
995 -20 -11 0
947 -90 937 0
-740 693 -703 0
-967 138 259 0
403 637 972 0
-195 -845 607 0
938 312 -584 0
-647 -486 -564 0
-55 -601 -856 0
500 -903 875 0
969 606 -186 0
-429 359 532 0
-592 -574 924 0
-627 -405 785 0
73 370 452 0
127 -556 142 0
336 -537 -622 0
629 502 592 0
918 568 488 0
-807 -476 -292 0
-580 349 251 0
839 700 -137 0
-507 -863 -963 0
232 -214 423 0
-934 462 735 0
-414 586 244 0
-831 958 178 0
-244 31 -884 0
831 996 -936 0
595 342 172 0
466 576 -852 0
923 50 665 0
360 129 993 0
83 -388 -160 0
-732 959 82 0
-104 -830 440 0
112 703 -737 0
704 -924 943 0
-903 -489 750 0
-882 -848 610 0
434 -919 413 0
-265 -986 -68 0
-522 -779 451 0
438 -493 143 0
272 594 -641 0
779 502 -885 0
-354 -234 498 0
255 -783 489 0
-129 -297 668 0
975 -232 727 0
-705 -472 -580 0
466 372 745 0
-834 415 100 0
215 78 926 0
944 -160 656 0
-793 -739 166 0
-839 -918 -251 0
-793 194 -268 0
665 73 653 0
648 425 723 0
-327 -503 -381 0
221 119 -790 0
907 332 -248 0
-17 311 -421 0
258 -800 577 0
550 -522 -840 0
-548 234 -833 0
499 265 664 0
748 866 30 0
733 825 844 0
946 824 542 0
36 -244 -61 0
353 186 636 0
968 -451 -301 0
-514 673 200 0
-181 -821 -87 0
-550 927 -638 0
806 -845 -58 0
-877 976 425 0
913 -324 -239 0
121 152 692 0
745 -249 244 0
-383 478 918 0
340 -491 -529 0
-993 -602 614 0
-455 -985 -282 0
-395 -351 -616 0
-651 -280 -649 0
-247 322 -573 0
258 371 923 0
40 -595 -639 0
138 776 -755 0
49 430 686 0
889 338 -909 0
659 -344 -646 0
-452 884 -682 0
-724 614 33 0
437 -537 -513 0
-298 692 597 0
741 808 -625 0
-270 523 940 0
-19 -152 875 0
-83 683 703 0
543 323 214 0
147 -849 51 0
-881 -492 473 0
-502 -214 551 0
-33 279 26 0
979 -811 -918 0
1000 612 129 0
250 202 319 0
638 926 146 0
810 144 206 0
446 456 -892 0
335 -431 -384 0
937 827 326 0
575 139 -173 0
-546 231 31 0
678 -951 564 0
-46 894 -900 0
478 561 547 0
-683 -967 -755 0
399 -828 616 0
446 486 -359 0
373 -790 691 0
885 -504 -305 0
464 -154 369 0
266 642 -205 0
-655 304 -856 0
-213 249 -801 0
633 311 -669 0
-212 120 482 0
149 -124 -726 0
952 -148 -284 0
-129 358 526 0
-621 -129 -684 0
252 170 -203 0
-789 -221 478 0
165 -997 -973 0
890 -628 -598 0
-597 780 141 0
-858 -572 393 0
-965 -17 -719 0
-788 -105 -719 0
-147 -914 632 0
-728 -748 902 0
-187 913 -535 0
-629 -417 841 0
783 691 339 0
761 624 -898 0
4 -935 155 0
499 433 -405 0
-864 -524 -448 0
-204 -595 -20 0
-271 -639 -282 0
-431 -154 572 0
-278 732 -981 0
-581 -160 394 0
72 -913 969 0
57 363 -91 0
219 -829 757 0
-908 -815 -302 0
-10 -535 -641 0
185 -390 -399 0
-300 232 -692 0
714 -655 95 0
232 446 -518 0
-684 450 535 0
165 -338 32 0
206 264 874 0
880 -728 823 0
-549 69 99 0
-545 -461 -693 0
-684 -431 576 0
313 793 -709 0
989 423 -566 0
-303 8 273 0
698 -369 -508 0
-34 449 205 0
-29 980 -990 0
846 -827 468 0
-973 801 -819 0
415 169 -155 0
-741 275 -875 0
-145 444 -94 0
651 913 -921 0
984 784 -682 0
-619 880 249 0
-570 912 -555 0
-924 -128 -109 0
419 832 -33 0
-504 608 574 0
201 -622 572 0
-655 910 -190 0
-385 648 -872 0
884 -422 962 0
-176 -227 707 0
-180 -605 -130 0
851 -663 237 0
-179 -497 492 0
895 -52 349 0
-28 448 -399 0
-611 963 -435 0
-294 -311 -400 0
-898 -983 -307 0
457 121 982 0
-380 -82 853 0
-153 -709 -20 0
-833 910 814 0
441 724 507 0
-99 597 328 0
266 80 -743 0
761 -530 552 0
786 650 269 0
25 -132 -890 0
50 131 681 0
-100 646 -215 0
557 936 236 0
-373 279 -66 0
-747 250 -340 0
346 282 526 0
-171 -619 10 0
-211 842 -191 0
-575 94 283 0
815 -564 715 0
-173 -245 -478 0
-678 -486 984 0
-675 342 -551 0
-776 -537 -158 0
-866 -612 -98 0
-534 -687 102 0
768 -344 -414 0
136 -366 330 0
787 605 -215 0
209 -881 -329 0
708 -970 837 0
483 544 807 0
709 -526 -877 0
954 -368 879 0
-363 477 848 0
-326 216 -807 0
832 601 130 0
283 -919 -923 0
367 -90 -887 0
189 -38 -616 0
-227 -358 390 0
32 940 732 0
151 215 -666 0
845 263 451 0
645 -989 176 0
-252 -824 -748 0
-267 -58 -75 0
487 184 -716 0
-617 -381 -477 0
-103 -660 -670 0
980 -332 -604 0
-853 364 59 0
-344 70 197 0
-266 141 -224 0
-323 -942 -514 0
-63 -990 -750 0
85 -522 374 0
-568 762 -34 0
-993 642 397 0
-707 -872 -113 0
686 -216 -114 0
-10 -775 -682 0
876 -877 -356 0
261 -692 -642 0
926 246 366 0
785 -603 374 0
-322 655 -552 0
943 994 -864 0
-448 -710 682 0
101 4 -56 0
161 -254 -246 0
951 -28 -112 0
-460 -668 -463 0
-232 -816 -88 0
546 874 -573 0
-288 -801 -466 0
4 163 18 0
267 -493 -382 0
603 -767 -810 0
950 737 476 0
-176 -192 -228 0
519 15 -488 0
225 -522 -559 0
-97 679 -181 0
-359 -166 585 0
499 120 868 0
613 -458 -256 0
570 490 607 0
20 882 892 0
-226 243 696 0
957 780 673 0
559 -502 -467 0
-996 576 610 0
97 -999 -880 0
811 -61 -839 0
-846 139 -239 0
-988 -181 612 0
416 613 591 0
-302 307 -88 0
-633 -943 -774 0
-232 913 556 0
-724 456 -785 0
-10 51 619 0
746 530 992 0
237 -304 117 0
176 -802 253 0
660 793 697 0
532 -211 -653 0
-472 -679 -839 0
-255 -886 507 0
-115 -815 -184 0
-230 551 123 0
-879 301 -998 0
-707 -969 687 0
998 -272 720 0
-415 981 -240 0
-431 -400 483 0
265 877 -804 0
-248 -913 710 0
122 -224 546 0
149 -371 912 0
437 -656 -851 0
-375 -818 -860 0
192 -455 -693 0
-272 -441 996 0
-509 -406 154 0
-616 487 -604 0
841 272 758 0
-514 -793 34 0
-656 861 726 0
139 564 -4 0
-11 -132 370 0
482 731 826 0
-877 36 -821 0
-537 157 -816 0
425 -37 -473 0
-875 138 894 0
-706 -730 -693 0
-800 -655 625 0
-955 982 233 0
504 -481 -597 0
-764 -106 -699 0
370 165 -45 0
-398 -630 539 0
358 -415 964 0
