p cnf 200 620
-165 -53 98 0
122 -189 200 0
125 -30 -157 0
-16 -199 187 0
-117 -90 102 0
59 39 45 0
-88 -47 -172 0
-98 -60 37 0
-173 -68 -17 0
-177 -169 156 0
-168 -157 -145 0
130 -45 -128 0
7 -172 -114 0
-12 70 -129 0
-101 46 -133 0
-37 -182 28 0
-107 103 189 0
-108 -81 24 0
-100 195 178 0
-198 -3 -64 0
-178 -168 -110 0
55 -33 -96 0
24 -153 48 0
-61 139 100 0
159 9 -66 0
32 -181 -75 0
-107 -21 56 0
118 60 74 0
65 -24 -17 0
114 -109 -152 0
121 -180 176 0
-141 -140 -89 0
150 120 77 0
184 57 -166 0
30 172 -102 0
-94 -171 -22 0
-134 47 -33 0
-189 98 133 0
38 -75 -19 0
-32 180 -106 0
-184 -43 -149 0
110 -160 -90 0
116 107 -79 0
186 -195 160 0
144 47 178 0
-112 3 -163 0
-107 -80 -26 0
144 181 -147 0
-119 -82 150 0
176 -101 -123 0
-129 -96 34 0
107 154 100 0
105 -111 -141 0
-87 -175 -74 0
100 -165 -39 0
-17 -90 -140 0
-135 -75 -183 0
110 -68 -158 0
-114 75 -82 0
-122 -151 -48 0
-45 -15 -96 0
-196 -92 77 0
-183 6 -86 0
86 -82 142 0
-61 77 -172 0
30 -147 -92 0
-88 162 23 0
94 -23 161 0
38 17 -1 0
-86 188 -37 0
-37 -23 -13 0
-16 -121 -38 0
-159 -126 108 0
132 131 -60 0
-15 -152 40 0
138 -21 20 0
-114 143 -75 0
-150 -99 -152 0
-187 -123 104 0
8 -7 120 0
-30 91 -136 0
81 13 -62 0
-2 25 166 0
-77 64 144 0
-114 -137 107 0
141 -102 125 0
104 -167 -68 0
69 -107 -148 0
114 -7 189 0
-191 -63 112 0
-123 -192 -71 0
-136 -60 -129 0
12 28 89 0
195 138 -192 0
-45 86 -30 0
155 -64 174 0
-142 -71 -39 0
-58 42 174 0
86 -28 -200 0
-193 191 198 0
-104 193 -170 0
81 161 -56 0
-177 124 71 0
-77 107 -175 0
-61 3 -97 0
-161 159 193 0
76 -124 88 0
-155 69 -151 0
-62 194 143 0
-166 112 -113 0
182 82 -125 0
12 111 -114 0
111 122 -118 0
124 -58 -191 0
-11 104 -181 0
-92 114 118 0
200 191 79 0
166 -190 -192 0
-127 173 132 0
-61 63 -121 0
29 -66 -176 0
-7 -142 -162 0
112 -196 -149 0
-53 198 -160 0
91 -119 189 0
-77 -62 44 0
15 -14 -132 0
-129 94 -1 0
116 -161 187 0
123 -43 -174 0
-95 -139 -56 0
92 96 72 0
-94 -20 137 0
-97 125 -173 0
62 -43 88 0
-46 -77 120 0
-198 -27 -158 0
-166 -146 25 0
25 27 -23 0
-148 104 -34 0
52 116 140 0
87 34 -109 0
108 -90 -78 0
-170 -109 1 0
27 102 -142 0
-81 142 -183 0
-85 160 -65 0
163 -167 126 0
1 -49 -53 0
181 31 -9 0
116 192 -146 0
155 124 125 0
-192 88 159 0
-25 171 -103 0
-34 -58 146 0
-141 196 124 0
34 -159 -21 0
113 -108 -57 0
162 86 -136 0
-19 -127 -97 0
-51 -3 62 0
-134 -15 25 0
32 132 41 0
-118 112 -98 0
195 82 157 0
-95 125 -31 0
-121 194 -81 0
-153 108 110 0
113 9 12 0
27 59 44 0
134 128 -188 0
59 -92 65 0
137 173 -167 0
-28 -69 41 0
-44 90 -94 0
-162 89 -85 0
-17 3 12 0
-70 -146 -152 0
9 131 -64 0
-188 10 74 0
-47 3 -172 0
123 -104 24 0
90 185 -181 0
121 -50 79 0
58 -140 29 0
28 -189 -187 0
-95 181 -65 0
-71 -97 44 0
165 -148 -183 0
-158 179 -162 0
-200 -165 -33 0
-198 28 -26 0
147 -139 -168 0
-142 188 50 0
-137 -23 -19 0
75 -79 64 0
83 186 -92 0
74 69 -10 0
-184 -140 11 0
-191 94 146 0
90 94 15 0
158 64 173 0
-121 77 143 0
-18 -44 10 0
36 183 -165 0
-42 110 131 0
17 -130 -153 0
123 -23 -182 0
171 184 33 0
-138 -5 12 0
129 77 -92 0
-44 22 11 0
-16 110 128 0
86 -29 -109 0
-106 -36 21 0
-78 14 -67 0
-39 52 72 0
-166 -81 69 0
155 -86 -103 0
-126 115 70 0
-18 109 -39 0
82 -63 65 0
114 118 -86 0
-49 43 50 0
-146 156 34 0
182 -9 32 0
-42 101 -50 0
-195 -133 35 0
-178 98 149 0
46 -122 199 0
-122 169 80 0
-35 97 5 0
190 -195 -64 0
135 -76 185 0
-32 -69 -142 0
-101 11 -57 0
64 43 -172 0
23 -26 93 0
-36 92 -31 0
-7 33 -199 0
69 196 -94 0
-62 -111 -60 0
103 82 10 0
-4 -89 -172 0
128 174 -186 0
-56 -187 -137 0
153 121 36 0
-199 44 149 0
120 -197 144 0
-146 -95 -160 0
-112 -184 -50 0
43 -1 170 0
31 -170 -118 0
85 26 -49 0
-190 156 55 0
-77 -188 -111 0
-161 90 -151 0
131 -31 -160 0
91 -98 -114 0
-104 193 73 0
-37 74 -1 0
130 -20 12 0
8 1 -73 0
-14 -61 -39 0
-151 -132 84 0
-78 173 -16 0
128 -198 -48 0
93 162 152 0
13 -200 168 0
171 -17 -173 0
100 40 22 0
-99 -115 44 0
-195 -37 44 0
174 -191 -63 0
69 46 13 0
25 173 24 0
148 62 38 0
149 44 -66 0
-57 87 175 0
-177 -111 -112 0
85 5 -36 0
-162 -37 -34 0
166 -85 -180 0
-123 -185 149 0
-47 -164 -138 0
112 44 153 0
-126 90 -53 0
-191 -64 -89 0
-55 149 -66 0
-14 -76 -138 0
200 48 2 0
-23 96 -87 0
135 188 94 0
108 -45 28 0
-172 -48 -91 0
2 158 -41 0
185 108 137 0
159 138 -57 0
21 53 1 0
-125 168 -134 0
-190 41 -127 0
-15 -84 122 0
-36 195 -83 0
101 -162 -175 0
200 -99 189 0
34 62 139 0
120 99 70 0
36 169 182 0
58 149 -156 0
-162 70 93 0
37 -127 147 0
89 91 178 0
11 -169 43 0
-53 161 23 0
81 25 32 0
146 160 54 0
-104 120 -9 0
-29 -180 -141 0
-180 -196 61 0
-145 -29 10 0
155 55 10 0
-188 179 164 0
63 -77 15 0
139 4 -43 0
-199 157 -73 0
-24 -12 175 0
189 11 125 0
-128 27 -118 0
-158 -179 -99 0
200 -173 61 0
-104 -47 -181 0
87 183 -18 0
75 189 163 0
55 -99 -196 0
50 134 -2 0
31 195 -98 0
-119 125 181 0
47 -126 -143 0
2 193 16 0
90 153 187 0
143 -145 108 0
152 -165 162 0
-143 -164 -179 0
126 -136 165 0
-140 -24 -82 0
108 32 29 0
-171 71 -190 0
71 -52 -100 0
-48 86 -112 0
-80 101 32 0
200 8 28 0
-139 -101 -108 0
-28 80 158 0
107 -29 86 0
66 170 -123 0
189 -145 -22 0
-52 -31 -112 0
126 117 -157 0
-137 -4 -16 0
113 -146 -103 0
128 176 -84 0
-181 26 31 0
-141 -71 -31 0
-134 -133 -164 0
108 94 163 0
34 -25 -152 0
182 36 -15 0
68 179 -78 0
187 -154 18 0
64 110 20 0
-36 -16 -167 0
144 -127 -101 0
-108 -13 72 0
-170 -173 56 0
-41 159 -22 0
-63 142 -180 0
10 -29 143 0
190 -48 81 0
21 14 -158 0
194 -102 159 0
25 -111 -34 0
131 -67 -104 0
-57 -98 180 0
-29 -88 180 0
35 175 198 0
-160 -172 113 0
48 -200 147 0
-190 -185 -168 0
-82 147 -79 0
-18 -59 -23 0
-181 68 -33 0
72 -134 160 0
97 -174 -146 0
62 -22 -148 0
-51 77 62 0
-135 -66 -161 0
48 70 -126 0
39 -53 -185 0
-1 -9 -3 0
179 -137 -61 0
-140 88 -63 0
-25 90 114 0
-108 -15 81 0
-152 -110 146 0
18 181 -97 0
92 -54 -104 0
-139 -53 -82 0
53 -133 -192 0
-122 4 -156 0
-37 -151 -98 0
-13 173 87 0
-74 109 83 0
-139 -121 113 0
132 -117 17 0
-177 79 176 0
86 -161 127 0
153 125 -116 0
198 -184 148 0
-185 -45 -34 0
-126 -121 99 0
76 160 -196 0
-133 -52 96 0
99 183 -75 0
60 -125 -140 0
-162 139 -18 0
-86 -82 -168 0
188 -99 -166 0
-34 -108 -97 0
-57 -184 13 0
136 58 -171 0
-157 -124 156 0
37 145 -107 0
-22 -198 -177 0
-193 7 84 0
-195 133 128 0
100 171 93 0
102 200 -12 0
-161 -196 37 0
-166 9 120 0
-180 128 24 0
194 81 76 0
-19 171 122 0
123 -105 -157 0
153 -62 69 0
46 -66 -6 0
-50 130 15 0
-99 -38 -197 0
-122 163 88 0
40 155 179 0
-174 -9 80 0
-82 -158 101 0
-151 8 -78 0
42 56 2 0
38 -179 118 0
191 -34 117 0
12 86 -145 0
190 155 83 0
195 17 -110 0
-156 -81 186 0
-108 -165 85 0
-189 20 198 0
-186 189 76 0
78 62 193 0
-174 69 -101 0
-70 -34 37 0
25 -24 -171 0
171 -37 -170 0
-110 -128 -27 0
-140 -104 91 0
-77 104 125 0
123 47 -195 0
-156 134 -157 0
-33 -97 104 0
119 -162 164 0
171 -59 -110 0
-171 -163 -119 0
120 96 -44 0
-198 191 -59 0
34 4 -57 0
-31 133 -65 0
73 112 96 0
-67 -109 33 0
-159 -53 114 0
-168 38 -73 0
-5 -149 168 0
82 171 -65 0
-46 103 -199 0
-138 64 51 0
-48 13 71 0
9 -197 -169 0
193 -93 79 0
182 -153 188 0
-120 -8 34 0
-58 73 170 0
-114 187 40 0
168 -13 184 0
-199 -15 -4 0
87 69 -191 0
74 -33 72 0
-114 -107 -159 0
-32 -19 55 0
83 -195 -66 0
-68 36 181 0
-164 -121 37 0
4 -66 -47 0
-49 96 126 0
35 139 -30 0
-108 -90 -92 0
-161 144 52 0
-110 162 125 0
-163 27 -7 0
138 -139 54 0
127 135 -71 0
-86 -26 -112 0
-66 5 61 0
124 -101 -35 0
10 115 120 0
61 -48 -30 0
61 173 -80 0
196 -115 -67 0
164 -45 -167 0
-85 -38 -78 0
-16 131 190 0
21 -74 -49 0
158 67 -139 0
-87 -105 -177 0
-19 -63 -177 0
-22 141 -153 0
-30 65 173 0
71 -92 -140 0
-140 149 119 0
-57 171 90 0
15 20 49 0
-28 -180 132 0
-124 103 101 0
-142 -91 29 0
-162 169 43 0
-66 47 -137 0
78 76 -2 0
65 110 -105 0
-146 155 -12 0
-155 -150 97 0
94 167 -183 0
-160 18 38 0
-86 71 -17 0
-32 -179 105 0
89 119 185 0
-3 -160 -91 0
37 168 -182 0
100 68 14 0
-159 49 -26 0
-181 -163 159 0
-88 -74 99 0
-197 195 -60 0
76 74 7 0
-186 -90 115 0
-109 -44 -104 0
6 -194 16 0
-90 -35 -184 0
-78 138 -198 0
3 -193 -102 0
-162 -90 145 0
-135 -25 2 0
46 138 -34 0
-32 128 163 0
29 -47 41 0
72 -13 91 0
126 90 193 0
-37 -167 -6 0
10 -67 -73 0
100 -125 39 0
112 -184 13 0
85 193 -153 0
-7 34 -115 0
199 -76 98 0
-193 -192 -33 0
23 -83 130 0
-73 96 45 0
-29 7 -62 0
63 -8 91 0
-98 101 63 0
-186 68 -134 0
186 36 76 0
172 73 188 0
-38 48 -179 0
-82 -101 2 0
59 102 108 0
-19 143 111 0
-126 94 33 0
97 -73 -144 0
28 -77 41 0
168 28 -200 0
40 -145 -101 0
127 152 -85 0
-154 -164 72 0
38 95 178 0
94 30 -37 0
-151 -8 80 0
198 193 -46 0
96 -100 -94 0
-192 -118 -110 0
158 -77 -196 0
62 175 -88 0
-146 -16 -154 0
-160 108 -54 0
-157 164 -19 0
160 -162 185 0
130 -30 -17 0
-48 -178 106 0
37 36 -11 0
-150 -38 -146 0
86 -102 101 0
169 9 -125 0
-48 43 -91 0
56 1 -142 0
84 -65 171 0
-74 44 4 0
137 -14 -191 0
2 50 -56 0
-191 -157 32 0
