p cnf 200 620
-26 -176 -147 0
-36 -39 63 0
136 143 42 0
-165 194 137 0
-149 58 -29 0
-187 38 128 0
-160 175 90 0
-192 -87 -185 0
-109 -70 -132 0
-100 174 -66 0
-38 156 -83 0
35 147 -167 0
130 77 120 0
-178 135 -171 0
-91 -24 61 0
-197 -119 -98 0
-162 -128 -13 0
-91 199 200 0
-147 -79 152 0
45 127 -27 0
8 -29 69 0
138 70 192 0
8 95 180 0
-83 48 25 0
-200 158 -50 0
196 -164 1 0
90 190 -35 0
117 -195 -86 0
83 173 -10 0
-173 -12 -22 0
-111 -4 143 0
65 -40 77 0
46 -23 -11 0
-115 78 -40 0
156 200 133 0
89 -167 -150 0
-38 83 -180 0
-75 197 89 0
87 83 197 0
-141 129 8 0
-40 -134 139 0
-139 27 118 0
120 183 -107 0
-189 -198 -58 0
200 153 -112 0
113 77 63 0
17 -177 28 0
-57 -76 -78 0
154 75 -149 0
-173 -166 -112 0
-108 128 -17 0
131 -19 32 0
133 -27 14 0
48 174 87 0
-152 26 -51 0
157 -162 -140 0
-194 -89 -24 0
1 -7 24 0
-37 25 -18 0
128 -64 138 0
16 -158 156 0
186 -20 -134 0
-167 -181 141 0
-32 103 -106 0
54 198 12 0
-70 60 93 0
118 -153 -117 0
183 188 121 0
-116 196 -169 0
-45 -75 -48 0
121 -78 135 0
102 24 -109 0
172 42 -152 0
112 -71 34 0
46 45 138 0
-57 -148 -53 0
98 49 162 0
-46 -22 -3 0
119 -31 -11 0
-39 49 -8 0
63 -103 -48 0
70 78 61 0
-67 -144 109 0
-94 39 -197 0
-173 -131 121 0
-92 62 -112 0
-2 -27 15 0
97 -152 114 0
-142 101 41 0
2 49 9 0
-82 139 -200 0
96 112 135 0
34 -72 127 0
22 -80 185 0
-171 -198 -71 0
89 -36 -27 0
-151 -28 -56 0
-118 103 111 0
-124 29 27 0
-7 -105 148 0
-40 -66 102 0
63 59 168 0
-113 -119 143 0
166 198 62 0
62 -180 -51 0
16 -150 -40 0
-146 -112 -193 0
62 34 104 0
120 -110 -114 0
57 75 -109 0
-192 98 -125 0
8 94 -41 0
78 -8 188 0
138 97 -72 0
113 -74 -19 0
-32 164 167 0
-174 10 -151 0
125 -193 75 0
-145 -185 -155 0
81 -77 -64 0
-154 124 72 0
-123 -161 -117 0
54 -174 -121 0
85 -121 182 0
-128 -149 -2 0
-41 -90 18 0
58 135 128 0
106 -53 -109 0
-71 125 -96 0
-167 18 188 0
-147 75 -150 0
57 42 -98 0
86 -108 -76 0
75 3 -64 0
-95 178 -41 0
-156 128 -65 0
180 -140 -59 0
83 81 178 0
139 -68 71 0
-190 -132 164 0
180 130 -70 0
-157 60 145 0
-117 -180 26 0
-80 14 149 0
40 -160 194 0
-100 -47 -171 0
-81 -125 172 0
-50 -181 -71 0
192 51 -11 0
-124 -7 62 0
-57 -78 63 0
56 170 -172 0
185 154 -180 0
74 -125 112 0
75 184 62 0
-95 162 -84 0
151 116 -38 0
119 -95 -52 0
-131 -139 -46 0
-183 -75 33 0
27 41 -12 0
30 -3 -185 0
-192 196 200 0
111 -177 -142 0
69 -94 -138 0
-151 -74 -199 0
130 -171 162 0
161 177 101 0
-84 -174 125 0
-5 85 -128 0
-108 147 -68 0
-175 4 117 0
65 124 37 0
-86 93 -68 0
63 -88 188 0
-60 12 32 0
-161 97 -59 0
27 100 104 0
171 25 -63 0
-33 167 74 0
38 -110 147 0
-181 -142 -13 0
-12 -32 167 0
-140 107 180 0
-159 -23 -75 0
61 102 60 0
-171 -143 38 0
-15 -8 -70 0
58 -61 22 0
-111 108 -44 0
65 -109 77 0
-71 -133 -57 0
15 -185 -118 0
6 -158 115 0
171 71 -179 0
2 -81 -42 0
-170 139 -2 0
-31 182 -99 0
-163 -200 -148 0
159 -70 100 0
-154 138 -122 0
87 151 163 0
-105 -113 -9 0
-117 -22 65 0
-67 7 82 0
-107 -144 -92 0
190 149 184 0
-130 54 -85 0
95 -102 36 0
95 180 18 0
51 -119 -84 0
110 74 -76 0
-98 -152 14 0
130 -55 33 0
95 130 166 0
159 106 -16 0
84 99 104 0
-27 96 -28 0
81 18 115 0
-35 74 -122 0
-126 -26 150 0
-138 13 -194 0
108 113 -47 0
156 197 69 0
-55 179 -145 0
101 200 96 0
-29 -142 -75 0
-63 -148 -104 0
142 101 -39 0
124 158 -138 0
164 -196 199 0
-134 -136 -1 0
32 -157 163 0
57 -191 -23 0
147 -47 -118 0
-173 187 -98 0
7 80 91 0
158 88 -1 0
-32 -181 91 0
94 -147 157 0
-108 200 -10 0
-34 54 -181 0
167 -196 -136 0
-190 32 -63 0
60 -190 -187 0
40 -31 91 0
-28 -12 -137 0
-61 -110 100 0
62 -141 52 0
-187 -6 -47 0
-37 31 -131 0
60 -57 184 0
-143 -155 -97 0
189 -171 -148 0
172 -118 119 0
-177 -172 -192 0
141 -122 -19 0
18 193 -29 0
29 58 -75 0
-121 -191 181 0
-14 162 -166 0
-185 -97 -174 0
-8 -100 -169 0
169 -80 -195 0
-89 45 169 0
-175 -190 -8 0
-107 62 -50 0
173 16 -139 0
48 84 8 0
-26 -30 -145 0
-122 -164 -147 0
153 -198 121 0
61 143 -166 0
-198 135 -65 0
-55 -49 116 0
80 -79 -74 0
-54 177 89 0
183 -5 -31 0
-80 -23 113 0
-76 59 -45 0
178 120 -136 0
-10 -161 -64 0
17 -3 -59 0
-134 57 -23 0
173 -188 -40 0
120 -13 -194 0
-81 110 -98 0
152 -26 -41 0
191 156 151 0
74 -13 -94 0
33 -193 -35 0
-174 87 -9 0
71 121 -62 0
-3 148 138 0
-139 -119 -111 0
-36 91 171 0
119 -138 -180 0
-148 100 12 0
157 -68 -189 0
-90 144 129 0
110 68 162 0
-130 -163 23 0
-62 -145 140 0
196 -50 -193 0
-177 -147 10 0
134 26 -43 0
-185 -156 152 0
173 -100 -147 0
-102 -8 -97 0
157 -128 -84 0
-173 12 194 0
172 193 8 0
-53 -171 58 0
46 12 92 0
196 9 144 0
-19 129 80 0
-93 -48 199 0
-172 -82 -148 0
110 -15 -142 0
166 -7 96 0
22 83 -60 0
-79 4 8 0
59 -43 -76 0
62 -98 59 0
128 23 20 0
157 -193 84 0
111 110 194 0
127 80 56 0
-86 -116 186 0
-18 42 -64 0
-72 -11 -138 0
-100 147 127 0
9 -78 -5 0
-196 -176 -91 0
-151 111 -41 0
149 -40 -165 0
-43 200 -64 0
-135 69 -52 0
-60 199 63 0
-149 132 -35 0
-157 -117 31 0
-123 178 27 0
143 90 54 0
76 61 26 0
21 -103 118 0
172 49 -160 0
126 -169 -20 0
-1 113 -97 0
129 31 -72 0
144 -138 141 0
-138 148 -179 0
102 91 -127 0
114 64 68 0
-64 139 -179 0
59 102 -132 0
-106 -149 78 0
70 -151 46 0
-159 -5 13 0
-15 -168 -171 0
66 195 93 0
78 -19 -101 0
16 -194 33 0
176 -59 73 0
-122 -42 85 0
194 108 -153 0
21 83 -116 0
-63 -21 -144 0
66 -189 -49 0
115 -111 -62 0
64 34 -179 0
-152 122 -139 0
-172 132 16 0
21 -199 -170 0
-136 -74 137 0
45 57 125 0
-105 87 -125 0
-189 27 135 0
14 -169 -142 0
127 -158 118 0
-95 -182 46 0
-64 -159 -61 0
50 -19 -33 0
3 -68 29 0
33 -58 32 0
170 -55 -147 0
170 34 -158 0
-191 -128 -165 0
-143 -24 181 0
-194 173 -75 0
-194 3 58 0
-173 -153 10 0
19 -140 -42 0
-66 91 71 0
-24 79 193 0
83 -35 -108 0
184 78 -180 0
-58 -140 137 0
163 -1 -57 0
-89 -42 189 0
-152 41 92 0
-149 104 125 0
-40 -126 117 0
-98 111 -139 0
-25 33 -155 0
26 2 -36 0
154 124 95 0
-125 -140 72 0
12 -180 175 0
-61 -159 -172 0
139 -70 -58 0
-144 38 39 0
126 46 118 0
-159 -74 -126 0
-84 -131 27 0
22 68 -17 0
-118 89 169 0
-69 -114 -168 0
192 -169 -182 0
99 -9 -47 0
33 153 -16 0
84 -177 57 0
-73 85 -165 0
-168 51 -63 0
-169 55 27 0
84 -168 165 0
-74 -16 91 0
34 28 129 0
153 183 197 0
-45 144 92 0
102 -176 21 0
-29 24 -142 0
-77 84 94 0
19 -23 98 0
-23 -84 -27 0
30 125 76 0
-56 -192 -154 0
-119 131 -23 0
-42 9 -75 0
117 -158 -122 0
-180 -176 -69 0
132 86 -184 0
-118 -170 128 0
2 64 -164 0
194 -142 -83 0
-122 75 -17 0
161 75 47 0
-146 101 142 0
99 181 -41 0
58 96 100 0
-55 134 -96 0
105 -61 3 0
-54 -176 -6 0
-6 -56 -184 0
-3 -139 58 0
-173 147 -143 0
-23 -89 96 0
5 -119 23 0
-74 -11 38 0
-6 34 5 0
-185 76 -192 0
168 -72 187 0
112 156 41 0
-51 83 -159 0
161 72 -164 0
127 51 -23 0
29 26 198 0
-15 -171 -129 0
113 -12 45 0
-22 198 -43 0
-165 -99 143 0
151 114 74 0
-114 72 138 0
131 -161 193 0
-141 -139 -103 0
106 97 54 0
-82 -74 -58 0
-93 -108 -86 0
3 -90 115 0
96 -184 136 0
166 -49 -11 0
-83 78 -86 0
-35 -198 46 0
16 -183 -79 0
-41 -121 -164 0
-53 -22 34 0
142 15 -134 0
-31 -174 127 0
-101 40 122 0
143 181 198 0
-43 -76 -50 0
153 -174 17 0
-116 -3 -120 0
-167 -30 -50 0
-190 95 171 0
-92 46 150 0
-196 52 -124 0
191 26 -197 0
-154 138 123 0
72 11 81 0
-125 -159 53 0
24 -190 -47 0
-130 -132 -2 0
3 32 -197 0
83 85 -19 0
161 -69 100 0
-192 -123 75 0
63 152 -178 0
-167 -87 -7 0
151 22 165 0
160 97 16 0
-104 -55 -10 0
17 -199 57 0
87 -40 -29 0
-85 -88 53 0
35 8 70 0
-134 -40 -178 0
35 -108 27 0
-160 163 125 0
-6 75 -46 0
-73 111 13 0
56 -141 -197 0
-134 98 19 0
-195 91 -24 0
-1 197 101 0
-32 -122 -30 0
-181 191 43 0
122 108 -161 0
-49 107 118 0
-22 142 -113 0
56 190 134 0
114 56 -47 0
-51 100 -177 0
-137 112 141 0
-53 146 -164 0
52 144 5 0
149 -18 -118 0
-103 45 -116 0
-102 -39 155 0
109 -92 155 0
-108 162 -34 0
-174 113 -85 0
-23 -156 -86 0
-58 -36 -56 0
30 -134 -50 0
-153 134 181 0
131 -4 -21 0
-40 115 99 0
32 -198 147 0
-52 -92 -197 0
-71 -146 -98 0
114 -59 -176 0
-84 -99 13 0
96 64 -91 0
-12 36 -172 0
181 -146 73 0
52 38 155 0
-87 -190 63 0
147 143 57 0
86 29 -76 0
-52 -109 -142 0
179 128 21 0
119 -2 -181 0
134 -6 166 0
196 151 -64 0
195 -28 42 0
-101 -174 -132 0
-149 -68 32 0
-75 23 -95 0
9 -58 -84 0
-122 -100 185 0
69 97 -34 0
-137 -121 199 0
127 -99 192 0
-93 102 104 0
-42 44 153 0
103 -154 18 0
-15 -82 104 0
72 -176 91 0
189 77 69 0
21 -36 140 0
62 -14 -130 0
22 31 -8 0
128 -117 -79 0
-164 18 6 0
-200 -44 -171 0
179 200 -163 0
58 -92 100 0
158 -7 -198 0
53 -103 -35 0
-160 107 -125 0
-90 -164 -59 0
114 -60 -40 0
121 133 -74 0
118 189 128 0
-140 122 123 0
-200 -169 -7 0
-29 13 -97 0
149 118 39 0
-17 -176 57 0
34 -159 -145 0
-150 -200 162 0
-98 -27 37 0
186 84 49 0
76 -168 -199 0
-103 -123 172 0
-155 -136 38 0
-192 67 78 0
120 21 84 0
-109 -116 28 0
-21 -64 61 0
-69 -90 -115 0
14 64 -143 0
6 63 200 0
20 9 63 0
-56 145 -93 0
-10 59 190 0
-181 107 172 0
167 158 -190 0
-105 101 19 0
7 158 -142 0
