p cnf 200 620
60 -9 -41 0
-3 -64 -182 0
12 123 -104 0
128 -95 -74 0
-194 195 -45 0
88 15 156 0
-93 56 -192 0
146 -66 -195 0
-8 -35 6 0
-124 75 29 0
162 54 -181 0
119 111 -83 0
189 75 88 0
62 -102 -118 0
178 -136 -50 0
170 184 -27 0
18 132 -147 0
-77 175 29 0
-122 -180 -135 0
-80 74 -32 0
54 87 26 0
-59 49 -171 0
-167 -67 -121 0
125 186 84 0
-186 -103 95 0
-104 -5 56 0
78 -101 148 0
44 166 -85 0
73 78 -146 0
-151 48 104 0
-186 195 -97 0
-128 -84 40 0
-180 -199 -192 0
152 162 133 0
-144 109 -7 0
59 179 159 0
-80 58 -110 0
-192 77 -95 0
121 -165 -102 0
137 -135 -172 0
191 159 22 0
42 -199 191 0
-38 128 -24 0
134 35 -7 0
164 54 168 0
134 -123 80 0
16 -143 148 0
-158 61 -80 0
-88 -84 -134 0
159 44 93 0
75 51 -78 0
-11 -191 140 0
44 -150 18 0
-151 161 96 0
79 -84 -117 0
160 -129 -148 0
80 -25 97 0
5 186 -84 0
-6 -98 -132 0
-171 1 84 0
-8 52 -144 0
107 -12 92 0
-120 18 155 0
-152 -83 143 0
4 -178 86 0
-34 141 -168 0
-136 4 -101 0
-12 114 77 0
68 -54 76 0
71 2 153 0
-191 81 184 0
-143 -63 -165 0
188 195 -137 0
-190 40 -196 0
16 38 -81 0
62 90 107 0
-195 76 196 0
-118 111 1 0
73 -53 123 0
-83 -124 -113 0
108 -59 72 0
195 95 138 0
52 -141 37 0
50 -160 -172 0
107 -53 -153 0
-21 -184 155 0
24 103 3 0
50 -40 42 0
156 -184 10 0
79 98 23 0
37 -27 195 0
-66 -105 -165 0
118 -195 167 0
-55 -134 -2 0
117 160 -7 0
-68 -48 -129 0
27 127 50 0
92 19 -26 0
-119 114 80 0
4 163 162 0
2 31 36 0
30 -154 -175 0
-24 12 82 0
77 -140 -63 0
147 66 -121 0
101 -176 117 0
155 148 -16 0
-40 72 97 0
75 58 -136 0
101 155 160 0
-127 4 -86 0
-68 -113 38 0
-42 -182 -16 0
-126 -76 -197 0
-63 -57 -86 0
-141 -153 148 0
181 -78 -100 0
154 105 103 0
44 -12 -160 0
37 54 75 0
155 -189 -15 0
159 -5 124 0
13 -26 44 0
136 -133 124 0
-186 58 42 0
10 -22 188 0
185 -104 123 0
-4 -81 3 0
12 -17 -171 0
83 -167 -91 0
97 -181 192 0
85 102 104 0
58 120 119 0
196 -182 -130 0
23 -110 -140 0
156 -110 -89 0
174 46 -98 0
-42 -47 121 0
61 -31 -27 0
-149 74 180 0
-89 124 -150 0
194 5 135 0
131 82 83 0
169 -42 3 0
114 32 -44 0
32 -103 31 0
144 -4 164 0
44 -180 -110 0
48 -70 -115 0
146 -78 132 0
161 87 138 0
127 21 -157 0
3 12 118 0
-37 137 156 0
25 -69 -60 0
-118 104 -35 0
-18 -55 165 0
-162 -188 -137 0
-70 95 94 0
85 -5 46 0
195 -136 44 0
-79 -56 -94 0
125 123 -99 0
93 83 16 0
67 64 102 0
28 -181 -129 0
-25 83 175 0
-123 173 193 0
170 -187 124 0
115 -165 -52 0
-44 -53 119 0
167 -128 -50 0
-103 -121 88 0
-11 -50 115 0
-26 25 28 0
72 -51 -29 0
-6 184 106 0
104 -64 167 0
86 -45 -165 0
-13 -62 -7 0
149 17 -142 0
-166 169 112 0
-168 -83 56 0
-12 -172 23 0
158 -190 90 0
-179 -65 -2 0
-186 19 73 0
-67 10 -7 0
39 101 178 0
-98 -107 -197 0
-23 -197 -122 0
-94 -82 -55 0
-188 -47 105 0
-161 101 10 0
-131 -68 180 0
162 -186 -183 0
-182 2 65 0
12 -5 -122 0
-137 118 65 0
177 -72 -27 0
-107 -43 6 0
149 88 172 0
128 -152 67 0
135 170 -109 0
115 176 66 0
98 -73 52 0
-14 156 104 0
-78 182 -64 0
-110 81 27 0
-94 -15 -173 0
97 -75 196 0
-101 -9 -197 0
111 9 171 0
178 -154 -102 0
188 187 -63 0
-46 70 -134 0
-173 -65 -32 0
29 173 26 0
136 -158 16 0
10 -145 -95 0
-173 87 106 0
-160 -165 93 0
85 -151 -18 0
-100 34 200 0
112 -179 -121 0
-84 -181 -144 0
46 -165 -5 0
189 -125 161 0
5 -9 -81 0
-45 190 -97 0
198 32 48 0
-25 113 55 0
27 1 169 0
82 25 -148 0
-6 -75 43 0
-190 -98 -197 0
70 200 180 0
-189 -12 139 0
65 -185 -66 0
143 -13 -132 0
-111 -44 -64 0
70 -13 -22 0
38 -95 -131 0
-28 175 -40 0
159 94 19 0
-21 114 104 0
-183 -29 154 0
121 174 -1 0
96 -142 -128 0
113 33 -144 0
-140 150 30 0
97 61 -186 0
110 101 34 0
-150 137 -32 0
136 162 96 0
95 150 -3 0
38 -46 -59 0
-93 77 80 0
-24 -108 -15 0
-98 32 -173 0
-176 -129 -69 0
11 60 -121 0
140 96 -120 0
75 81 -46 0
-104 82 73 0
-13 62 157 0
-115 36 103 0
139 40 -199 0
-173 -177 -44 0
162 97 1 0
84 144 35 0
190 148 -9 0
176 83 -58 0
-18 -165 135 0
40 85 -66 0
116 66 50 0
-65 -153 23 0
21 -100 -180 0
-84 163 -196 0
-119 16 32 0
-192 -20 163 0
-180 -174 -183 0
124 -5 186 0
-38 123 198 0
-76 -124 107 0
30 -63 -62 0
-2 -54 128 0
-94 -11 115 0
42 152 154 0
106 139 35 0
-149 -177 -87 0
29 -138 -159 0
-128 -60 -43 0
-188 99 -89 0
-66 -54 -136 0
-91 -162 108 0
-7 -33 84 0
-155 -90 -24 0
-178 13 35 0
9 -33 114 0
-22 130 -133 0
-109 186 -144 0
-20 133 -155 0
-139 77 130 0
-178 -127 163 0
162 -157 4 0
154 -33 -83 0
-20 120 -124 0
-18 63 54 0
-12 -90 -176 0
-4 -148 93 0
-43 53 -1 0
182 79 -18 0
-180 -67 -177 0
-12 -103 19 0
187 -15 -92 0
-81 -28 -87 0
-142 68 37 0
95 -77 137 0
-81 -179 43 0
144 142 -18 0
122 -93 -175 0
10 73 -7 0
-122 165 95 0
154 -69 -49 0
46 44 103 0
49 118 -153 0
-164 -154 161 0
77 -11 8 0
27 147 177 0
-18 -75 -189 0
22 127 -121 0
182 -158 -34 0
72 151 -44 0
25 -114 77 0
-187 -181 -5 0
128 -181 -71 0
24 147 -121 0
-110 -29 177 0
-156 37 75 0
-127 -44 -108 0
143 -67 -121 0
53 121 193 0
-131 91 178 0
-47 127 57 0
161 3 -109 0
93 -199 81 0
55 74 -48 0
-15 -191 109 0
-150 -132 184 0
-117 -8 -9 0
163 170 117 0
131 114 54 0
-25 172 186 0
-169 88 9 0
-55 43 45 0
-196 -49 175 0
-115 -160 78 0
-24 -67 150 0
-127 168 184 0
133 143 193 0
23 -143 -197 0
104 -106 -131 0
143 194 -123 0
-136 105 -195 0
49 -60 -171 0
78 -89 -140 0
126 -112 91 0
-49 -59 44 0
5 70 103 0
74 -161 21 0
78 -49 -107 0
-132 -117 -76 0
82 16 -122 0
-47 -5 -186 0
12 -43 190 0
12 -83 17 0
135 -49 -123 0
-129 -146 -10 0
-89 109 -65 0
3 63 79 0
-184 -35 32 0
31 35 166 0
-107 -44 129 0
-152 -137 -10 0
-89 -16 -190 0
-8 -74 22 0
164 -182 31 0
43 -151 -17 0
142 -137 -132 0
66 -74 182 0
-25 142 169 0
37 -79 -101 0
33 16 -124 0
-172 -47 50 0
-106 -47 21 0
99 10 67 0
-15 -100 -20 0
-107 -126 125 0
-191 -26 51 0
-29 60 -155 0
-189 121 -16 0
151 -134 82 0
4 -25 -141 0
130 -46 -126 0
-45 58 173 0
160 -186 -46 0
127 134 -144 0
-141 118 47 0
-104 -82 145 0
191 140 71 0
-182 -107 97 0
188 -154 -55 0
-88 171 18 0
-15 79 122 0
110 150 -82 0
-31 101 191 0
93 130 153 0
142 -9 181 0
-178 -73 -58 0
-25 75 130 0
96 -161 29 0
42 197 58 0
101 -105 -21 0
104 -24 8 0
193 60 -133 0
-189 142 137 0
-200 -136 73 0
35 -151 -68 0
-104 12 -102 0
192 166 15 0
114 -177 192 0
-123 -163 -21 0
-182 163 133 0
-47 -34 123 0
142 177 -182 0
120 -192 -45 0
-32 -55 76 0
81 -120 75 0
-14 94 -118 0
178 19 190 0
152 5 -104 0
-79 19 88 0
139 44 66 0
-74 29 88 0
97 -101 41 0
54 115 -45 0
-149 70 6 0
29 23 178 0
-51 27 186 0
34 175 165 0
105 4 -111 0
-115 -26 -132 0
30 146 -8 0
-80 -162 -8 0
118 -56 -69 0
-158 -18 -155 0
-200 12 -66 0
-53 -123 -50 0
-23 124 -52 0
101 75 56 0
-81 -153 -107 0
-199 -33 -196 0
-89 -192 -105 0
187 -90 -160 0
-55 -114 -94 0
-5 174 -29 0
2 157 -119 0
-144 -116 -85 0
-123 124 7 0
-8 1 48 0
-3 -173 -133 0
141 -152 -35 0
44 -3 -111 0
-193 184 62 0
-184 -88 -143 0
179 -190 -55 0
8 68 6 0
101 -182 158 0
92 35 -33 0
-67 51 -158 0
89 -2 25 0
47 -16 -108 0
-88 -200 143 0
-20 38 -74 0
58 53 144 0
-35 41 134 0
67 169 159 0
86 -7 55 0
158 149 95 0
-34 29 -77 0
-154 -160 -132 0
-123 120 -45 0
30 109 2 0
-143 153 -6 0
-150 -128 153 0
23 94 88 0
161 191 85 0
196 -182 128 0
79 124 128 0
53 126 124 0
126 -66 145 0
93 -2 153 0
112 102 194 0
4 57 -82 0
114 -4 -41 0
137 189 88 0
-158 -82 -119 0
176 28 -54 0
175 -119 -16 0
-64 -134 130 0
-172 119 -75 0
-56 -80 -129 0
-179 -124 126 0
-154 169 -21 0
67 -120 -52 0
87 72 150 0
34 178 -172 0
-77 -97 178 0
-112 -145 200 0
16 -146 -87 0
92 61 78 0
-161 -37 -9 0
-34 -71 -70 0
73 -198 136 0
-149 -25 87 0
-172 -42 193 0
-112 -57 117 0
107 58 46 0
42 179 -105 0
137 -90 -104 0
-2 -188 175 0
156 -37 93 0
-24 99 68 0
175 83 49 0
54 185 -149 0
-200 -105 -193 0
130 185 -83 0
181 -174 -78 0
-131 110 81 0
-64 160 -77 0
120 3 -185 0
90 47 63 0
-173 -183 170 0
-91 -129 -64 0
-67 -144 171 0
-187 173 163 0
57 119 156 0
165 -143 -158 0
-54 170 -192 0
180 179 41 0
112 191 78 0
45 99 127 0
-15 -96 -60 0
-192 -139 -61 0
145 120 -190 0
91 -12 52 0
32 -171 -198 0
40 -50 -114 0
171 54 -137 0
145 62 -194 0
16 -23 22 0
55 -96 -99 0
24 -158 97 0
129 2 78 0
189 26 182 0
-192 -22 -81 0
-111 -93 -101 0
-97 -42 -170 0
133 4 47 0
181 114 106 0
-31 87 -12 0
79 93 -173 0
-78 -3 -70 0
66 32 -70 0
118 107 153 0
34 33 -68 0
136 -29 89 0
-92 -99 71 0
111 35 90 0
-147 44 -140 0
-166 77 -157 0
-166 -88 -38 0
114 -139 -26 0
183 -165 88 0
158 103 58 0
19 -4 102 0
4 191 -91 0
-194 68 -24 0
-171 134 -110 0
-101 -31 32 0
-70 -67 -103 0
150 140 31 0
-64 -56 145 0
-36 176 15 0
179 -92 135 0
-75 -131 138 0
-187 120 60 0
-188 2 145 0
13 166 -8 0
-148 -141 8 0
-58 57 56 0
99 -152 146 0
183 -42 -78 0
-52 174 -136 0
146 153 84 0
89 -46 165 0
-165 91 44 0
196 -188 102 0
157 -198 150 0
61 92 165 0
76 -193 27 0
-137 81 -185 0
-116 199 -48 0
-100 -30 -3 0
47 -66 125 0
-32 -195 -14 0
-70 -79 -157 0
119 174 -10 0
181 -32 19 0
