p cnf 200 620
-38 172 -104 0
126 -67 -23 0
182 -144 109 0
119 -150 -195 0
-51 -195 -33 0
-124 52 50 0
-85 181 -168 0
24 65 49 0
-90 -40 -113 0
-165 -94 171 0
145 182 171 0
-78 -31 -149 0
-2 157 147 0
-1 111 189 0
38 197 113 0
-108 12 -177 0
-96 -140 -119 0
167 126 93 0
25 91 -61 0
-86 75 111 0
-30 -82 59 0
9 195 -17 0
121 182 -179 0
34 -111 162 0
163 77 -3 0
170 -28 -24 0
48 -59 12 0
71 123 -47 0
-44 24 142 0
-169 -103 -32 0
104 18 -86 0
82 127 62 0
-79 -30 7 0
-78 59 -73 0
-166 -52 24 0
21 77 188 0
-44 -29 -184 0
-68 186 -191 0
55 -67 164 0
-173 -143 161 0
5 112 193 0
58 -171 -101 0
196 -195 -87 0
-128 152 4 0
76 179 74 0
78 125 -116 0
170 28 -93 0
-111 -120 -37 0
38 -70 -120 0
-31 18 51 0
135 120 112 0
174 44 -41 0
185 156 31 0
-154 -195 5 0
-59 -176 82 0
-196 -109 -157 0
122 -89 155 0
-144 -191 -18 0
-102 114 -140 0
36 -52 -118 0
-22 47 101 0
-98 -169 -143 0
-140 -175 -107 0
-195 -94 160 0
121 -114 106 0
188 -70 -183 0
16 71 11 0
-140 155 -108 0
-10 -60 189 0
146 -143 -42 0
-139 -19 25 0
-131 -89 160 0
89 44 192 0
125 -127 120 0
127 106 36 0
125 192 -45 0
-101 176 -67 0
-99 -112 101 0
16 -18 -161 0
-155 80 -167 0
7 89 147 0
-39 -72 76 0
199 -75 100 0
75 20 192 0
-142 -81 -62 0
-86 -159 124 0
55 -200 140 0
89 82 -102 0
146 74 156 0
-92 153 52 0
125 77 -144 0
77 16 121 0
171 40 -44 0
86 -74 -3 0
89 194 -82 0
-13 182 -199 0
88 -15 -10 0
189 126 -13 0
104 170 47 0
-71 159 190 0
-154 -138 -85 0
-160 -22 -161 0
8 -75 162 0
127 13 164 0
82 -89 40 0
-157 -77 14 0
83 91 -119 0
-190 28 -109 0
72 -166 -178 0
-84 144 -13 0
-57 -105 60 0
50 -188 93 0
-55 -37 -152 0
-78 -65 35 0
-159 103 12 0
-64 161 27 0
-138 -71 -64 0
-79 -32 189 0
67 -176 -25 0
-157 55 128 0
3 116 -57 0
95 -53 104 0
70 -183 -90 0
-90 27 -99 0
117 -142 32 0
165 41 -97 0
-52 -109 -92 0
32 191 192 0
13 3 -15 0
73 -166 -38 0
-189 92 -74 0
-2 -167 79 0
68 163 -155 0
30 -108 -185 0
80 107 -174 0
-73 -199 -11 0
52 176 -30 0
-74 -47 -148 0
95 -121 -156 0
87 111 159 0
83 86 -44 0
27 198 193 0
178 27 -34 0
-182 -62 -121 0
163 178 143 0
156 -37 34 0
-188 -26 119 0
67 -114 162 0
-170 -75 -51 0
-69 -98 18 0
-158 -12 34 0
-182 95 85 0
-105 32 41 0
22 70 -170 0
-66 27 -95 0
-194 -53 -27 0
-41 -144 56 0
43 -24 -177 0
98 178 -192 0
-80 52 33 0
124 -170 171 0
18 -81 -21 0
-120 -58 31 0
-129 -179 104 0
198 167 -112 0
125 -13 152 0
68 154 -123 0
-150 37 -20 0
87 -147 86 0
-138 -160 -75 0
196 -102 -171 0
98 -22 -115 0
10 108 55 0
34 -190 -3 0
107 145 -42 0
-126 28 -155 0
-49 -5 53 0
-61 97 49 0
-42 -18 -114 0
79 181 131 0
170 30 -169 0
15 -188 10 0
-126 -128 49 0
-78 146 -21 0
198 18 180 0
23 -89 -42 0
75 -137 -90 0
101 -165 9 0
-19 -120 41 0
198 -131 -186 0
-151 161 147 0
-159 180 192 0
-44 159 -9 0
-105 6 -111 0
4 -11 -14 0
85 -105 97 0
-113 197 81 0
57 -51 -102 0
49 -14 -168 0
200 194 181 0
-88 -86 137 0
187 19 3 0
-123 192 50 0
117 -120 146 0
118 -171 -155 0
-22 -144 179 0
-37 -13 -106 0
-26 -139 -72 0
60 170 194 0
-85 135 -17 0
-144 58 -107 0
68 -115 -74 0
-23 -41 44 0
30 16 -160 0
-154 144 55 0
13 73 164 0
-14 146 70 0
72 -45 -90 0
-130 -109 -150 0
4 29 -128 0
51 105 -15 0
3 145 -153 0
154 -141 -30 0
-40 108 -179 0
40 -172 18 0
153 -103 -28 0
-197 -151 18 0
60 135 18 0
-120 25 31 0
192 -119 -174 0
148 151 -118 0
159 -172 -55 0
90 -134 84 0
171 -174 22 0
200 -101 -191 0
125 31 132 0
-46 -32 -70 0
58 -151 77 0
-186 -184 -91 0
96 34 101 0
71 -169 -55 0
-60 194 144 0
-26 -50 -164 0
-100 18 -90 0
185 28 -111 0
-55 -7 -18 0
68 52 76 0
-158 -122 28 0
41 -156 -53 0
-6 -18 -158 0
-59 -29 -11 0
-33 181 -150 0
142 -171 95 0
-169 35 -142 0
6 54 -177 0
39 106 11 0
31 -149 -95 0
58 64 -156 0
47 52 -188 0
-140 -175 165 0
146 95 108 0
165 26 -189 0
76 25 -80 0
-87 183 -12 0
79 -143 -51 0
-119 -69 152 0
60 -120 -114 0
166 135 -58 0
182 17 -156 0
-24 -46 -70 0
40 -41 -71 0
69 -43 16 0
-187 -70 -185 0
3 58 110 0
-132 60 -127 0
173 -55 52 0
36 -83 87 0
-1 81 98 0
-11 -135 -177 0
9 29 25 0
34 178 189 0
-161 125 131 0
-16 -100 -83 0
36 -79 165 0
-162 -129 -115 0
123 162 -21 0
61 150 153 0
-112 7 -185 0
-63 49 102 0
-160 108 -114 0
-103 136 -152 0
-17 27 171 0
-2 60 -32 0
-125 -170 -199 0
11 -6 -39 0
3 -48 -54 0
-4 -90 168 0
-150 20 174 0
71 95 14 0
-170 16 92 0
124 168 -33 0
31 -190 -75 0
42 74 -14 0
192 63 143 0
-145 -191 -178 0
5 -129 -151 0
-147 199 -108 0
72 179 -68 0
-108 -154 175 0
185 -178 69 0
-1 -25 55 0
111 70 92 0
-158 130 148 0
108 -2 -154 0
117 -177 92 0
-34 -10 -197 0
-81 148 -13 0
183 60 -61 0
77 132 -116 0
-81 21 -170 0
-86 63 107 0
-116 -78 56 0
-104 -55 -82 0
83 150 -64 0
-182 -197 121 0
-105 88 163 0
33 6 108 0
92 51 -58 0
130 25 181 0
92 -133 199 0
-134 -26 62 0
73 177 -150 0
179 -4 125 0
-101 118 60 0
-125 5 -75 0
-100 -152 -71 0
-34 130 92 0
34 -165 -61 0
-79 -119 132 0
-51 -98 -37 0
-147 -89 -164 0
63 -74 -49 0
146 -131 23 0
-111 -48 64 0
-28 109 -6 0
-157 129 -119 0
130 -63 41 0
-6 -183 -28 0
55 190 -41 0
-148 154 32 0
-176 -90 -26 0
-6 -124 183 0
51 26 192 0
-95 -56 20 0
-95 42 -179 0
-151 102 20 0
-142 30 -198 0
30 -65 -12 0
103 124 -145 0
-48 -104 -116 0
56 29 -145 0
-32 -11 164 0
152 41 124 0
-125 182 -9 0
-107 -181 -160 0
-25 170 -189 0
119 -91 -156 0
152 127 -63 0
137 -95 -125 0
-156 47 85 0
122 -194 -74 0
-73 -35 -53 0
-123 157 178 0
71 151 77 0
-134 101 -24 0
-80 107 -68 0
-99 52 -119 0
175 149 169 0
148 -35 -15 0
-160 133 26 0
-103 -177 -32 0
-180 -75 -190 0
-39 -28 -20 0
-16 117 -194 0
111 129 153 0
90 -38 -141 0
187 -128 56 0
-42 59 -133 0
120 -97 52 0
-152 -142 12 0
-133 173 24 0
66 170 -119 0
-193 195 56 0
-186 10 174 0
-137 -185 -101 0
68 88 -96 0
18 168 111 0
-2 164 -18 0
151 129 2 0
-4 -21 109 0
134 -69 -29 0
-118 -121 31 0
43 -131 123 0
70 185 13 0
-134 -19 -11 0
-23 78 -144 0
140 57 145 0
-171 -98 40 0
169 -46 31 0
74 -21 85 0
-18 -183 -114 0
-147 -46 -14 0
-102 15 -199 0
-85 138 51 0
-194 26 -130 0
95 -129 -117 0
-6 150 -143 0
74 22 -65 0
-133 -96 -25 0
-96 153 -20 0
103 -43 2 0
19 24 -178 0
35 153 -53 0
-199 -73 -195 0
166 -128 121 0
30 -195 186 0
82 -153 -51 0
-57 150 -132 0
-18 -31 -154 0
23 -180 -86 0
-165 123 137 0
-45 -30 52 0
-9 36 -37 0
-162 101 4 0
11 -138 -61 0
-189 -38 130 0
-80 171 143 0
-55 165 -91 0
-189 30 -101 0
159 -86 166 0
-106 -123 117 0
-62 -87 197 0
-106 -77 174 0
-162 28 3 0
-124 -88 122 0
-4 178 -145 0
145 102 -182 0
-126 -10 -98 0
51 49 -139 0
99 9 -23 0
54 171 -90 0
-74 -197 15 0
-91 197 -131 0
-189 -83 19 0
-47 -194 -40 0
145 -194 174 0
-161 -114 173 0
149 130 165 0
-31 -71 35 0
-25 -158 -152 0
-174 133 -67 0
-100 26 199 0
36 130 173 0
20 10 175 0
-192 -36 -149 0
76 -146 24 0
-174 -187 78 0
-151 108 166 0
32 54 -55 0
95 182 -96 0
74 32 193 0
34 -64 -62 0
191 95 110 0
187 -123 18 0
-16 -174 -150 0
151 -91 190 0
-83 -125 -129 0
-144 92 94 0
-144 32 44 0
-122 -19 24 0
-157 58 -71 0
-106 192 -145 0
8 -63 -71 0
1 80 103 0
-123 -147 -10 0
37 35 -141 0
-41 -43 -157 0
171 68 61 0
-198 156 106 0
-108 -113 59 0
-94 59 11 0
92 66 129 0
175 -162 -100 0
-107 -172 75 0
-198 72 12 0
193 172 188 0
111 24 151 0
96 -15 -189 0
-7 25 -193 0
174 101 -55 0
-154 -33 -189 0
-27 98 -158 0
-185 76 -6 0
20 -170 -167 0
47 -172 176 0
-71 -51 17 0
-93 -15 -95 0
17 -60 -104 0
-31 -148 32 0
28 169 -121 0
-141 112 -32 0
112 6 -163 0
-7 116 -158 0
-77 -152 53 0
-188 -48 -148 0
13 90 -125 0
-59 45 183 0
-140 -119 142 0
-6 129 -156 0
-181 -141 -120 0
-96 177 -139 0
-14 -25 144 0
-143 -40 73 0
16 -55 -128 0
-151 -52 -7 0
183 143 -78 0
19 72 -136 0
-74 -101 91 0
72 4 -164 0
-152 129 43 0
-108 -102 -56 0
-55 -87 8 0
-16 -90 179 0
86 -70 -92 0
65 68 19 0
186 133 -195 0
-195 101 -136 0
-55 190 170 0
83 79 -197 0
151 -185 166 0
-84 30 -144 0
110 -149 -170 0
-49 39 29 0
-124 -6 -98 0
130 87 189 0
-75 -186 -16 0
-49 -161 91 0
34 -12 153 0
-176 134 -8 0
142 130 105 0
1 -72 58 0
-199 -103 51 0
-61 24 -89 0
146 186 192 0
-71 -32 117 0
-49 -146 -34 0
-9 -178 -78 0
-8 -158 38 0
122 -65 -60 0
-115 101 -124 0
-32 10 102 0
66 172 -194 0
53 -106 -94 0
-76 -20 25 0
161 -163 167 0
184 80 -196 0
-132 -6 85 0
-197 177 16 0
-117 -189 -18 0
-19 145 -57 0
168 73 80 0
-1 -24 -103 0
60 -176 21 0
-30 81 183 0
144 -72 -119 0
195 45 -168 0
-39 115 102 0
-7 195 -180 0
180 -146 -41 0
-168 21 52 0
30 82 142 0
129 -87 56 0
-197 146 -49 0
14 11 85 0
-83 27 -74 0
-136 -72 -49 0
141 39 76 0
24 136 80 0
-90 92 162 0
-159 71 -67 0
-96 188 -115 0
-95 -91 88 0
-147 111 -21 0
-122 -176 -194 0
194 162 -173 0
-36 -163 133 0
-116 170 125 0
174 30 31 0
84 102 146 0
1 -164 -161 0
175 185 47 0
97 -196 122 0
44 -185 74 0
-185 -151 -172 0
-159 71 -90 0
-130 -35 -168 0
-162 -73 -10 0
163 -132 125 0
195 -11 174 0
-12 86 34 0
75 182 95 0
-144 99 102 0
-95 102 -124 0
68 -130 -38 0
91 115 -47 0
-84 60 -108 0
168 133 -87 0
-196 -15 110 0
140 116 -87 0
171 64 34 0
