p cnf 500 1250
23 -426 -309 0
112 163 18 0
6 237 60 0
-413 -439 -129 0
-69 -231 317 0
61 -493 -304 0
-273 365 -13 0
474 255 208 0
-461 -235 98 0
335 -424 -416 0
-338 -123 247 0
209 328 94 0
-454 51 378 0
-489 14 358 0
455 -174 58 0
119 484 44 0
126 350 -266 0
225 -258 462 0
59 -11 -481 0
201 -129 488 0
-396 -170 324 0
58 -111 -135 0
343 -183 493 0
-271 174 -187 0
-356 19 -14 0
59 -277 450 0
-207 268 187 0
234 84 347 0
26 480 -251 0
-306 -457 -170 0
-389 -363 152 0
235 -34 257 0
210 -189 -328 0
-55 291 -339 0
-466 -277 -406 0
315 4 461 0
-277 306 -77 0
404 142 -212 0
481 -403 -234 0
95 -420 -115 0
-210 -290 200 0
76 -327 -202 0
-98 325 -250 0
108 286 360 0
357 -100 227 0
-279 -380 -458 0
421 239 241 0
-407 -384 -345 0
414 116 97 0
57 299 -358 0
188 -180 471 0
-320 317 -21 0
43 -423 -62 0
339 -11 351 0
-246 -80 -50 0
-121 51 -385 0
180 -81 -53 0
72 456 -4 0
100 114 322 0
-143 169 358 0
87 237 324 0
462 -69 359 0
244 -446 -131 0
214 240 -494 0
-400 164 -305 0
115 -212 398 0
342 -166 -271 0
40 -231 -30 0
-357 288 -499 0
356 -287 -249 0
358 -230 373 0
-70 194 -46 0
148 -489 -201 0
218 -144 -435 0
177 112 103 0
99 156 205 0
-95 -356 143 0
251 -264 -118 0
-260 312 459 0
-480 -304 -378 0
486 -348 252 0
67 -150 70 0
176 -389 267 0
84 372 -168 0
395 -289 283 0
-487 417 -44 0
313 265 -131 0
-268 -392 499 0
-478 464 457 0
393 81 -459 0
287 424 -127 0
-291 289 -102 0
229 60 -368 0
479 -472 414 0
-377 -475 156 0
-363 291 176 0
-8 -301 -426 0
258 -129 17 0
437 -153 -194 0
-154 147 257 0
42 -432 -125 0
11 185 445 0
383 -133 -129 0
-3 -250 -496 0
144 -9 -167 0
69 92 120 0
451 -211 -314 0
189 348 59 0
-159 93 -372 0
474 186 -352 0
-372 247 -437 0
-303 -59 -279 0
487 -115 384 0
155 283 263 0
183 5 -406 0
-300 -411 429 0
-393 -171 -208 0
-177 -244 36 0
-279 436 -425 0
-107 -48 238 0
53 113 144 0
388 -237 20 0
229 149 444 0
-188 -238 -131 0
39 254 97 0
-167 176 -419 0
-249 240 323 0
284 -463 -444 0
323 -292 332 0
-33 255 457 0
498 156 -194 0
-289 -185 421 0
152 146 29 0
-466 332 -62 0
108 30 -8 0
-229 392 217 0
267 -371 203 0
-484 -218 5 0
95 -404 -132 0
-234 -354 144 0
-94 336 402 0
-73 495 442 0
328 -478 -11 0
408 -182 -393 0
483 392 394 0
311 139 142 0
-162 41 -358 0
310 193 137 0
496 449 377 0
446 144 284 0
-282 398 -2 0
469 384 -252 0
-2 -356 168 0
-332 -481 32 0
-494 393 -193 0
31 33 -159 0
-29 274 376 0
-338 -132 25 0
-241 -184 -394 0
-401 476 -220 0
447 102 -335 0
-46 161 -95 0
455 -293 474 0
30 341 -368 0
-471 -491 -233 0
16 -437 362 0
-452 -222 -51 0
-15 -448 372 0
-44 -183 -382 0
-102 -373 -247 0
-99 56 -173 0
337 176 -453 0
213 12 460 0
-190 313 -302 0
-325 -100 -98 0
-150 259 318 0
195 -279 133 0
57 257 297 0
155 405 125 0
-113 -61 136 0
246 86 -49 0
443 -440 -245 0
-350 330 315 0
412 -73 -276 0
-307 346 -320 0
333 8 273 0
98 86 -188 0
-374 -484 -108 0
385 -372 218 0
-19 -196 101 0
-491 221 -315 0
-424 17 479 0
-198 445 -338 0
-280 383 -199 0
-77 -239 -46 0
-248 169 44 0
43 -126 -93 0
283 -299 -182 0
352 -311 70 0
-290 -45 70 0
-283 -221 -285 0
-72 370 132 0
425 59 328 0
-315 -375 -395 0
-107 358 -69 0
45 -403 -443 0
233 -400 -473 0
199 -363 -376 0
-328 -192 -305 0
-69 97 -191 0
229 83 -127 0
289 -77 -406 0
414 62 -60 0
155 216 -122 0
-198 -428 292 0
117 -97 -155 0
-256 -292 108 0
185 326 -35 0
-60 -87 449 0
-72 -353 -134 0
386 57 -430 0
-12 122 186 0
-402 -71 151 0
-20 244 -200 0
359 -205 498 0
-319 -329 209 0
-146 -211 342 0
-321 60 -395 0
-34 -1 -481 0
-398 343 102 0
263 113 -128 0
-265 -249 -227 0
-291 -127 316 0
185 -403 379 0
-294 22 -5 0
-96 -457 -363 0
94 -340 -9 0
-476 -131 -278 0
-71 386 -133 0
-424 166 227 0
430 -260 447 0
471 15 300 0
-105 247 6 0
-309 -167 140 0
-132 -135 486 0
-250 -319 -259 0
-112 205 268 0
211 324 46 0
-129 275 -136 0
26 -194 229 0
-49 494 -125 0
197 -334 -374 0
-379 95 347 0
-109 339 -322 0
-152 83 -245 0
181 362 -383 0
326 -297 396 0
184 167 377 0
182 42 344 0
457 35 -38 0
-149 474 398 0
23 -344 352 0
423 -287 -181 0
-278 -143 -138 0
-110 167 -224 0
225 352 -289 0
-317 485 -211 0
-328 436 -455 0
-345 87 453 0
45 -59 262 0
-437 -39 200 0
379 -466 235 0
-380 -400 -8 0
-69 296 -140 0
377 -392 -210 0
93 -455 445 0
295 101 149 0
175 -308 401 0
135 -93 408 0
344 80 -14 0
465 -286 272 0
67 -58 248 0
222 -240 -147 0
26 85 447 0
267 -263 -397 0
-59 -30 -353 0
-350 345 -217 0
-130 177 -144 0
-231 -305 -396 0
-186 486 201 0
-497 357 59 0
-284 -108 -194 0
-330 -39 441 0
-105 57 387 0
204 -145 46 0
-444 4 -366 0
-206 439 -47 0
448 -122 -144 0
120 -155 157 0
224 -32 471 0
-463 88 -446 0
-435 418 -284 0
318 -209 194 0
-48 327 287 0
1 192 326 0
-121 -371 151 0
427 -201 351 0
402 184 72 0
427 99 435 0
-326 353 295 0
-420 95 294 0
444 -227 303 0
60 22 -237 0
253 -314 -347 0
-52 96 170 0
468 479 322 0
-420 -238 99 0
-178 -355 -321 0
275 151 -434 0
311 -140 -66 0
281 490 -337 0
-37 23 397 0
-220 -483 -273 0
-358 400 162 0
-329 25 -407 0
125 103 -75 0
-399 -126 454 0
-292 -352 260 0
407 9 120 0
-224 380 70 0
-98 212 -6 0
348 403 416 0
459 -488 32 0
-404 148 -75 0
360 -229 -371 0
15 -392 -107 0
-178 -23 418 0
-236 229 -66 0
488 157 -175 0
101 -486 170 0
-394 246 -3 0
-7 342 351 0
123 -51 -364 0
-393 222 152 0
99 371 -310 0
-11 415 91 0
-369 90 152 0
146 -336 24 0
42 485 456 0
309 -439 -332 0
-337 419 381 0
334 141 208 0
470 -282 328 0
-121 -185 488 0
268 -75 71 0
405 270 -31 0
-136 70 263 0
-327 299 -77 0
323 434 131 0
-370 340 259 0
190 -487 466 0
-264 -443 75 0
230 -121 95 0
381 -261 252 0
429 171 -320 0
-411 -250 304 0
138 248 157 0
14 165 197 0
-22 404 -31 0
1 -469 186 0
236 -469 -500 0
-169 -463 -340 0
-492 130 436 0
-340 -379 25 0
462 -47 -301 0
-13 -58 189 0
-122 -66 -104 0
395 116 105 0
-422 -256 -333 0
-223 102 250 0
286 70 -430 0
-194 -144 -39 0
236 391 -7 0
100 395 348 0
430 -285 148 0
187 -244 -319 0
206 -177 -461 0
-171 -153 456 0
-51 -384 -36 0
419 -98 60 0
498 15 -417 0
291 -346 -30 0
398 -206 -316 0
47 456 -404 0
-457 -311 -28 0
179 -78 -397 0
-220 441 -103 0
370 -320 -85 0
-348 -350 365 0
-38 326 -363 0
268 244 27 0
47 277 -71 0
-429 -181 76 0
340 -390 187 0
-75 -382 167 0
-291 -82 86 0
441 -396 91 0
-290 -360 -401 0
-381 431 492 0
-395 -146 252 0
-85 349 -450 0
280 147 265 0
-253 -263 333 0
159 -406 -264 0
-273 439 442 0
48 -342 102 0
216 465 -374 0
17 366 -98 0
418 -309 324 0
-287 172 408 0
233 -302 235 0
93 -260 -241 0
217 322 -358 0
-18 -47 344 0
67 259 -447 0
-371 421 -205 0
-168 13 404 0
267 -277 -96 0
-131 322 -152 0
51 -254 -169 0
339 180 319 0
480 375 -19 0
-18 481 251 0
-276 146 -336 0
-76 134 265 0
488 -490 -192 0
-313 -30 109 0
382 -469 -31 0
-388 -453 164 0
121 -329 221 0
65 425 93 0
-377 -442 -260 0
83 250 -14 0
469 -356 196 0
336 161 245 0
191 -199 -383 0
47 398 -356 0
-422 16 327 0
-439 346 -397 0
-155 -104 57 0
41 -452 211 0
-176 285 -139 0
-116 -167 -227 0
-210 -446 484 0
-463 -68 -253 0
452 -376 404 0
239 -248 -457 0
-328 -280 229 0
330 424 -260 0
500 466 -409 0
374 -54 396 0
-293 -432 168 0
198 -281 128 0
405 -86 -210 0
-232 403 -311 0
295 460 18 0
80 -302 -205 0
-150 380 329 0
402 409 -91 0
-212 -401 -229 0
-276 17 -335 0
-339 9 -326 0
-4 -240 300 0
-347 191 435 0
-95 -85 -328 0
-168 -239 -345 0
65 420 193 0
298 346 73 0
360 121 153 0
17 477 -381 0
-259 -360 286 0
-284 217 -223 0
327 -78 -494 0
-28 74 302 0
-472 -213 120 0
-297 -165 471 0
167 444 423 0
447 281 -23 0
-474 -214 -440 0
348 -123 475 0
-94 -38 447 0
366 439 402 0
-285 -446 31 0
132 289 -208 0
-78 -387 415 0
459 82 270 0
-211 -87 -390 0
398 -387 33 0
179 -366 -113 0
297 458 24 0
473 -192 -271 0
-109 -362 -44 0
63 -337 -4 0
-95 -401 362 0
412 307 -415 0
-57 420 42 0
-352 -458 287 0
122 114 450 0
127 499 23 0
-127 200 74 0
-291 218 326 0
15 -155 -311 0
-39 -234 -250 0
-81 375 349 0
91 -242 -390 0
70 -155 115 0
-139 355 481 0
-477 -68 -372 0
107 311 -363 0
439 -328 -39 0
-330 -265 -365 0
313 -37 387 0
-129 436 -326 0
277 246 405 0
495 125 -382 0
-390 -119 111 0
339 -187 -185 0
41 -256 -493 0
-410 -229 -101 0
-119 -336 360 0
-379 295 487 0
-342 45 72 0
-117 -492 128 0
27 202 -38 0
81 398 483 0
57 -126 320 0
112 -313 -376 0
-483 -379 323 0
10 -257 -368 0
423 149 218 0
-103 -249 421 0
167 405 -387 0
428 284 -340 0
-349 -190 15 0
18 -249 -162 0
484 85 96 0
-284 77 -53 0
-448 253 -62 0
494 -402 491 0
154 -181 -99 0
193 -470 -252 0
-147 34 338 0
-211 406 223 0
-307 3 306 0
107 187 176 0
-139 -279 486 0
-135 -486 -81 0
-220 289 -365 0
45 221 350 0
286 -17 269 0
334 -237 -273 0
69 -458 -86 0
-47 -185 -195 0
263 148 -28 0
494 -204 -146 0
74 -304 -349 0
208 -367 257 0
477 -84 335 0
368 -28 398 0
-60 398 396 0
140 -106 -490 0
-48 332 -203 0
76 -222 326 0
363 143 40 0
96 -367 -480 0
-332 -408 -183 0
-416 400 209 0
-387 395 53 0
64 274 478 0
430 171 -240 0
364 -475 -500 0
-231 -485 381 0
-418 213 466 0
182 90 292 0
348 -379 -353 0
224 15 4 0
334 -13 392 0
297 -262 -497 0
-21 -438 16 0
-360 217 -391 0
362 -300 485 0
-307 -152 60 0
-363 -376 235 0
68 -424 164 0
-202 -454 60 0
241 317 -21 0
297 22 403 0
16 343 -460 0
-297 -400 461 0
-6 404 262 0
261 -50 -287 0
-71 -463 -328 0
282 204 8 0
-206 -87 -428 0
47 255 -343 0
-478 337 -82 0
433 -16 44 0
-184 360 -364 0
270 -129 -419 0
-310 2 332 0
-123 385 493 0
400 15 314 0
279 -167 -374 0
-37 179 331 0
341 -23 472 0
-234 309 158 0
21 -159 36 0
-328 -276 376 0
-133 -242 -126 0
450 -49 -417 0
-475 363 -247 0
84 464 -209 0
289 -217 184 0
274 -460 225 0
-275 -173 48 0
500 -78 243 0
-427 -434 55 0
-150 477 20 0
-325 91 -461 0
434 481 -374 0
-384 -355 367 0
-412 -312 -27 0
188 -247 -371 0
-92 96 -386 0
-368 -412 -12 0
438 -78 -442 0
-171 -443 85 0
-9 212 4 0
102 -114 141 0
-242 -342 -289 0
-445 366 -215 0
465 36 -255 0
157 250 -432 0
340 452 -496 0
95 196 263 0
332 -149 340 0
40 -385 331 0
-126 243 480 0
-129 7 -42 0
261 341 -427 0
-23 481 312 0
-340 -160 360 0
497 -407 421 0
-284 360 -451 0
350 -6 487 0
-178 -456 48 0
-417 -218 -127 0
-113 -213 139 0
-495 386 373 0
9 227 -146 0
-441 -1 -284 0
310 -482 -4 0
-343 108 390 0
198 485 -79 0
439 262 -181 0
-217 276 -136 0
-439 -249 -71 0
115 -167 480 0
-434 -263 -403 0
6 447 285 0
376 326 -141 0
118 -382 -417 0
-492 51 -273 0
-224 167 -125 0
138 -35 484 0
-32 -169 495 0
369 444 55 0
352 -125 -277 0
-198 195 -461 0
244 -342 -457 0
371 -362 -300 0
-135 -492 -259 0
-305 -431 -8 0
-3 336 42 0
55 -296 320 0
115 442 422 0
466 87 -24 0
406 184 283 0
466 -138 74 0
83 241 -115 0
488 -148 40 0
-492 -207 200 0
83 -224 -180 0
-172 164 102 0
-52 -111 437 0
400 109 -372 0
298 101 383 0
-162 348 24 0
-341 -391 -128 0
154 246 -401 0
31 -181 440 0
265 474 200 0
289 196 432 0
144 443 458 0
-404 212 -392 0
206 -243 -120 0
-320 -34 -201 0
-133 -113 -124 0
9 -422 -496 0
-230 -192 -390 0
-292 -406 70 0
238 -260 426 0
145 -465 -405 0
91 -97 492 0
-145 -2 -68 0
-21 149 77 0
-317 -375 -16 0
-61 -409 -226 0
-7 356 281 0
56 -425 -215 0
408 235 -350 0
344 394 38 0
-492 -165 103 0
262 -41 134 0
-290 -341 165 0
-81 -447 -474 0
487 -130 -440 0
120 191 413 0
386 100 172 0
397 210 194 0
-238 -33 151 0
259 -257 -136 0
-82 -30 301 0
339 59 -54 0
340 209 -303 0
88 -170 408 0
259 -475 48 0
159 -73 -208 0
290 -447 -448 0
189 -227 -130 0
-388 398 -238 0
-31 -179 301 0
-132 399 126 0
145 -210 -105 0
214 497 142 0
-166 -378 413 0
147 145 -8 0
438 -244 115 0
63 -312 -109 0
247 173 314 0
-137 54 -272 0
-123 51 172 0
-483 230 128 0
-277 217 132 0
-284 54 265 0
-65 -92 -352 0
469 48 14 0
-211 -365 -185 0
224 -187 43 0
-136 131 92 0
152 341 -350 0
-450 220 105 0
475 -18 339 0
286 213 -182 0
376 342 101 0
393 344 172 0
317 -336 -489 0
-470 -235 -41 0
-348 -437 91 0
295 -185 -232 0
-121 55 460 0
-54 -156 -419 0
-94 313 -8 0
328 -416 -221 0
-334 435 -97 0
107 -48 -279 0
-479 -378 -207 0
478 -349 -183 0
425 91 -437 0
-387 -473 170 0
61 288 305 0
203 -345 -259 0
-30 -350 27 0
-363 -100 -277 0
-450 9 -247 0
-130 280 -323 0
469 -424 113 0
-494 -204 104 0
-411 -144 -490 0
-26 7 238 0
293 -276 385 0
61 57 145 0
285 378 -393 0
204 -265 -195 0
365 431 -190 0
88 -143 -490 0
411 -60 -148 0
-347 463 357 0
-167 13 64 0
-200 -145 402 0
-481 -356 88 0
-445 376 46 0
-108 -392 342 0
80 -343 182 0
-388 -406 -151 0
-11 300 313 0
320 74 129 0
-165 -218 65 0
-307 -151 -90 0
-464 2 -204 0
-263 -90 46 0
46 299 292 0
363 -344 -232 0
195 -247 196 0
3 -373 395 0
-431 231 -244 0
181 228 -282 0
377 -158 -293 0
-135 -262 -407 0
-206 -75 -276 0
-43 -395 -420 0
264 153 -20 0
-169 -422 -274 0
499 371 10 0
-442 -155 296 0
490 106 -68 0
118 414 -311 0
-263 395 -25 0
364 -112 61 0
-458 241 379 0
-17 52 -297 0
276 358 -279 0
26 -290 -493 0
-496 346 37 0
228 -61 190 0
254 -137 203 0
61 296 -137 0
-162 417 -32 0
-134 -240 14 0
-346 -134 -178 0
-194 486 -246 0
447 141 -450 0
268 104 180 0
171 409 -241 0
207 15 454 0
-343 397 -39 0
305 175 268 0
-488 114 48 0
252 -402 209 0
270 378 -229 0
-76 117 298 0
386 -111 -367 0
-156 223 68 0
343 295 -98 0
49 -254 35 0
-296 -12 -275 0
151 -64 266 0
215 -136 372 0
73 447 416 0
88 331 -236 0
-155 -23 -457 0
-292 -58 -318 0
-366 28 271 0
41 -387 -37 0
129 -97 295 0
17 338 -62 0
-12 -187 -5 0
42 37 -293 0
-168 -290 -235 0
151 481 -227 0
-135 83 395 0
61 -63 403 0
-446 -180 59 0
-280 43 -454 0
329 -398 -96 0
-117 239 288 0
225 -155 -242 0
-212 349 -298 0
339 -343 -93 0
-97 -188 276 0
-306 -188 -180 0
349 212 -267 0
-369 458 -228 0
165 206 -386 0
-199 -306 -378 0
-193 -330 -141 0
426 -493 172 0
-374 363 -112 0
-232 331 281 0
-259 233 385 0
242 363 -474 0
-157 178 -44 0
-283 -341 264 0
-317 -239 -455 0
-452 499 205 0
-58 238 -452 0
59 -376 -316 0
-271 -43 364 0
483 363 -300 0
101 -144 377 0
206 -60 264 0
369 318 -93 0
23 149 -82 0
138 307 -13 0
407 -39 -173 0
270 182 -440 0
370 -397 108 0
-38 42 172 0
361 -311 291 0
485 -120 275 0
490 -272 447 0
80 -313 -479 0
31 -62 96 0
391 362 -116 0
369 -342 -297 0
34 -393 -402 0
-351 -323 -281 0
-248 -124 -484 0
172 188 53 0
-199 -85 126 0
118 9 -329 0
-415 130 361 0
237 -151 95 0
-183 226 -490 0
-443 220 401 0
-54 203 372 0
-342 -448 -254 0
-409 203 -471 0
-432 143 -109 0
469 -381 2 0
-188 -340 -35 0
359 334 -366 0
11 142 -56 0
271 -321 -428 0
-429 342 318 0
279 73 99 0
-32 -8 -275 0
-445 199 -185 0
-125 470 -24 0
-228 -111 -271 0
-442 489 348 0
363 307 475 0
-451 223 432 0
-229 251 -99 0
-220 -445 92 0
418 -369 -185 0
185 474 -142 0
-151 -311 341 0
356 91 421 0
103 -127 -340 0
-303 424 -489 0
393 253 -172 0
339 76 -194 0
288 424 -138 0
-500 -86 -21 0
-437 -435 -282 0
-418 314 -377 0
-114 202 260 0
-359 483 -341 0
331 -73 -308 0
53 111 359 0
414 298 99 0
-182 -322 -330 0
109 -151 52 0
270 308 -135 0
127 299 43 0
125 -148 335 0
287 247 -254 0
-175 324 460 0
-265 -26 -406 0
-184 -335 -339 0
260 132 32 0
364 360 -407 0
-26 408 -74 0
-352 -58 -53 0
499 161 492 0
-286 -69 113 0
-420 -203 -309 0
-128 -135 194 0
231 205 -117 0
376 -72 -235 0
-418 423 -235 0
-408 -18 -274 0
198 -262 -364 0
-172 149 -228 0
-246 -134 500 0
-294 -226 305 0
-385 -78 305 0
-420 -409 -454 0
-81 -138 -492 0
498 -84 -416 0
-334 -338 464 0
-329 78 157 0
394 127 288 0
-300 1 -363 0
-131 -103 -409 0
346 393 59 0
-464 224 -372 0
-7 97 -457 0
139 59 298 0
-34 277 209 0
489 -493 307 0
495 266 189 0
454 -369 -357 0
290 317 297 0
-26 -164 7 0
456 -483 -5 0
-172 42 -221 0
-42 58 261 0
-321 -5 31 0
-370 330 306 0
-303 121 188 0
-225 79 144 0
222 199 431 0
-189 170 -168 0
-28 415 335 0
196 123 -409 0
-30 72 4 0
-99 84 -292 0
-481 397 114 0
320 -81 -219 0
-362 52 68 0
-306 -21 -95 0
145 -390 471 0
-20 496 440 0
-204 -106 490 0
-162 259 140 0
190 -448 486 0
89 -190 347 0
22 -115 -93 0
7 -328 -489 0
124 -103 479 0
-413 119 382 0
16 145 427 0
48 -257 -265 0
-188 165 -367 0
302 387 464 0
-95 -174 226 0
-266 -206 207 0
130 -296 92 0
277 330 276 0
203 -453 -280 0
-448 422 -293 0
-279 -311 106 0
-336 139 133 0
166 -288 237 0
60 407 321 0
-226 415 -282 0
-177 325 210 0
33 -262 492 0
60 -351 -429 0
436 -185 -80 0
-73 -271 323 0
-57 23 -175 0
363 -366 -141 0
-322 -490 -58 0
-354 -320 69 0
26 -125 466 0
-328 -169 173 0
76 334 -121 0
159 -27 353 0
-146 -282 -483 0
-416 -449 194 0
-156 345 -191 0
-250 182 -123 0
-386 212 -114 0
-444 144 -15 0
-198 47 -431 0
-148 140 -349 0
-208 -199 165 0
-425 62 38 0
122 116 299 0
216 -409 -465 0
50 475 -178 0
-395 -460 406 0
-245 -151 30 0
300 452 -71 0
-273 -387 460 0
317 416 98 0
347 431 498 0
-361 -105 -252 0
224 -82 -177 0
-5 51 -222 0
-457 375 205 0
41 39 -35 0
420 -414 -153 0
138 437 223 0
463 -445 413 0
229 -339 202 0
-45 187 496 0
-114 421 28 0
-210 402 75 0
-365 -220 -409 0
169 -216 415 0
-129 216 103 0
177 -391 -252 0
97 -90 -429 0
220 188 -309 0
-23 482 -442 0
-468 -179 -48 0
131 296 267 0
-452 -32 -409 0
-413 247 -469 0
117 -324 -348 0
475 275 -383 0
104 -451 -7 0
-62 -317 -94 0
11 139 202 0
395 -2 238 0
486 262 247 0
-201 242 81 0
-455 200 434 0
433 -412 408 0
70 -423 -35 0
-19 469 244 0
-445 -186 -485 0
-160 421 -261 0
-221 -448 135 0
-212 -16 -156 0
132 -488 59 0
-165 -439 -175 0
480 -168 208 0
210 -385 -233 0
-293 122 189 0
-227 374 77 0
164 -11 60 0
460 -459 59 0
-328 366 409 0
-243 442 203 0
-114 257 385 0
282 334 -323 0
66 -301 -275 0
375 178 -339 0
111 -291 -152 0
216 -169 391 0
312 461 459 0
-119 88 77 0
-238 308 222 0
231 344 90 0
451 334 -292 0
-322 56 12 0
364 28 497 0
144 -194 118 0
67 467 -206 0
-173 -474 460 0
423 247 9 0
-476 251 110 0
-209 -106 -304 0
-249 145 -366 0
106 31 -253 0
-263 216 -366 0
173 38 -29 0
-439 4 79 0
-393 -107 -246 0
-87 251 300 0
-458 -361 -257 0
46 478 -258 0
95 455 19 0
-63 373 258 0
412 -137 -72 0
-129 439 -284 0
-308 -324 -56 0
-80 -433 -387 0
-403 -422 156 0
-25 198 -300 0
-55 -170 404 0
-75 -131 314 0
-46 35 -455 0
-69 -81 -278 0
456 -213 216 0
-419 -415 44 0
205 -323 -338 0
-439 -215 324 0
-75 463 406 0
401 -497 -373 0
287 349 -123 0
196 -404 19 0
296 401 -139 0
-116 393 -164 0
219 59 -462 0
38 176 399 0
81 160 -155 0
-422 221 313 0
84 428 -401 0
304 -123 -427 0
219 -175 -222 0
-134 -376 -309 0
-130 404 -89 0
269 57 463 0
479 -254 -58 0
151 -84 198 0
339 241 377 0
-319 -30 55 0
-460 499 403 0
233 420 -249 0
-27 -406 17 0
-202 105 -154 0
-5 456 311 0
351 -405 -224 0
-92 -316 454 0
392 -159 -197 0
460 29 495 0
103 17 -140 0
36 468 -297 0
366 404 -184 0
295 182 129 0
-29 -458 -356 0
301 -483 -307 0
-232 92 -140 0
83 -468 276 0
416 -434 -448 0
-375 -126 150 0
-2 -334 6 0
-270 -317 202 0
-341 105 -144 0
-182 435 -291 0
-5 353 -417 0
29 484 -355 0
449 -5 218 0
-28 179 235 0
389 74 -499 0
-44 -203 -403 0
105 -438 381 0
-221 -278 286 0
37 136 -220 0
476 69 -121 0
-435 103 -168 0
492 459 135 0
405 426 -191 0
-30 155 347 0
-341 -252 481 0
242 -422 -190 0
-354 360 -420 0
-310 -135 -437 0
-79 -58 -157 0
270 -372 451 0
-309 121 156 0
-418 107 393 0
-450 59 -245 0
-299 -417 249 0
500 85 484 0
429 -372 -313 0
-261 -234 -365 0
75 292 101 0
-438 124 -386 0
-74 342 136 0
125 76 -426 0
-102 -173 221 0
-18 395 333 0
464 398 -306 0
