p cnf 1000 3750
-716 -825 -531 0
119 514 516 0
773 250 363 0
-981 -891 321 0
941 463 560 0
-68 484 912 0
-83 -648 -883 0
123 -259 -906 0
375 -136 797 0
-454 513 571 0
474 -367 -803 0
-906 591 -721 0
-259 494 -865 0
862 -800 399 0
-717 213 -836 0
-93 958 -979 0
408 -638 33 0
-755 -274 -194 0
818 844 237 0
-933 865 635 0
-111 355 -222 0
487 -139 -953 0
418 468 855 0
916 -787 510 0
430 938 855 0
-501 855 138 0
494 529 -796 0
799 573 -299 0
-311 331 584 0
-201 853 99 0
917 541 903 0
-20 -340 387 0
-810 819 369 0
-310 945 -223 0
973 -235 913 0
988 138 -30 0
691 973 -114 0
-935 -839 -493 0
-24 -682 989 0
525 -393 -375 0
285 -253 805 0
551 544 -171 0
390 -325 991 0
-544 646 101 0
435 776 704 0
-923 942 382 0
751 -162 465 0
-718 468 -94 0
-681 400 953 0
405 -824 -624 0
-994 431 768 0
-57 -944 -404 0
-295 141 247 0
305 -434 -644 0
228 204 591 0
-497 368 -737 0
148 881 -663 0
727 55 908 0
-324 -862 -777 0
-51 666 -578 0
171 -329 193 0
971 -866 -907 0
296 -786 480 0
-227 -645 395 0
984 553 102 0
62 -931 -196 0
920 385 952 0
-860 -988 -67 0
-243 918 -404 0
-231 90 718 0
51 820 -923 0
92 -852 -780 0
749 575 -125 0
-19 -921 -696 0
268 -231 -271 0
-981 923 -954 0
-757 -706 -843 0
-968 895 927 0
672 -960 -496 0
-887 -737 909 0
-856 147 760 0
415 402 240 0
10 -133 211 0
-447 -46 220 0
222 873 -313 0
-84 -934 -479 0
696 -879 287 0
293 -563 903 0
-810 3 -300 0
677 80 -455 0
-495 476 723 0
623 -211 -185 0
-338 400 -651 0
338 282 -160 0
-49 43 621 0
-170 876 -497 0
354 -111 377 0
84 537 -330 0
97 265 -980 0
-920 -785 -816 0
474 248 757 0
920 606 194 0
-534 -639 -731 0
-273 901 -188 0
-998 -447 590 0
21 630 -284 0
125 -45 304 0
-575 974 -344 0
83 -772 106 0
95 71 86 0
-255 293 49 0
624 -603 666 0
645 217 -544 0
-436 919 -899 0
-594 82 972 0
-216 703 -894 0
-221 743 415 0
-751 650 345 0
-400 -654 28 0
-260 -856 -4 0
989 782 -76 0
521 113 769 0
-3 514 655 0
-61 -915 -64 0
-316 -85 -216 0
-313 506 953 0
-343 269 182 0
-590 -970 -925 0
462 553 -914 0
933 -614 -926 0
-627 503 3 0
-479 199 -467 0
-569 714 -925 0
-839 -751 -286 0
455 795 115 0
702 -348 763 0
194 -776 106 0
-822 777 -355 0
520 660 466 0
-529 764 -731 0
-923 13 -872 0
247 -418 -831 0
862 -200 -236 0
136 -17 -441 0
-245 -102 -123 0
-811 -125 395 0
-341 -367 -228 0
-338 -671 -223 0
628 947 -406 0
181 -545 815 0
263 616 900 0
679 902 -30 0
-230 282 577 0
805 775 -638 0
2 709 -297 0
-863 540 -401 0
-803 -375 -111 0
-280 891 -959 0
463 -743 -509 0
-970 654 554 0
-195 -716 877 0
-451 -313 889 0
818 -166 102 0
-871 988 -468 0
-398 565 -886 0
515 56 -62 0
963 -515 -687 0
-226 93 981 0
-5 463 806 0
107 619 -463 0
120 -753 -221 0
376 699 945 0
187 616 -566 0
-667 850 496 0
507 187 -292 0
921 741 -913 0
93 -533 992 0
-93 745 442 0
-715 987 -673 0
-307 866 -231 0
-763 209 -136 0
-111 173 318 0
-975 243 254 0
-733 643 614 0
-617 535 899 0
567 -210 698 0
476 -804 629 0
517 245 863 0
437 -176 -83 0
-845 991 362 0
-232 136 166 0
-216 747 313 0
34 486 -870 0
581 -868 -661 0
-287 101 -509 0
896 175 -638 0
-227 736 144 0
-314 -621 318 0
-380 167 -667 0
6 352 -213 0
-830 776 -950 0
643 228 -971 0
500 -652 657 0
183 32 947 0
354 744 -697 0
749 71 820 0
-418 972 -177 0
503 -388 572 0
149 -825 329 0
473 -463 -161 0
-265 925 47 0
-704 -19 -198 0
-261 724 931 0
968 963 -760 0
-334 226 707 0
-106 -5 616 0
758 -713 -977 0
-394 -564 81 0
483 207 488 0
-916 -338 -588 0
823 -104 84 0
306 -152 533 0
-814 186 421 0
-443 -37 642 0
-324 422 -496 0
731 493 -333 0
-250 337 -596 0
-175 99 109 0
271 -331 -935 0
-321 -492 122 0
980 -725 309 0
458 -411 835 0
263 64 418 0
-335 478 -957 0
397 31 307 0
-861 214 194 0
-356 230 -597 0
770 -327 -551 0
-242 101 425 0
779 -634 462 0
-251 647 -85 0
138 757 222 0
-332 -180 883 0
-324 -839 580 0
483 188 -310 0
570 580 297 0
-529 -785 -359 0
-628 -581 -587 0
-558 340 -319 0
326 -201 -248 0
804 282 788 0
369 325 692 0
257 125 -500 0
-968 -745 -65 0
-101 -582 198 0
119 -882 311 0
837 -717 -713 0
-918 -249 190 0
185 -2 942 0
-743 174 -414 0
-469 408 235 0
410 771 169 0
-321 139 493 0
-754 -697 -329 0
106 -37 -833 0
-753 98 446 0
-247 716 -603 0
-600 -799 234 0
-8 -579 -453 0
-333 -817 -656 0
895 -884 671 0
492 257 158 0
801 -787 -148 0
-893 -863 936 0
160 529 -905 0
-787 313 573 0
159 -918 14 0
756 -172 132 0
168 548 228 0
756 198 70 0
79 775 348 0
-803 579 -456 0
236 -542 -11 0
480 -189 -984 0
743 -263 118 0
-749 929 144 0
-892 900 883 0
-347 -98 -256 0
679 952 -462 0
635 140 253 0
-89 522 96 0
173 -574 -181 0
393 847 -651 0
-958 558 331 0
519 62 321 0
238 11 -597 0
856 589 958 0
829 371 -213 0
-49 -701 541 0
-849 126 302 0
962 598 -108 0
390 -285 -850 0
989 -683 120 0
-548 61 -527 0
89 355 -384 0
665 -430 -503 0
762 -972 496 0
792 882 -617 0
603 46 871 0
310 -268 -401 0
-56 -618 450 0
-154 539 463 0
-116 828 970 0
420 181 -134 0
-631 -258 -431 0
677 989 74 0
704 -425 404 0
995 -989 254 0
-377 -428 650 0
-755 -669 434 0
-283 -645 579 0
-396 -905 -1000 0
-701 393 -670 0
-525 -635 -361 0
740 408 650 0
124 -782 269 0
886 -748 312 0
-30 -579 -651 0
136 191 843 0
254 463 543 0
745 -249 -760 0
-40 -465 -582 0
-719 -324 -470 0
-294 517 -330 0
-10 958 -665 0
-89 637 306 0
-361 -126 -200 0
-660 634 572 0
233 -392 60 0
-135 407 -52 0
361 -163 931 0
-164 -483 139 0
-563 -914 -675 0
640 -394 722 0
-548 -32 -601 0
-787 -292 455 0
435 729 129 0
379 -96 -241 0
4 329 198 0
-701 86 -169 0
-568 155 -22 0
-54 775 367 0
-17 -621 25 0
803 -656 74 0
-174 245 -473 0
454 -352 -593 0
773 -482 479 0
920 -5 968 0
431 -834 265 0
178 -909 260 0
593 -35 108 0
-399 281 659 0
904 770 128 0
266 504 -251 0
-39 -646 36 0
639 -308 -819 0
-810 -606 14 0
-930 662 -335 0
-38 -13 311 0
-276 -434 -319 0
627 744 242 0
-832 635 -814 0
882 419 917 0
754 -424 -301 0
633 653 979 0
-160 -143 -48 0
17 44 -597 0
640 -564 -518 0
855 688 167 0
-764 -942 9 0
-436 -72 219 0
-993 866 -4 0
-605 -800 553 0
325 -622 -416 0
-356 832 872 0
693 901 -89 0
-908 600 -867 0
-259 -945 -569 0
-632 881 -928 0
73 393 861 0
-51 621 313 0
524 -768 -520 0
-208 527 561 0
-698 -562 -128 0
-449 789 354 0
848 307 902 0
75 -3 813 0
307 736 509 0
-995 -720 994 0
324 956 -945 0
-468 847 -374 0
743 795 90 0
50 167 -571 0
-35 -293 266 0
-648 975 -159 0
-130 123 580 0
289 -609 -743 0
-62 -636 -788 0
-499 -149 591 0
-632 501 107 0
-797 276 -138 0
-41 -676 -400 0
-788 -241 965 0
-492 -212 469 0
-467 400 -37 0
97 222 756 0
989 324 267 0
629 -41 -729 0
780 672 -482 0
600 -159 635 0
467 628 73 0
-767 139 -300 0
185 -241 321 0
783 -628 -274 0
962 -61 434 0
-929 -68 59 0
-416 259 -471 0
207 -243 8 0
938 -982 603 0
-71 401 -196 0
993 904 -477 0
540 785 -795 0
637 263 530 0
-317 113 121 0
921 538 217 0
710 639 -431 0
183 -662 291 0
-313 -670 -723 0
-413 758 842 0
-827 813 -130 0
-380 -565 62 0
672 331 -846 0
-579 261 -315 0
995 -680 -569 0
-485 -166 -986 0
572 -148 -277 0
-765 -562 875 0
-155 60 962 0
-427 -364 -181 0
363 201 419 0
-993 -133 -29 0
54 -113 784 0
-73 -460 -241 0
-757 -356 914 0
285 -265 -499 0
-89 -366 -7 0
-682 49 749 0
112 55 712 0
499 626 -640 0
-33 657 559 0
-18 552 114 0
602 -604 256 0
-392 -545 -344 0
441 -114 388 0
-235 -7 -710 0
132 -112 -493 0
694 -828 -720 0
-690 953 991 0
629 -346 -746 0
-120 -507 -728 0
26 -424 268 0
744 777 245 0
383 112 879 0
-714 595 909 0
643 -938 -985 0
608 -63 -700 0
-380 415 681 0
-30 -146 -100 0
-353 272 158 0
-812 -218 -799 0
81 -122 -425 0
-471 -180 506 0
76 273 -80 0
-415 -342 916 0
-987 645 369 0
-747 164 935 0
-242 864 -795 0
-266 773 975 0
127 -899 886 0
-186 -959 556 0
841 -15 -560 0
-293 -859 537 0
-371 -667 -668 0
636 119 -138 0
-341 98 342 0
-381 609 901 0
312 -846 318 0
-921 766 -302 0
-773 359 985 0
418 -184 -743 0
-201 6 -615 0
841 -810 -522 0
984 -380 -849 0
483 -882 836 0
-999 863 -359 0
624 265 -897 0
-182 -787 99 0
-522 -150 508 0
-184 645 92 0
473 -253 -415 0
147 664 957 0
-394 878 113 0
-963 125 56 0
-533 -876 -843 0
35 -914 972 0
-859 226 -314 0
227 629 333 0
-964 -289 77 0
-466 652 393 0
200 241 -635 0
-475 870 405 0
-202 144 312 0
56 216 728 0
592 -175 -279 0
-130 -223 506 0
344 -899 886 0
534 -448 785 0
-30 -27 263 0
634 597 -33 0
82 -541 658 0
66 -644 -889 0
277 853 -832 0
-192 -453 -698 0
481 992 -394 0
543 760 -866 0
-45 762 -207 0
-10 9 94 0
-126 -886 906 0
-893 880 255 0
305 -881 -525 0
-279 837 600 0
-286 582 -149 0
99 891 -552 0
-715 458 -286 0
-277 -805 914 0
-101 -423 -573 0
911 604 253 0
-140 28 437 0
-895 915 300 0
500 505 510 0
329 146 526 0
775 458 -679 0
-801 812 614 0
-35 425 -487 0
-373 -564 -691 0
-465 -469 159 0
-19 -589 -282 0
-620 -703 -788 0
-130 641 489 0
616 -471 415 0
-573 835 -472 0
962 -826 961 0
-173 330 -23 0
570 -312 -882 0
602 -20 72 0
-712 364 774 0
871 -520 806 0
-961 136 -799 0
-538 -374 730 0
846 -955 -593 0
-837 960 798 0
161 777 -341 0
459 733 60 0
-488 29 952 0
183 88 306 0
99 458 880 0
-632 -280 -830 0
740 359 -776 0
-888 796 152 0
733 -323 -954 0
429 560 796 0
-464 107 303 0
-899 -959 -120 0
158 491 527 0
23 -848 594 0
476 877 -493 0
-720 -278 -822 0
-946 906 -554 0
-488 -61 -617 0
338 995 -904 0
-751 -250 229 0
-467 969 690 0
136 477 -959 0
-632 -296 153 0
-808 -328 -203 0
942 852 300 0
851 -730 -869 0
-785 665 298 0
978 -838 -943 0
-518 -304 18 0
550 -273 -936 0
-957 287 993 0
-453 530 -418 0
798 -707 105 0
612 369 -569 0
762 -262 787 0
-656 -384 490 0
207 441 550 0
-422 211 -544 0
-111 -370 290 0
417 687 970 0
108 363 -132 0
-135 -553 -416 0
531 -820 348 0
554 323 929 0
-827 -91 952 0
922 -717 216 0
-6 -891 288 0
-639 -943 -131 0
992 314 -10 0
240 -160 -814 0
575 740 765 0
-445 407 -600 0
826 -483 -169 0
797 -848 310 0
-279 -227 23 0
552 -897 -391 0
819 -990 931 0
-709 -145 3 0
-16 746 -815 0
-688 178 -753 0
787 -82 918 0
93 -999 -250 0
747 159 750 0
-354 -725 -520 0
315 -472 -810 0
-496 -923 -549 0
669 589 116 0
-773 -169 -309 0
51 -25 -762 0
-240 -646 542 0
323 -678 832 0
660 69 -448 0
570 -458 -105 0
97 -205 415 0
-403 -69 451 0
387 629 -692 0
-660 -170 635 0
-85 -583 143 0
-886 501 937 0
-170 582 -393 0
746 89 -426 0
174 405 242 0
270 169 -869 0
-845 361 65 0
308 -595 872 0
845 899 -263 0
-211 868 793 0
756 813 -995 0
-568 110 561 0
466 884 -423 0
768 -459 -673 0
534 -425 -28 0
509 359 357 0
910 4 778 0
687 -124 -202 0
29 985 -498 0
165 972 -617 0
326 -909 249 0
754 -490 -593 0
-682 357 -441 0
-375 -117 -407 0
-575 -527 260 0
173 -429 -390 0
-968 753 -637 0
113 -422 -713 0
-420 308 419 0
-387 -88 -43 0
-723 -162 496 0
380 -834 -228 0
-784 -722 -109 0
983 -98 724 0
905 -598 -730 0
728 400 -151 0
-136 976 423 0
-685 893 -746 0
-964 772 674 0
782 -978 -297 0
-972 340 -792 0
-793 66 -270 0
860 -598 -312 0
-157 53 -826 0
445 -196 -90 0
356 217 -183 0
-281 -574 317 0
-329 -324 -431 0
-754 -796 934 0
-623 84 716 0
336 -952 655 0
595 -879 83 0
-401 -729 -601 0
881 962 144 0
-732 -701 61 0
907 751 365 0
907 309 401 0
-217 -925 304 0
59 326 -648 0
268 -174 364 0
315 877 643 0
-66 -141 377 0
214 -943 18 0
663 487 -578 0
509 -891 -220 0
949 253 -297 0
71 511 -430 0
-210 -524 -198 0
-165 -763 259 0
925 589 -52 0
-818 486 339 0
769 -425 -23 0
-211 492 311 0
411 -433 -274 0
-171 499 953 0
747 -417 636 0
990 -682 538 0
-352 -569 92 0
643 1000 996 0
99 -132 -797 0
-858 7 303 0
55 452 239 0
-267 188 -603 0
-818 -406 -340 0
-983 -581 -185 0
411 -81 607 0
-144 -585 860 0
853 432 -941 0
-25 973 -873 0
-597 511 -253 0
-170 -327 543 0
-280 733 -482 0
-114 -907 433 0
-892 -441 555 0
709 645 557 0
273 -263 -906 0
-852 943 425 0
-148 -271 226 0
-680 838 -305 0
846 712 960 0
676 29 277 0
859 252 678 0
-475 143 -387 0
-584 158 -792 0
214 -928 -947 0
-528 229 -492 0
134 863 571 0
587 -27 995 0
196 -222 -804 0
993 -677 -747 0
-906 -209 -777 0
158 -412 -368 0
369 802 -709 0
60 187 -163 0
-747 -222 307 0
-4 44 -867 0
-197 825 165 0
-171 665 -102 0
170 237 -454 0
676 148 315 0
120 800 99 0
819 467 -702 0
-54 268 413 0
-853 -127 -678 0
-272 -557 266 0
-802 927 -410 0
-685 -706 -578 0
312 211 -127 0
516 866 922 0
430 693 395 0
-332 365 489 0
199 -776 875 0
195 -382 96 0
225 941 886 0
-319 712 572 0
40 982 383 0
16 -640 -44 0
842 -661 906 0
-982 -471 587 0
153 -102 -295 0
-302 978 343 0
670 -768 23 0
950 -928 -26 0
969 -777 -980 0
-269 -395 -324 0
240 628 319 0
643 -704 -921 0
361 343 194 0
782 518 -83 0
106 533 -782 0
106 -735 412 0
22 -494 259 0
265 698 796 0
648 -119 -796 0
644 377 527 0
-571 -565 -127 0
716 -274 807 0
-646 726 -422 0
-140 -593 -187 0
15 388 -288 0
-115 -658 590 0
555 -116 546 0
191 -701 106 0
676 560 -132 0
730 -531 -841 0
-123 569 -156 0
-795 700 254 0
442 -906 -36 0
-271 803 -579 0
-311 -850 -961 0
851 381 -630 0
-247 886 501 0
-219 -740 -696 0
-459 -532 -987 0
923 -407 -70 0
-618 345 -275 0
875 -896 61 0
-728 801 -846 0
-789 281 976 0
324 862 -842 0
-474 -577 789 0
-236 790 -507 0
814 -544 -769 0
-935 177 77 0
992 -330 -31 0
-883 -575 898 0
303 -820 -847 0
346 354 -568 0
-401 -319 461 0
-94 595 93 0
834 814 -653 0
477 -85 199 0
-201 -519 482 0
199 -475 369 0
-796 244 -259 0
-403 -398 418 0
-779 810 -691 0
-427 -294 -200 0
-285 -491 17 0
-251 406 -779 0
-877 916 639 0
760 624 497 0
-924 -180 -931 0
-713 730 78 0
443 -176 706 0
59 -999 -53 0
-382 -845 -351 0
-55 -286 221 0
634 378 -957 0
966 -765 292 0
115 -876 624 0
613 -429 350 0
892 -720 -559 0
-481 -622 315 0
477 -675 -714 0
129 -372 -642 0
360 206 869 0
811 993 -943 0
-579 -968 912 0
-102 252 640 0
-1 -328 407 0
888 -387 570 0
734 277 729 0
366 723 120 0
49 57 458 0
-958 2 -729 0
-265 213 760 0
-806 -502 744 0
-582 -958 -374 0
-397 775 520 0
97 477 401 0
263 92 187 0
812 -548 471 0
-703 -388 777 0
-253 -351 619 0
710 -163 608 0
-793 171 -842 0
673 969 927 0
211 992 -825 0
111 307 -651 0
512 306 -221 0
-325 262 -636 0
872 496 218 0
-995 859 451 0
172 727 103 0
342 -192 515 0
26 -753 881 0
-774 -355 488 0
-50 -734 -461 0
-233 416 -179 0
-808 334 104 0
-901 -997 -542 0
-258 -989 225 0
-142 -257 586 0
-642 292 496 0
-517 704 936 0
-460 -200 76 0
227 -21 -365 0
864 -405 -141 0
906 158 896 0
-418 -382 -890 0
710 214 467 0
616 -827 -644 0
-164 84 -162 0
-543 -108 -802 0
766 665 -713 0
-110 -619 -791 0
857 909 -486 0
-793 43 628 0
964 279 519 0
701 436 -620 0
-22 -942 490 0
616 378 -831 0
775 130 970 0
-320 254 -351 0
982 -498 425 0
284 849 312 0
-843 150 439 0
748 493 -729 0
234 703 335 0
252 626 361 0
975 -9 -910 0
-336 764 -15 0
516 -63 -754 0
-377 -806 -23 0
715 486 703 0
-699 -147 -665 0
-767 -563 903 0
170 682 625 0
-307 -96 393 0
429 281 900 0
256 -741 -958 0
571 -934 -656 0
-960 -170 -747 0
511 -167 757 0
761 -855 -931 0
153 965 -619 0
-605 969 399 0
-183 495 105 0
532 403 -724 0
546 802 955 0
964 412 215 0
-936 524 553 0
-2 970 -469 0
101 -132 -827 0
882 -746 260 0
251 -82 286 0
-364 520 958 0
-1 -812 260 0
-523 851 638 0
659 159 -596 0
-702 -286 568 0
594 -633 742 0
-434 -289 -882 0
-983 928 826 0
728 388 -395 0
-817 792 581 0
-601 -885 942 0
135 882 -789 0
456 -949 97 0
-499 954 21 0
922 -872 25 0
965 46 998 0
283 -697 887 0
926 -347 -838 0
-277 708 -306 0
1 -924 -781 0
-185 -198 -34 0
-816 -456 866 0
-883 487 -513 0
905 709 255 0
993 -271 -209 0
865 -322 -165 0
-278 460 -772 0
-147 737 -805 0
-685 296 68 0
-709 -589 88 0
-293 -897 -843 0
180 192 98 0
-820 -296 -919 0
230 -487 448 0
724 676 447 0
892 -754 -736 0
-415 910 832 0
-935 535 748 0
57 -64 -523 0
-944 838 186 0
744 -76 -572 0
-593 189 381 0
134 -970 215 0
923 357 -160 0
573 -707 -503 0
-420 728 142 0
-346 -521 407 0
26 -492 157 0
733 -984 -22 0
-536 -332 380 0
-420 -896 -680 0
-40 930 802 0
976 65 -623 0
-3 534 -691 0
725 186 -614 0
984 -151 949 0
909 -557 142 0
-808 -557 580 0
-631 168 728 0
-243 -273 905 0
592 -985 416 0
-172 918 955 0
-519 -232 -782 0
-674 92 -48 0
875 850 742 0
-584 438 -252 0
611 419 -167 0
380 -304 117 0
-525 632 -273 0
-454 718 910 0
-968 190 -836 0
432 -462 66 0
-506 867 -350 0
-220 -543 894 0
-13 -631 333 0
1 752 -648 0
285 481 -237 0
-828 563 629 0
-720 710 366 0
-889 83 900 0
739 -43 191 0
-437 -492 758 0
-401 -503 -609 0
-156 116 245 0
-417 -776 -800 0
917 -723 -422 0
-696 -937 -574 0
575 -216 -60 0
-687 917 999 0
30 -177 -606 0
-264 71 -841 0
-324 793 640 0
195 583 -56 0
-95 514 671 0
686 -482 13 0
-554 -529 -766 0
571 -78 724 0
-256 -468 -177 0
902 -16 -691 0
676 -73 405 0
-841 -951 851 0
-763 40 -565 0
-788 448 -367 0
293 -369 725 0
471 -142 972 0
95 -829 70 0
84 -79 154 0
601 763 -440 0
675 823 303 0
-788 120 767 0
-257 -552 -19 0
288 -292 -664 0
106 -538 702 0
326 -686 -237 0
21 784 822 0
463 847 -970 0
-160 -966 343 0
-294 -928 649 0
-284 -222 -544 0
607 -388 -29 0
780 -885 -215 0
-942 692 165 0
-435 476 688 0
850 263 567 0
56 -524 113 0
-210 857 -429 0
-468 105 80 0
-150 912 573 0
630 11 162 0
116 -239 -672 0
138 -43 -465 0
-333 -471 -433 0
165 -76 -816 0
-1 -82 -30 0
-540 842 -756 0
-625 -205 -168 0
-5 -981 736 0
-375 580 1 0
323 958 -876 0
834 671 445 0
-234 834 -935 0
-133 -403 -150 0
41 50 625 0
999 -289 830 0
-643 -936 45 0
774 -357 552 0
-682 -909 738 0
488 382 971 0
-470 581 -302 0
-923 -272 -806 0
-875 524 -976 0
-497 -477 -473 0
-231 622 595 0
311 -303 -810 0
257 54 -174 0
-424 279 -304 0
-738 396 -132 0
844 706 179 0
117 -349 596 0
359 -964 882 0
519 401 -527 0
-468 -68 225 0
411 548 446 0
70 -150 -930 0
-379 -417 -630 0
-257 686 -391 0
-975 -145 444 0
-730 938 993 0
465 385 305 0
-699 -34 164 0
719 197 -15 0
845 626 -697 0
524 -151 426 0
-993 -516 -875 0
-430 737 -130 0
-873 -453 446 0
671 -566 -908 0
-918 552 -319 0
54 503 324 0
339 683 -682 0
-202 -830 -413 0
-551 -196 52 0
-302 -407 -338 0
-936 159 110 0
-450 137 735 0
75 -277 -645 0
857 221 442 0
287 -95 -488 0
817 -488 997 0
126 -730 687 0
807 965 -523 0
643 544 -458 0
-687 214 389 0
-670 -986 210 0
-418 53 -365 0
-770 381 -404 0
461 288 -454 0
-226 -106 55 0
-390 -52 -983 0
-540 827 737 0
907 456 -903 0
-38 -81 832 0
-556 -640 494 0
722 -971 847 0
262 28 566 0
205 534 315 0
83 -562 -646 0
223 -610 81 0
969 -995 -857 0
-724 -329 -399 0
672 192 384 0
338 -243 -300 0
-913 -743 -830 0
-728 -530 -779 0
-313 -999 -284 0
478 -167 51 0
-269 216 -750 0
437 445 -892 0
360 483 -911 0
-937 -356 773 0
-710 553 410 0
905 496 -307 0
477 -77 -246 0
-572 -864 -76 0
-556 -67 -463 0
-471 -255 -705 0
727 296 569 0
-530 -42 514 0
761 -831 935 0
-422 -580 -199 0
-644 445 -654 0
958 377 168 0
728 169 60 0
64 -393 315 0
907 948 -182 0
-754 114 881 0
518 -78 -514 0
-963 -844 -566 0
-416 993 -732 0
-751 910 947 0
-167 396 -163 0
294 903 -353 0
-50 623 794 0
15 -664 -259 0
140 -309 -438 0
-642 313 -198 0
-394 -285 289 0
689 -180 13 0
-602 -353 215 0
-771 -651 459 0
854 232 557 0
-872 436 -911 0
642 -142 -135 0
-661 939 -141 0
724 257 875 0
-721 530 681 0
-468 57 972 0
-673 613 -765 0
-139 282 -49 0
-558 63 -655 0
-254 618 861 0
305 -555 -905 0
967 702 -325 0
-554 -367 389 0
-711 -18 861 0
724 -931 620 0
241 542 64 0
-77 96 -271 0
-204 645 938 0
-275 161 101 0
-159 -288 -167 0
-546 605 521 0
-496 645 -82 0
934 -527 -285 0
968 -321 -209 0
-247 -852 26 0
-611 -129 -976 0
-81 -522 -312 0
432 569 -455 0
-888 363 792 0
-610 -281 -65 0
699 850 -767 0
359 64 983 0
902 556 955 0
212 -192 -517 0
836 721 743 0
-371 -682 -202 0
-892 582 288 0
514 868 -350 0
700 -234 -612 0
188 598 203 0
-6 -924 820 0
-443 473 -117 0
636 413 -407 0
-731 -134 -532 0
10 782 -268 0
-268 790 -953 0
751 -29 909 0
144 390 72 0
-943 -629 -497 0
550 -815 956 0
-507 -604 913 0
-629 663 345 0
-933 -962 232 0
-576 913 -82 0
-913 -933 -665 0
337 -378 831 0
913 -970 537 0
-741 -894 273 0
624 229 809 0
-227 -339 303 0
135 411 748 0
-338 -75 -241 0
845 174 570 0
-246 -201 407 0
657 132 -251 0
-441 -301 741 0
-954 289 352 0
226 -909 420 0
269 377 -168 0
880 -866 59 0
-281 -878 -420 0
354 -896 -315 0
805 370 3 0
-118 582 648 0
356 -27 689 0
773 -616 -160 0
431 -151 424 0
968 648 425 0
-776 706 60 0
837 -182 59 0
95 -426 459 0
461 -588 589 0
-336 651 990 0
748 530 555 0
525 546 441 0
-296 127 478 0
-739 -586 759 0
-143 -740 -701 0
-16 117 -189 0
-438 968 -466 0
481 97 -130 0
62 -450 481 0
-973 -490 62 0
-183 459 -351 0
12 214 -384 0
810 -741 -927 0
-599 -89 -798 0
-8 -666 -11 0
-493 909 718 0
-406 -100 498 0
-834 572 -974 0
155 -630 -30 0
387 -873 -907 0
85 201 -653 0
-140 853 -266 0
-96 -80 441 0
-114 782 -774 0
130 254 -480 0
-219 -299 875 0
606 -78 -871 0
251 -976 -197 0
-708 124 -544 0
-280 878 -319 0
422 974 87 0
692 558 725 0
-682 522 -42 0
-116 520 -853 0
-722 -61 665 0
542 48 -69 0
-433 -885 -671 0
-330 -663 431 0
580 -541 234 0
446 -864 -680 0
-311 685 -868 0
33 943 8 0
838 -217 -423 0
-773 889 -910 0
-14 -424 887 0
-752 220 748 0
579 423 251 0
79 -588 875 0
23 828 829 0
822 877 -951 0
219 664 -978 0
170 340 -895 0
-500 -39 -88 0
-329 677 971 0
706 -985 960 0
142 -745 407 0
986 -702 -770 0
-11 -759 436 0
-93 -880 114 0
850 -849 910 0
-410 -761 569 0
631 112 138 0
880 305 -742 0
742 -417 831 0
-232 -178 -796 0
456 -882 766 0
485 -481 -505 0
679 682 796 0
-712 637 -39 0
-770 555 -707 0
396 260 196 0
314 -990 341 0
-691 -767 -784 0
168 100 -701 0
501 750 341 0
969 37 232 0
-519 -753 -73 0
71 717 -9 0
-686 576 711 0
185 -781 -488 0
220 -153 908 0
734 341 -661 0
593 -544 -152 0
780 -409 -503 0
-963 -935 55 0
881 560 48 0
-505 -778 -544 0
-761 -826 457 0
266 552 669 0
-775 -173 643 0
10 779 613 0
139 -415 -236 0
-91 604 139 0
-356 199 -243 0
545 -488 753 0
-449 385 950 0
-161 -329 -116 0
-321 -986 -115 0
855 572 -489 0
720 884 -326 0
167 -462 -879 0
-789 -58 -835 0
-56 264 -802 0
827 -311 -842 0
969 718 -762 0
863 -708 715 0
-420 268 -873 0
583 34 994 0
-282 -982 -76 0
-602 -960 609 0
-776 -507 260 0
-779 249 -728 0
-234 492 239 0
143 -564 325 0
-81 67 574 0
273 -322 -394 0
41 556 -874 0
703 364 -257 0
-316 336 -158 0
62 -126 948 0
157 634 234 0
845 579 929 0
-158 283 -281 0
-584 -682 -745 0
231 -441 -822 0
-585 -143 631 0
565 859 -239 0
993 -558 -433 0
-902 183 49 0
-705 523 451 0
837 -655 -256 0
-641 -609 -791 0
-276 345 -225 0
190 760 186 0
883 -849 -9 0
-701 -860 -691 0
127 -709 -311 0
199 -877 -677 0
-453 -479 225 0
-621 -37 454 0
33 -956 -983 0
-445 -116 -636 0
-32 -855 -583 0
-479 -40 377 0
-904 7 -203 0
-20 -195 905 0
652 849 -357 0
716 263 -121 0
-335 118 -307 0
530 -872 499 0
269 529 510 0
-675 755 221 0
-565 448 -340 0
-686 236 -371 0
-407 325 890 0
-853 920 715 0
-954 -897 995 0
-441 -977 -274 0
682 24 220 0
-362 917 -129 0
-362 728 621 0
912 -212 697 0
-124 -10 677 0
-339 461 -853 0
-623 -718 949 0
673 -187 528 0
-355 783 -160 0
197 112 100 0
-138 121 766 0
553 899 196 0
416 -425 517 0
809 463 -24 0
812 243 -565 0
664 589 947 0
202 -274 888 0
672 745 302 0
980 835 515 0
-622 791 874 0
-623 822 750 0
854 -112 -306 0
-562 107 -258 0
912 91 -524 0
-924 343 19 0
-181 -595 -171 0
-62 -541 225 0
219 20 -193 0
243 -598 -825 0
937 -955 490 0
208 -367 939 0
101 -765 -258 0
609 -138 153 0
672 -645 -805 0
-713 531 -439 0
502 445 -239 0
-88 528 -745 0
705 -996 881 0
-648 426 -225 0
-753 331 -692 0
-917 777 793 0
140 806 814 0
386 -781 -72 0
889 -526 121 0
362 -215 978 0
329 65 -227 0
-223 -917 -899 0
945 718 494 0
-246 -118 932 0
876 521 682 0
18 -653 715 0
882 -445 -66 0
670 -589 -993 0
356 -403 -585 0
980 180 308 0
-289 641 -201 0
377 393 956 0
-972 237 -789 0
876 -965 71 0
-950 469 503 0
-357 909 -281 0
-257 226 904 0
-338 667 698 0
834 -937 -662 0
979 672 470 0
340 -519 950 0
360 -433 9 0
960 666 731 0
612 470 -225 0
429 360 -928 0
909 -100 665 0
320 -409 744 0
544 16 -305 0
284 -115 -271 0
-382 888 -280 0
115 699 -666 0
-806 -413 718 0
-124 7 892 0
-822 81 -236 0
515 -221 840 0
690 612 630 0
-756 335 -979 0
-962 481 -308 0
-951 -649 -812 0
302 -203 199 0
-940 365 871 0
-461 101 717 0
-402 871 -656 0
277 98 175 0
455 -742 714 0
-293 827 -283 0
-131 61 -409 0
489 624 309 0
-730 766 910 0
-910 202 738 0
659 -244 167 0
-536 -643 -175 0
163 773 -595 0
-538 -971 772 0
-446 -123 -667 0
370 -463 253 0
504 -632 727 0
980 -393 -953 0
976 -868 816 0
-388 691 -709 0
592 -548 717 0
-343 950 -756 0
651 -789 -482 0
-613 767 -28 0
-428 485 733 0
205 -984 -959 0
491 -635 -34 0
-720 292 -170 0
-811 103 -380 0
534 523 -204 0
-811 147 -56 0
-891 918 -66 0
-499 -537 629 0
-680 -500 149 0
-748 197 872 0
-582 750 -742 0
554 326 -840 0
-9 289 814 0
-881 931 9 0
137 -942 -240 0
-659 -698 202 0
40 -442 887 0
267 382 -334 0
-758 476 -277 0
851 747 537 0
-534 582 -700 0
-442 -122 186 0
-749 416 780 0
-558 867 97 0
-998 -211 314 0
453 213 173 0
708 -742 611 0
-170 -50 -854 0
756 888 -675 0
22 697 -228 0
452 -51 55 0
-216 109 933 0
-319 180 -953 0
-56 402 -878 0
-358 784 -800 0
61 -43 578 0
97 934 698 0
123 -815 -649 0
646 903 980 0
399 331 -166 0
365 -444 -735 0
454 -99 216 0
866 -916 968 0
-469 -991 108 0
98 328 -101 0
638 994 983 0
411 929 -690 0
-32 301 -812 0
-157 572 -558 0
450 -645 -921 0
-839 -654 165 0
-8 -746 629 0
-619 852 -28 0
-357 995 215 0
-765 -939 -620 0
405 680 507 0
-203 534 858 0
983 860 -192 0
432 619 304 0
-851 -270 -116 0
586 -105 -611 0
-677 -531 -617 0
164 137 -325 0
709 -948 -445 0
-972 48 -72 0
59 571 -114 0
-786 298 -768 0
781 -541 -215 0
-457 304 601 0
-511 610 -416 0
-118 234 -503 0
165 -307 -291 0
-556 711 -57 0
618 400 530 0
447 -652 -996 0
-562 -598 78 0
-416 968 318 0
-908 -849 109 0
-840 -142 -824 0
-230 345 630 0
373 -697 139 0
472 15 -786 0
193 -744 854 0
-507 531 -859 0
-571 750 580 0
973 393 423 0
-338 -396 219 0
-173 -118 922 0
354 525 203 0
501 -30 -92 0
307 -210 496 0
-142 -70 -641 0
-860 -979 653 0
-270 43 595 0
617 -113 419 0
-184 224 -958 0
893 -715 -823 0
555 896 351 0
-966 382 -91 0
-7 -548 270 0
153 -879 63 0
-428 694 724 0
537 594 798 0
976 -766 -187 0
-715 -656 -643 0
-586 -463 -793 0
374 -85 -649 0
373 -776 918 0
-415 250 -853 0
-84 588 766 0
671 -835 -689 0
769 -533 458 0
-930 571 -646 0
96 576 -556 0
671 -542 714 0
-575 -74 28 0
600 60 439 0
256 839 70 0
818 -160 -376 0
561 686 414 0
-823 571 175 0
295 -184 27 0
460 625 692 0
162 347 956 0
-847 -653 678 0
152 -862 594 0
610 989 -313 0
879 -594 795 0
-600 775 -75 0
-305 -208 914 0
430 195 -331 0
-438 -384 177 0
375 982 -701 0
708 -685 160 0
94 468 164 0
843 -238 581 0
377 265 209 0
818 -877 312 0
-577 -351 369 0
583 -921 -104 0
912 -486 -590 0
257 892 928 0
800 854 -713 0
549 178 -532 0
776 -203 925 0
-360 646 -191 0
-526 175 -196 0
-263 -766 424 0
193 -960 408 0
-255 -805 76 0
273 -665 673 0
-171 818 -743 0
-302 -773 -101 0
-122 -119 708 0
-487 -797 525 0
-565 726 -762 0
18 -211 -972 0
-840 730 882 0
466 356 792 0
54 -191 -778 0
-594 300 986 0
139 745 148 0
969 528 552 0
-842 -448 321 0
746 -119 453 0
-870 568 903 0
-37 691 -650 0
566 775 -435 0
837 976 253 0
-936 168 115 0
770 -358 140 0
118 732 755 0
-65 121 -496 0
-798 -972 -286 0
-299 -968 -636 0
289 171 -215 0
868 -329 -280 0
971 -179 -933 0
245 -322 134 0
-503 816 -788 0
-18 -533 -446 0
-925 9 -43 0
-540 536 -532 0
-654 69 -92 0
271 654 66 0
-863 -972 130 0
501 -466 -543 0
278 -79 487 0
113 -860 -942 0
-365 55 832 0
5 911 539 0
-634 999 788 0
-227 62 -72 0
589 8 -279 0
-653 636 836 0
440 -841 210 0
917 189 -939 0
-873 -321 294 0
294 -917 240 0
-567 23 -672 0
-666 -198 192 0
-622 -420 -33 0
394 -971 186 0
-862 -124 -233 0
-353 208 -802 0
-432 854 -554 0
817 -195 594 0
-431 558 -370 0
-249 611 -812 0
-504 379 650 0
22 -724 -87 0
-708 346 -380 0
135 -465 -188 0
998 120 -106 0
-961 802 343 0
557 656 -884 0
-406 -785 -799 0
673 66 440 0
151 -476 829 0
-991 -224 -410 0
-227 801 236 0
841 -746 -795 0
802 -495 -87 0
980 -43 814 0
-995 954 555 0
22 -832 266 0
-203 -459 -48 0
-932 386 -230 0
-662 -433 467 0
-699 -790 543 0
-129 5 807 0
-902 -341 -968 0
-4 -234 -619 0
-742 10 484 0
485 -101 983 0
353 -26 -811 0
-475 67 553 0
934 -40 -78 0
-510 -265 701 0
-411 -115 -832 0
-779 942 -497 0
-778 60 -774 0
-133 -593 788 0
654 619 586 0
-590 877 -204 0
745 517 605 0
420 178 -73 0
-850 -958 -55 0
109 25 274 0
5 -365 -469 0
-864 -169 -548 0
-944 -890 -26 0
-214 551 571 0
-385 -358 76 0
-324 684 -795 0
488 -915 370 0
842 -408 967 0
-428 -125 -413 0
-596 -980 -711 0
143 463 368 0
883 406 44 0
-541 716 -333 0
983 508 -643 0
-967 490 879 0
942 17 -429 0
-361 988 -989 0
738 668 -397 0
16 -102 -36 0
-926 -900 858 0
-645 -51 375 0
742 -467 795 0
161 898 -842 0
-296 -333 445 0
639 -897 -611 0
-883 232 243 0
-144 -983 326 0
-176 -403 683 0
796 942 210 0
357 -298 25 0
-868 87 13 0
-842 45 4 0
745 293 961 0
-508 821 693 0
304 -181 -116 0
-117 -472 -338 0
-644 354 418 0
-90 -894 44 0
-174 797 213 0
-847 623 -274 0
-594 -617 -860 0
243 308 -66 0
411 292 87 0
672 823 995 0
801 762 -650 0
-863 133 182 0
603 -250 -289 0
-622 275 -933 0
-884 -484 769 0
-464 478 190 0
908 755 -91 0
703 -942 -524 0
149 865 229 0
347 -797 601 0
744 -536 -823 0
825 586 233 0
364 179 833 0
-182 878 518 0
-610 602 -615 0
-358 683 698 0
-213 95 355 0
514 154 -186 0
467 808 -408 0
5 -478 -84 0
308 488 -382 0
-489 -480 -643 0
-604 -164 772 0
-813 -720 562 0
-76 -895 387 0
962 -269 -319 0
-929 772 -746 0
-195 276 746 0
-27 850 518 0
-416 -354 -970 0
-75 -917 22 0
-574 -363 -939 0
-727 874 -248 0
621 -9 868 0
-664 -37 -300 0
-101 974 162 0
595 962 436 0
897 38 827 0
-26 934 696 0
-241 358 -409 0
-240 -361 710 0
-450 -113 970 0
813 703 -808 0
-596 378 382 0
625 -614 245 0
-802 -559 -970 0
321 -698 -732 0
347 417 -404 0
276 40 -311 0
-518 719 -823 0
836 520 -176 0
132 -311 -43 0
-707 243 271 0
-364 -316 -985 0
-858 199 -331 0
-69 -332 868 0
264 270 213 0
-868 362 350 0
331 98 -550 0
706 671 -401 0
295 672 -973 0
264 -399 366 0
-711 845 27 0
161 -606 897 0
-991 925 741 0
-761 646 674 0
876 779 801 0
-355 434 394 0
610 -943 -611 0
-155 -246 -712 0
162 822 -864 0
-603 -268 993 0
714 -910 390 0
820 -569 125 0
-953 -942 -776 0
784 198 -278 0
-553 2 -200 0
-797 -469 -356 0
932 408 845 0
533 -586 -910 0
-551 -898 338 0
-688 -89 -383 0
-729 348 721 0
-177 295 580 0
893 724 -781 0
858 997 -945 0
-376 -70 586 0
-987 -807 -23 0
-184 -249 -907 0
-824 656 127 0
-217 892 -477 0
-415 251 395 0
126 -514 966 0
570 -30 -10 0
-718 -839 847 0
-537 -582 -574 0
-948 374 -85 0
719 -887 909 0
-159 -889 358 0
714 -610 468 0
-141 -986 39 0
78 571 513 0
195 976 -982 0
599 53 -232 0
116 -450 -704 0
774 480 125 0
249 37 -695 0
35 431 503 0
502 -998 -765 0
677 -502 871 0
-237 927 -926 0
150 118 -270 0
11 793 -949 0
-427 994 136 0
385 -283 436 0
226 100 615 0
-505 -162 -29 0
-955 197 474 0
-809 284 268 0
-238 274 -545 0
-350 -459 -944 0
278 -572 810 0
-312 -210 -116 0
286 314 110 0
187 374 657 0
450 437 411 0
-798 -777 -274 0
-492 -639 2 0
901 669 -262 0
840 60 598 0
-772 3 29 0
-782 -960 -739 0
395 447 514 0
487 354 910 0
-811 -430 612 0
-907 -929 -210 0
371 -560 680 0
445 -63 953 0
-34 -84 -288 0
887 625 -639 0
827 -887 -906 0
-622 -734 267 0
-873 589 15 0
318 -365 312 0
444 -324 -465 0
211 -646 -208 0
231 -427 192 0
5 -826 -574 0
-897 -531 -491 0
-577 -601 -154 0
-364 362 -359 0
119 365 -301 0
-721 -427 -734 0
-488 19 89 0
-155 -994 405 0
-351 -311 -108 0
-298 -266 -850 0
-921 310 -884 0
134 466 -424 0
537 936 153 0
-441 -99 -504 0
835 -174 -514 0
313 -173 264 0
327 449 -961 0
464 -712 473 0
-377 425 44 0
16 -852 623 0
-529 -129 -511 0
768 -738 -245 0
-558 90 -975 0
466 -260 -586 0
661 417 173 0
10 -859 -497 0
51 668 529 0
239 -565 -259 0
-647 768 -546 0
-325 307 -611 0
849 -606 -187 0
391 982 692 0
736 470 -514 0
-219 -73 -227 0
156 459 961 0
-599 -425 -803 0
991 -655 377 0
-708 -494 -247 0
-6 275 842 0
-724 -875 195 0
-566 467 -202 0
-231 236 447 0
-883 365 341 0
433 21 551 0
810 -425 915 0
-893 -462 -572 0
-958 -672 45 0
-169 718 386 0
62 -63 228 0
-343 593 157 0
880 -843 -236 0
537 -558 570 0
-685 -233 84 0
529 613 -581 0
140 122 -785 0
949 295 637 0
-960 609 -599 0
543 -195 -375 0
-627 109 556 0
828 -270 146 0
-161 146 -304 0
-38 -256 -194 0
-828 -861 -615 0
-276 -569 -781 0
-287 726 -22 0
-163 760 295 0
-439 -291 385 0
79 -890 -771 0
748 -504 371 0
-289 -430 -658 0
887 -357 -306 0
401 -437 -821 0
-536 503 -973 0
-373 216 63 0
491 797 -1 0
968 -118 115 0
474 458 -22 0
806 -60 207 0
-704 -667 -844 0
-766 -649 -328 0
801 -788 187 0
-644 -831 -877 0
823 7 359 0
-621 810 -238 0
-952 -972 578 0
503 -89 253 0
-231 204 -706 0
-925 -702 -686 0
23 -210 -728 0
27 -108 -242 0
529 -153 -419 0
204 -982 189 0
221 887 615 0
-870 724 997 0
-25 -878 691 0
-721 835 23 0
-167 -120 108 0
-845 697 293 0
-12 -939 -661 0
-73 301 849 0
401 -638 -974 0
636 794 765 0
-451 794 -722 0
-257 150 467 0
-709 235 -993 0
113 -598 -959 0
60 216 -445 0
843 -950 -188 0
-344 508 113 0
133 3 732 0
550 804 77 0
496 -612 77 0
-242 -30 908 0
575 -658 815 0
531 736 -195 0
110 475 -325 0
-327 -693 656 0
-288 96 -720 0
67 -133 -518 0
38 437 910 0
-123 -509 120 0
-286 -854 -821 0
146 -295 254 0
340 645 -254 0
339 -849 159 0
894 577 668 0
-543 689 -999 0
507 297 624 0
562 997 -54 0
-504 -274 194 0
-492 28 -194 0
994 200 -586 0
293 499 513 0
-620 -42 972 0
687 477 -409 0
-72 410 -599 0
-408 -744 454 0
459 -399 947 0
344 -425 976 0
402 -551 -385 0
-594 770 -340 0
-79 -284 -895 0
314 951 687 0
-950 868 444 0
-901 960 459 0
-767 -813 -246 0
310 -805 -548 0
-320 -76 122 0
577 40 779 0
439 -82 830 0
305 482 -769 0
-751 -973 846 0
914 452 -616 0
526 -613 -919 0
579 655 -769 0
790 -195 132 0
547 506 918 0
848 -68 -547 0
77 -858 -364 0
-614 -912 -212 0
-234 -915 784 0
795 -893 257 0
447 -303 -360 0
208 -833 -977 0
881 342 603 0
-617 448 -905 0
924 -672 -795 0
983 -846 -132 0
802 481 549 0
-151 -507 296 0
450 351 -522 0
227 319 -265 0
588 165 -91 0
747 914 627 0
638 -233 53 0
-71 -642 876 0
-544 -32 665 0
736 925 -798 0
708 -4 -897 0
660 -335 -221 0
-344 -432 199 0
-511 729 -139 0
-835 -42 658 0
802 -395 -95 0
53 394 -882 0
-618 124 852 0
-104 254 -290 0
785 63 -366 0
816 -719 824 0
-217 -244 -620 0
-282 5 -549 0
-346 -359 -55 0
319 499 578 0
507 -464 -515 0
506 -383 -906 0
-226 -566 -126 0
-26 74 -667 0
179 -401 -441 0
-601 65 346 0
-413 -256 436 0
-746 -620 891 0
260 -875 284 0
491 -932 -992 0
618 -725 369 0
870 -92 -459 0
-479 -195 373 0
466 -50 -475 0
-9 -115 73 0
-178 303 -540 0
925 -644 -733 0
802 43 -17 0
-401 359 -70 0
-499 151 -607 0
-306 414 -492 0
-502 414 -824 0
-767 4 -328 0
305 -324 -437 0
292 817 -867 0
-184 -66 -146 0
664 -269 -285 0
-278 -58 -832 0
-102 -496 -873 0
606 -183 -715 0
628 980 -272 0
-104 146 -590 0
462 672 10 0
907 439 -904 0
891 803 476 0
-348 -279 -369 0
-655 -605 -398 0
659 -31 -568 0
-723 -674 -621 0
-275 991 -587 0
4 435 -329 0
-784 -346 328 0
-358 -362 -709 0
124 527 961 0
440 -183 -193 0
170 -71 867 0
96 675 507 0
-381 343 93 0
-480 -942 -413 0
-349 690 902 0
-836 539 561 0
413 -453 -227 0
149 -754 217 0
-951 -107 -481 0
118 918 666 0
877 -686 975 0
939 333 -714 0
-478 -299 793 0
-532 751 -920 0
410 684 649 0
720 -610 225 0
-949 884 257 0
700 -48 1 0
-855 -26 352 0
888 -749 -507 0
58 -435 594 0
118 -916 -972 0
-926 -285 -772 0
244 616 -536 0
-992 -893 700 0
564 322 731 0
513 -552 956 0
-559 658 263 0
731 493 952 0
791 540 424 0
-980 -110 271 0
-964 -441 -954 0
788 857 931 0
149 -399 -643 0
-493 -778 -379 0
-889 262 -41 0
-348 -913 -973 0
-396 -437 36 0
505 67 -487 0
94 -203 366 0
324 133 684 0
-956 99 982 0
-931 -234 -106 0
781 318 784 0
183 -634 655 0
780 328 423 0
1 256 164 0
-562 554 932 0
866 -547 392 0
517 -761 373 0
583 521 -437 0
-421 -260 -790 0
451 -659 727 0
-21 -365 451 0
-848 389 -261 0
455 258 284 0
590 -97 -430 0
795 -344 -544 0
905 -77 -891 0
692 990 -173 0
186 446 722 0
401 471 9 0
294 209 628 0
-371 -932 831 0
64 -302 -966 0
638 445 -561 0
326 669 27 0
-612 434 -494 0
344 857 -879 0
714 -889 -727 0
-152 970 -939 0
-111 53 -447 0
-758 129 -777 0
-549 -794 367 0
455 -714 -80 0
284 -180 293 0
-210 -724 -141 0
498 -104 -684 0
931 654 -296 0
-372 -194 -265 0
-173 801 -461 0
-419 -921 -162 0
701 40 949 0
-265 782 -460 0
248 394 55 0
-897 -626 -810 0
834 218 821 0
-772 815 -819 0
767 373 -419 0
366 -896 -538 0
-553 -28 302 0
526 293 750 0
173 -704 -425 0
-522 435 837 0
-66 -479 -451 0
302 358 -474 0
-511 -605 -862 0
654 -329 -242 0
788 -929 702 0
653 499 -753 0
797 104 211 0
577 517 -570 0
-933 -342 -848 0
-249 844 607 0
288 -697 -881 0
448 941 -736 0
119 694 -860 0
-991 64 243 0
733 -760 -515 0
241 900 103 0
-249 921 -39 0
-726 962 579 0
-150 -794 652 0
-686 467 671 0
-275 -532 916 0
-612 35 200 0
830 -796 -321 0
-137 -810 475 0
-681 -125 -626 0
-26 -741 -66 0
150 -241 -12 0
651 809 -988 0
656 -971 458 0
-533 577 281 0
-561 944 -326 0
969 922 741 0
-37 201 -782 0
664 622 -378 0
-885 41 -988 0
214 22 -460 0
861 412 -59 0
31 -52 781 0
992 -302 -481 0
-705 60 -462 0
-352 -20 -433 0
913 -433 -477 0
753 736 207 0
-628 545 270 0
495 947 -882 0
341 -290 814 0
284 -506 603 0
475 -43 -589 0
137 -520 -594 0
650 -42 -134 0
571 251 575 0
-450 -604 -164 0
-812 566 61 0
-116 -917 -789 0
490 675 972 0
679 464 -906 0
418 -295 340 0
64 -946 811 0
-440 768 -992 0
233 322 599 0
-659 -537 -595 0
-563 -863 -266 0
-40 54 781 0
403 -480 247 0
-654 206 -898 0
357 858 -487 0
916 -657 831 0
459 -172 337 0
203 926 169 0
505 -525 224 0
8 652 -572 0
-511 -950 -358 0
-379 597 -264 0
-942 395 -388 0
-337 -316 950 0
5 575 934 0
112 966 -488 0
-406 798 570 0
408 -489 398 0
-30 15 20 0
797 -464 -41 0
-82 -730 -323 0
-894 -609 -183 0
-516 107 266 0
-643 334 -401 0
-220 -866 -474 0
-634 -422 652 0
-230 400 349 0
-89 -635 -615 0
28 -436 -357 0
-565 240 537 0
-650 -378 -837 0
-319 -245 852 0
569 854 -300 0
17 122 -949 0
-155 73 99 0
-928 -265 -280 0
-688 695 -565 0
-575 418 351 0
-461 570 545 0
497 -413 464 0
-484 445 65 0
728 -932 -12 0
-858 830 893 0
618 187 -254 0
60 656 316 0
847 864 545 0
77 480 -566 0
-603 -615 929 0
-800 -701 273 0
-374 914 323 0
-686 272 -290 0
-968 517 -82 0
64 -159 -711 0
-391 508 177 0
-88 -729 -86 0
-72 -815 -39 0
39 -229 -924 0
-928 -704 -218 0
701 318 371 0
-788 -221 529 0
359 429 935 0
-535 -455 -934 0
958 -668 525 0
-695 622 736 0
558 209 72 0
-530 144 882 0
875 163 -216 0
534 231 622 0
242 189 971 0
-18 167 -688 0
586 -626 768 0
-708 736 941 0
-637 -410 561 0
968 -71 825 0
-878 735 868 0
569 -273 247 0
-841 -919 -39 0
-916 -296 258 0
-658 -304 -282 0
229 827 179 0
-582 143 827 0
-256 390 84 0
-867 -551 -756 0
-590 441 -345 0
-427 766 4 0
642 -5 -174 0
-18 -711 440 0
-925 479 -6 0
595 454 -160 0
137 723 -419 0
-829 765 793 0
-460 795 -393 0
697 -667 -196 0
-78 -455 -316 0
879 270 826 0
794 -520 119 0
263 -265 169 0
-904 190 -594 0
20 -321 -572 0
604 727 -327 0
-373 -308 -239 0
-324 -913 -207 0
-656 -680 505 0
-762 359 -318 0
144 160 898 0
200 -319 265 0
335 442 728 0
895 -132 -708 0
219 -799 -159 0
474 962 452 0
573 475 193 0
-633 -352 761 0
879 -13 35 0
-971 -589 259 0
887 -429 264 0
380 -365 -49 0
821 971 848 0
-987 200 59 0
-108 103 -19 0
-435 437 104 0
-788 -823 187 0
-91 11 -301 0
835 -149 686 0
637 914 -343 0
311 402 -297 0
167 -558 615 0
-753 -397 -576 0
-359 736 167 0
951 173 865 0
-404 594 394 0
-348 -840 404 0
-161 691 -36 0
-1 763 793 0
-581 -543 -930 0
792 142 433 0
637 613 57 0
669 41 -883 0
-805 135 -637 0
-529 562 681 0
-774 457 921 0
-5 -734 -352 0
550 496 -141 0
570 122 -896 0
-790 -244 309 0
162 591 -25 0
109 337 635 0
-294 -368 -169 0
774 -839 -406 0
233 503 -432 0
292 571 -533 0
30 768 -359 0
-205 -183 -364 0
-149 314 -520 0
-309 -14 792 0
-590 -977 -818 0
-454 419 -906 0
206 969 -167 0
-955 -78 100 0
461 -393 -275 0
-749 -786 586 0
182 16 -127 0
-189 -490 -515 0
695 908 -217 0
-722 605 -81 0
-29 119 132 0
839 -429 -139 0
288 45 257 0
221 773 -952 0
656 860 570 0
549 593 962 0
104 -137 697 0
-576 -621 -461 0
-434 -471 -528 0
-530 -593 753 0
137 -185 693 0
389 -713 -38 0
315 -263 -830 0
392 -249 98 0
-230 -628 763 0
-256 474 336 0
-357 -633 -922 0
85 -7 852 0
-81 -370 911 0
945 -437 -293 0
-826 -934 -293 0
254 -480 -112 0
-582 -66 525 0
357 -457 -593 0
-220 951 -71 0
583 236 -476 0
-458 -433 -780 0
-179 36 380 0
-763 -664 -653 0
-844 991 -633 0
-789 -133 -903 0
930 359 -554 0
775 -512 463 0
748 684 -97 0
784 458 760 0
167 -570 -376 0
-439 -401 -107 0
271 -667 -603 0
81 681 -705 0
520 951 953 0
396 -348 737 0
375 -85 -57 0
-2 501 -212 0
377 -990 -398 0
794 -501 225 0
688 -684 -224 0
277 -148 948 0
-357 -662 -505 0
-82 219 138 0
-565 333 -10 0
376 -275 -213 0
-276 -931 39 0
-736 -202 636 0
434 -909 -783 0
684 -590 715 0
-365 -670 -66 0
-742 -123 -646 0
603 -200 -714 0
485 -269 -602 0
672 -400 -571 0
864 136 -548 0
-650 -720 -813 0
-594 879 -549 0
-213 979 -609 0
666 -279 -188 0
-696 -387 -117 0
140 -765 -723 0
848 -697 518 0
-864 393 -942 0
959 759 803 0
-136 -200 -250 0
-511 -108 -990 0
-854 -697 -48 0
-871 962 -754 0
-1 -323 -765 0
-884 337 9 0
970 -395 -264 0
806 -982 -98 0
-365 355 875 0
-152 553 -727 0
-82 -65 605 0
-54 247 -712 0
-745 951 668 0
-191 -145 733 0
656 710 -8 0
310 -84 -870 0
-105 -400 805 0
681 296 -366 0
12 -111 595 0
170 -66 -238 0
-383 -872 -200 0
711 915 -486 0
-515 531 542 0
-564 -821 -409 0
379 -683 361 0
556 293 601 0
-93 965 -691 0
-713 -837 -612 0
255 985 -769 0
820 644 -845 0
128 -730 -190 0
301 61 157 0
454 -497 -758 0
-113 462 -788 0
-58 -545 -392 0
-763 -414 -460 0
260 613 396 0
-896 -695 399 0
-715 717 665 0
-279 335 522 0
-838 -666 -250 0
-239 410 -738 0
707 807 -986 0
354 -728 -998 0
701 -747 -311 0
-193 939 -930 0
-774 -475 -171 0
113 -596 -77 0
-86 -917 -763 0
448 -367 -196 0
67 -840 -390 0
932 767 177 0
899 -408 -558 0
219 66 726 0
-544 129 750 0
-850 717 -222 0
-910 -639 347 0
-561 -715 315 0
229 732 234 0
582 953 75 0
-296 -597 699 0
499 714 151 0
956 -605 434 0
648 -507 -994 0
-315 -452 -545 0
-13 701 -898 0
26 915 -402 0
-287 190 928 0
-262 -764 -193 0
991 539 81 0
759 -634 995 0
-49 -910 688 0
-527 -40 177 0
-218 950 -604 0
521 419 471 0
354 679 -437 0
-726 -51 -154 0
-790 260 916 0
-864 -488 65 0
395 -443 448 0
350 472 488 0
734 244 -506 0
-948 216 961 0
893 -541 797 0
-265 -700 -869 0
965 644 336 0
-744 -328 -979 0
444 30 -683 0
902 -803 778 0
684 883 -29 0
323 -582 592 0
-955 -79 520 0
-514 634 765 0
588 -615 840 0
-353 -990 963 0
361 707 -28 0
-847 636 93 0
-922 242 182 0
-239 456 902 0
-624 -781 228 0
-941 884 -57 0
948 -280 -509 0
517 -239 -296 0
-587 -123 -541 0
64 443 975 0
-210 755 152 0
-710 -469 -779 0
990 -450 327 0
-619 135 -868 0
-164 87 139 0
519 104 782 0
-954 -818 821 0
-393 604 199 0
-129 822 650 0
595 -292 -323 0
98 140 192 0
694 356 -570 0
949 -343 -845 0
124 955 -169 0
905 591 728 0
553 45 -677 0
463 707 85 0
-321 768 503 0
65 -874 -79 0
-987 -383 842 0
-41 -479 -619 0
49 -910 486 0
963 -964 -49 0
-474 784 -328 0
-460 -33 428 0
-479 814 692 0
484 -921 993 0
135 381 574 0
-13 439 557 0
507 863 -543 0
-690 607 -396 0
893 622 -270 0
-854 -113 -907 0
492 356 182 0
-940 -142 -879 0
-634 -343 812 0
-471 -288 962 0
-725 -8 -541 0
-916 -249 319 0
888 -674 937 0
56 -75 372 0
-80 344 696 0
384 837 -753 0
278 -818 654 0
652 -342 158 0
-220 307 73 0
-628 117 698 0
456 -106 10 0
528 683 604 0
-887 -954 -346 0
-928 -346 107 0
-247 -604 934 0
-739 225 643 0
-506 -443 409 0
642 196 270 0
798 48 -819 0
-112 -858 429 0
523 -340 -477 0
-52 -292 -90 0
61 -570 -814 0
2 554 -277 0
810 -779 -273 0
429 -66 -712 0
-207 -485 382 0
561 -462 90 0
169 71 -455 0
-929 -248 615 0
910 -407 -783 0
-805 -934 57 0
-978 -569 102 0
482 538 651 0
433 269 492 0
461 -463 -581 0
53 49 -203 0
168 -226 102 0
613 -440 331 0
-539 -211 -610 0
-250 811 -882 0
12 72 162 0
2 -742 178 0
51 672 869 0
844 470 269 0
201 910 160 0
-398 -962 -13 0
711 305 -258 0
-327 -678 -250 0
209 39 287 0
404 956 -105 0
-389 484 -947 0
277 969 330 0
-591 462 507 0
-357 -33 412 0
701 -237 -271 0
197 -699 920 0
-558 -159 -315 0
129 -684 -552 0
607 436 -305 0
-447 -359 -885 0
765 -560 -429 0
208 -754 71 0
661 57 259 0
-224 583 887 0
86 -712 417 0
407 -80 -218 0
-97 639 745 0
-619 -789 -940 0
-79 605 168 0
-147 -640 966 0
973 -986 872 0
-284 519 -889 0
-847 -727 420 0
608 -213 750 0
193 -18 482 0
576 867 -608 0
-202 816 430 0
-176 899 934 0
684 -132 225 0
448 -252 -288 0
-835 -913 -936 0
-289 567 276 0
-87 830 -564 0
291 950 718 0
28 -89 -950 0
-654 -639 114 0
166 -666 18 0
-34 659 -911 0
-386 267 -679 0
-372 -721 882 0
151 483 -368 0
-879 109 666 0
340 -525 -469 0
-812 308 253 0
937 453 182 0
874 -682 107 0
-501 276 -6 0
331 279 -92 0
-911 758 27 0
727 -202 235 0
611 493 -50 0
-738 210 434 0
-553 809 -222 0
-963 138 -154 0
229 8 -19 0
217 22 814 0
-275 147 -599 0
-464 715 669 0
707 -657 767 0
-531 822 -709 0
-321 -461 720 0
-685 409 -985 0
949 269 -215 0
156 94 594 0
314 499 -569 0
-904 348 -351 0
986 -530 -409 0
780 77 525 0
39 -575 329 0
-626 225 186 0
847 624 288 0
131 -149 -601 0
820 652 302 0
940 111 -110 0
294 -949 96 0
-652 111 -213 0
177 855 -319 0
-149 392 455 0
646 -504 -310 0
-433 483 721 0
357 -133 -969 0
483 975 -471 0
-477 842 -612 0
928 338 -929 0
856 -517 103 0
-181 960 -542 0
307 -624 -552 0
-391 184 -623 0
21 -641 -742 0
-720 -777 -556 0
721 -880 620 0
-969 -730 -177 0
226 110 -282 0
-740 -280 -971 0
305 431 -461 0
-72 780 89 0
697 790 636 0
-286 -951 987 0
-332 438 994 0
-47 -518 94 0
729 -738 804 0
191 566 -739 0
-863 -985 417 0
936 -20 -250 0
702 182 362 0
-755 766 -98 0
-716 -745 46 0
-860 865 -904 0
825 -542 718 0
693 -527 819 0
-260 -580 279 0
-593 376 314 0
-750 663 203 0
567 734 -825 0
-919 386 -164 0
866 607 -384 0
-502 649 424 0
-143 -753 -673 0
928 615 706 0
273 -588 61 0
165 389 32 0
-501 673 -937 0
220 586 627 0
-543 728 -9 0
-537 334 754 0
528 594 923 0
-353 -170 650 0
-890 -881 931 0
-549 -660 261 0
-428 906 201 0
768 -13 579 0
-701 772 745 0
-704 -903 -667 0
542 79 -360 0
-617 -723 120 0
-960 91 -437 0
899 -167 -164 0
-642 649 -321 0
592 -849 826 0
-394 718 462 0
443 -317 436 0
-817 524 75 0
453 112 -508 0
867 -797 -974 0
-767 -254 -230 0
-238 -622 867 0
-101 770 667 0
-232 -598 -8 0
544 936 307 0
-983 280 -310 0
252 -521 412 0
-347 440 -92 0
834 619 -214 0
-698 -307 194 0
357 984 905 0
36 -308 634 0
-162 684 137 0
-492 -472 972 0
-865 602 -998 0
-533 529 423 0
-639 635 718 0
-709 379 -614 0
190 735 724 0
403 598 336 0
-718 528 810 0
-529 739 912 0
546 -894 631 0
-59 -807 990 0
333 -608 256 0
701 903 -861 0
-50 -283 -618 0
-190 -786 -163 0
-793 883 192 0
876 372 649 0
319 -355 685 0
-157 919 -799 0
-298 -308 -396 0
-298 365 574 0
647 27 -295 0
-839 -220 -881 0
-716 155 -927 0
-404 -523 -817 0
280 831 -391 0
-737 -695 162 0
-226 903 168 0
60 -846 461 0
-621 -477 411 0
669 878 -548 0
326 -735 -294 0
-811 658 576 0
665 -758 -745 0
629 716 271 0
-886 -116 -612 0
-151 718 32 0
-292 -839 -955 0
353 -251 -876 0
239 534 -954 0
-39 -124 452 0
-540 750 954 0
702 -697 -260 0
489 -357 982 0
691 -166 -462 0
138 -634 -511 0
353 250 617 0
109 -805 -837 0
-634 -95 493 0
843 -301 -390 0
-767 114 -219 0
234 63 -358 0
242 -696 955 0
534 -423 -475 0
-235 -239 -686 0
-147 -992 -815 0
-258 690 -680 0
-544 -626 483 0
309 302 560 0
-110 755 731 0
715 723 -310 0
-29 -486 999 0
-702 -41 -686 0
49 -809 292 0
951 -736 950 0
784 -792 468 0
-258 -758 715 0
460 85 776 0
757 618 274 0
-546 122 518 0
-721 -671 784 0
762 21 -417 0
-255 826 618 0
485 424 -857 0
-497 145 996 0
-147 -436 -207 0
262 -455 724 0
829 831 561 0
338 759 673 0
-538 54 992 0
-118 -100 -491 0
157 -857 1000 0
417 -97 510 0
845 461 -109 0
922 -765 -520 0
684 616 -828 0
53 136 305 0
587 49 295 0
-971 968 474 0
-734 557 -178 0
853 882 -577 0
210 -174 -668 0
953 741 -855 0
-871 142 994 0
-784 518 -22 0
-963 -350 540 0
435 790 683 0
328 -784 -918 0
90 678 454 0
-423 453 -8 0
-400 -183 286 0
854 389 967 0
910 11 620 0
866 -806 -192 0
576 -819 -497 0
906 -669 -291 0
235 8 105 0
882 943 751 0
-820 -399 114 0
-316 -619 -135 0
-206 -779 194 0
480 -199 -389 0
19 -836 -803 0
-271 782 210 0
498 746 -474 0
-122 -499 421 0
738 -550 -611 0
913 -757 737 0
-75 -840 -997 0
-518 -483 176 0
-689 829 277 0
-11 524 393 0
-552 -39 189 0
-118 663 -328 0
-604 -127 490 0
891 476 -328 0
599 996 -794 0
605 -808 737 0
-905 -261 -327 0
777 -773 -819 0
-24 -339 -621 0
-960 -979 234 0
86 478 923 0
78 -362 -954 0
-685 418 -957 0
-30 -3 -684 0
-566 -391 358 0
-508 476 -222 0
-207 805 540 0
-554 544 653 0
-674 -360 507 0
91 227 -461 0
784 248 -89 0
-471 607 99 0
-470 -169 -758 0
-923 -254 218 0
-276 -614 -799 0
266 -26 -748 0
-877 -847 -714 0
-88 222 -800 0
-425 16 461 0
-791 736 -658 0
-497 642 971 0
69 831 27 0
460 -164 507 0
-532 139 108 0
-770 -384 -107 0
-529 63 716 0
738 -17 -207 0
-840 -245 -813 0
241 -247 -763 0
-254 167 759 0
634 -640 522 0
356 -155 909 0
-577 651 168 0
-697 359 -306 0
978 -874 405 0
812 -242 -814 0
-54 173 504 0
-38 -628 -524 0
788 494 861 0
-590 -274 -856 0
-995 -376 922 0
-853 295 -543 0
-208 -524 85 0
-624 834 517 0
-399 -929 -768 0
996 -167 768 0
-489 -963 361 0
664 73 361 0
19 210 -705 0
-32 57 728 0
-276 -664 -28 0
773 884 -110 0
-717 788 -876 0
-18 323 183 0
-351 977 155 0
-890 23 -25 0
-758 -208 -724 0
335 -293 -43 0
933 245 -653 0
-524 154 -318 0
754 -413 499 0
-988 958 989 0
737 -897 906 0
-797 469 -39 0
268 704 -97 0
731 962 -635 0
181 885 -680 0
-36 735 -465 0
-732 -401 -551 0
271 834 132 0
-131 564 165 0
-345 -940 -520 0
-104 446 -989 0
-360 -210 871 0
640 401 352 0
964 -699 10 0
773 -204 529 0
-133 -128 -184 0
-90 -3 710 0
-825 256 -464 0
-287 -824 -470 0
-555 -528 109 0
54 -514 782 0
-875 408 765 0
-959 -500 -494 0
-815 64 -416 0
212 -268 612 0
200 -957 850 0
-513 775 -863 0
-203 -356 369 0
672 912 239 0
-307 -324 -157 0
785 -522 829 0
763 -508 4 0
-399 -824 358 0
-598 -797 -634 0
-529 -838 998 0
-882 621 -213 0
-649 -354 256 0
95 599 616 0
-571 -50 919 0
72 -559 -843 0
-120 -319 361 0
900 911 -929 0
9 893 250 0
-841 -434 770 0
598 685 -440 0
-268 -117 -271 0
751 238 406 0
-424 383 59 0
-952 -789 -99 0
-526 758 -24 0
494 176 957 0
-483 603 834 0
-485 -622 -179 0
73 -812 -867 0
-399 847 -468 0
-378 -21 -319 0
440 942 772 0
938 -638 -464 0
-404 -473 65 0
-215 655 -121 0
-365 909 24 0
-789 511 614 0
548 685 -866 0
659 -196 -101 0
291 -26 -279 0
-164 -245 -755 0
-483 -736 -55 0
234 -177 315 0
563 120 -382 0
-145 -906 780 0
-542 288 -466 0
-968 -373 -421 0
184 -489 701 0
116 289 213 0
842 -924 790 0
864 371 -766 0
678 -762 633 0
838 49 -120 0
724 220 752 0
588 291 276 0
241 92 489 0
879 -208 -642 0
-380 623 805 0
-709 142 -234 0
-928 567 511 0
163 -5 -603 0
-84 -454 518 0
-542 -999 807 0
-579 -801 -824 0
-445 -605 615 0
807 90 2 0
717 232 -495 0
-153 -377 905 0
-52 -454 714 0
15 -346 -165 0
-233 266 662 0
-388 -603 -393 0
-177 194 836 0
20 -782 278 0
616 -776 160 0
966 -155 -584 0
-272 668 -238 0
885 592 688 0
-10 183 -806 0
644 488 756 0
635 -528 -433 0
503 2 -291 0
-809 501 955 0
272 245 -823 0
-308 212 656 0
291 70 809 0
-754 -47 677 0
940 948 613 0
478 -711 662 0
295 989 -651 0
-201 -736 -65 0
-991 963 46 0
497 -525 -699 0
-823 -642 -875 0
70 571 -787 0
-935 766 524 0
781 -123 601 0
1000 468 -823 0
449 560 -443 0
-793 -133 -91 0
-1000 113 -32 0
-706 375 -894 0
-137 -395 -767 0
-605 -893 540 0
-321 -603 336 0
676 71 -806 0
391 204 636 0
-835 -744 563 0
20 -364 -180 0
-214 198 962 0
-409 -339 -702 0
395 576 -475 0
991 572 149 0
-706 -789 702 0
851 946 545 0
-840 520 997 0
611 -713 -825 0
995 -113 988 0
-739 489 -46 0
62 -597 343 0
-144 211 -691 0
-54 177 -552 0
-756 -793 -375 0
396 -656 -422 0
380 -876 582 0
-263 -354 265 0
830 484 -579 0
88 -615 96 0
-453 -522 -268 0
-96 291 -639 0
-651 579 -626 0
-903 -970 747 0
-409 266 -193 0
-186 671 709 0
553 -813 -114 0
-574 -668 -935 0
847 787 -962 0
683 345 269 0
-338 801 894 0
413 240 -11 0
620 974 17 0
284 -137 244 0
55 280 -16 0
-765 228 -972 0
-811 497 312 0
581 180 198 0
-708 -283 892 0
161 -57 -6 0
400 128 -124 0
464 2 792 0
-208 167 -945 0
412 615 -104 0
924 -78 -595 0
-278 562 478 0
-419 -414 -310 0
-413 -656 287 0
-683 554 -712 0
575 291 -59 0
790 245 -708 0
-940 -89 -461 0
108 -914 789 0
-346 -796 -637 0
-814 -269 69 0
593 -453 121 0
944 -899 -25 0
-411 -789 431 0
274 953 -849 0
953 848 -44 0
283 320 917 0
-690 893 414 0
-181 -8 307 0
70 873 142 0
-756 487 448 0
585 -499 -605 0
885 607 -204 0
853 421 -76 0
-44 709 -342 0
-116 100 455 0
302 166 629 0
379 -264 -136 0
-567 656 762 0
62 239 662 0
639 -55 -865 0
-775 142 95 0
-219 -526 520 0
-405 964 109 0
294 885 741 0
291 -504 442 0
726 316 377 0
110 -49 488 0
983 -353 -269 0
-637 825 -127 0
314 298 498 0
190 -991 -907 0
235 865 -301 0
-202 555 316 0
-166 984 -460 0
131 29 270 0
842 -508 -353 0
865 -43 -542 0
813 -703 -815 0
703 -216 -382 0
380 -653 -205 0
-827 -647 -943 0
-10 -348 897 0
-348 -545 849 0
-559 656 844 0
982 -467 540 0
-900 -978 -918 0
-283 -806 958 0
-909 -680 55 0
-659 -96 155 0
-437 -340 -368 0
683 -307 -354 0
-389 363 -393 0
-981 303 168 0
787 -133 100 0
487 -153 60 0
985 896 588 0
904 -835 -234 0
400 -613 909 0
-306 302 431 0
80 908 825 0
-168 -447 816 0
616 -957 -961 0
810 976 158 0
-455 778 551 0
735 390 -519 0
-803 696 860 0
-816 27 -734 0
96 313 407 0
648 -21 -128 0
556 217 -419 0
-591 26 -744 0
-485 -438 545 0
-41 849 -416 0
-806 -654 477 0
160 338 -897 0
-837 581 448 0
69 187 567 0
876 655 -429 0
-104 -465 17 0
752 717 -134 0
-915 -257 -352 0
74 516 -709 0
216 -908 -759 0
-32 -658 -152 0
-398 355 -452 0
-704 225 -777 0
211 565 760 0
-888 -310 969 0
624 -574 981 0
544 980 -117 0
908 972 341 0
-223 -404 606 0
416 -44 695 0
40 788 -738 0
614 41 -135 0
-281 -810 971 0
74 998 -204 0
977 355 -243 0
670 -710 -481 0
126 840 819 0
-771 -501 -183 0
-96 437 407 0
-140 -763 697 0
-432 668 -957 0
773 -847 218 0
-899 109 -197 0
-642 -486 783 0
-871 -709 593 0
-589 -824 -372 0
230 -265 317 0
-971 694 -354 0
-581 -691 -809 0
-401 -369 -754 0
216 670 -379 0
-506 734 -682 0
-966 -828 174 0
966 475 -697 0
-419 -19 -869 0
37 82 300 0
-214 -510 -777 0
809 726 845 0
43 -815 -224 0
-801 600 -475 0
323 -396 807 0
-508 -457 977 0
-347 434 -8 0
-434 482 -906 0
-607 474 -590 0
608 755 -943 0
-792 191 186 0
513 138 204 0
668 -883 765 0
-365 476 288 0
59 -591 382 0
-754 447 -300 0
-557 -909 800 0
-317 248 -911 0
-905 979 329 0
-517 502 159 0
-108 848 406 0
800 87 999 0
214 -236 246 0
-785 441 -704 0
-582 -600 13 0
-399 585 326 0
-862 -130 -880 0
757 -611 613 0
266 437 721 0
-432 -92 492 0
-22 -927 -73 0
52 319 -399 0
-255 322 -264 0
272 -687 -133 0
-425 494 709 0
-736 664 461 0
-962 -861 455 0
534 -184 -475 0
-17 -934 -497 0
120 -74 -692 0
438 731 196 0
-571 -813 -216 0
609 -223 828 0
187 972 -355 0
-888 546 -579 0
-630 -879 -809 0
-831 -47 -597 0
-549 716 968 0
522 302 -950 0
-53 438 -822 0
-860 -195 270 0
274 33 -511 0
9 348 -4 0
533 618 8 0
677 443 189 0
915 -875 -626 0
-905 629 -614 0
-632 -2 396 0
389 514 -441 0
576 767 284 0
17 628 -471 0
459 145 762 0
11 -182 -28 0
94 -917 753 0
-704 -270 -268 0
484 139 -695 0
-100 -577 -199 0
-245 -519 -111 0
-476 -585 907 0
616 -959 951 0
-37 725 -58 0
-33 890 -78 0
215 -601 -19 0
-598 388 956 0
447 915 -582 0
32 456 -803 0
-568 -24 741 0
-306 920 315 0
-862 892 725 0
297 -316 193 0
512 -139 853 0
-161 -801 -923 0
798 32 882 0
-460 -258 338 0
-999 -666 -424 0
885 -877 795 0
953 -692 -172 0
-939 -604 -664 0
-674 154 665 0
-838 639 -270 0
364 -164 397 0
-622 -31 333 0
-345 250 447 0
-402 453 -498 0
-373 -443 -625 0
751 31 -902 0
-870 657 -961 0
9 905 -135 0
-785 576 691 0
-153 209 -476 0
700 -807 -572 0
465 -707 -705 0
868 -31 485 0
329 477 492 0
-137 568 -369 0
871 -557 -284 0
21 585 676 0
-69 -490 -957 0
85 -685 262 0
-828 977 370 0
696 -346 478 0
534 -561 334 0
-144 390 -872 0
109 715 517 0
772 -715 330 0
230 -685 111 0
491 -348 -203 0
773 194 570 0
887 437 -16 0
808 -814 424 0
122 -635 -577 0
-649 909 35 0
-974 -65 189 0
919 -313 -359 0
-927 959 599 0
-649 219 -527 0
10 152 -175 0
136 761 314 0
-165 822 -595 0
691 496 125 0
723 -707 -309 0
539 166 413 0
-392 -599 -912 0
-813 321 -683 0
-16 -426 -883 0
404 -501 774 0
867 572 295 0
-466 935 -916 0
-466 -2 -228 0
-736 983 298 0
-209 -25 -275 0
167 46 236 0
46 250 -560 0
-140 -275 -646 0
-720 -319 -375 0
73 71 -86 0
-558 617 72 0
527 954 -459 0
-415 805 -871 0
299 -690 -456 0
883 644 277 0
613 -748 336 0
168 -733 326 0
255 -125 -808 0
-416 -896 -101 0
798 -766 -23 0
-117 599 476 0
668 733 -931 0
790 706 -379 0
-775 -228 670 0
-790 604 863 0
90 -349 252 0
911 -777 -986 0
768 -460 -24 0
539 667 332 0
-987 501 991 0
-792 864 262 0
532 -51 309 0
891 406 268 0
926 423 545 0
-813 -346 -368 0
357 151 -218 0
-553 -597 74 0
-336 -986 248 0
601 -308 482 0
223 458 -237 0
-807 -818 347 0
618 655 -195 0
292 373 813 0
167 -759 -868 0
-153 -53 218 0
-698 409 559 0
-830 -36 -625 0
-171 508 4 0
-975 -232 -271 0
249 344 73 0
-171 721 93 0
-153 -572 222 0
-425 979 74 0
922 -275 -718 0
-301 555 861 0
-569 736 638 0
947 51 -400 0
-857 -153 -662 0
632 -253 -29 0
-837 627 -366 0
994 782 577 0
-819 -941 283 0
-559 -393 45 0
679 -743 -815 0
131 -633 3 0
-499 -165 -358 0
73 -874 683 0
-169 -694 866 0
-591 868 -149 0
224 -620 958 0
888 16 125 0
-549 -708 437 0
249 -53 246 0
-715 -379 -987 0
-331 -701 613 0
-227 918 -134 0
-329 -935 558 0
597 645 -907 0
97 -387 439 0
798 -639 -263 0
622 -670 -232 0
-581 255 821 0
-256 461 -250 0
716 519 754 0
-945 -967 871 0
-217 598 -744 0
-395 -58 379 0
25 842 -291 0
-900 350 -215 0
105 -700 481 0
-792 326 562 0
-437 834 485 0
-702 -454 -569 0
726 -570 439 0
468 439 -125 0
417 797 785 0
-775 -555 -415 0
777 689 -235 0
-909 -620 350 0
579 -850 436 0
544 -99 -790 0
857 479 435 0
-139 470 -862 0
-910 -671 780 0
-390 -116 529 0
476 -698 710 0
-345 397 599 0
-647 -929 715 0
849 171 -892 0
105 -459 -735 0
530 -313 507 0
579 -778 -257 0
279 285 -183 0
-371 755 782 0
-685 912 -267 0
283 199 -376 0
229 681 -63 0
635 -142 -294 0
-38 -933 796 0
-487 -668 499 0
459 -20 377 0
-74 157 -132 0
398 -838 -72 0
173 498 -457 0
-466 -877 248 0
200 556 -867 0
-334 708 -561 0
360 994 -623 0
-814 532 508 0
-697 313 592 0
-79 159 -527 0
611 -216 704 0
-797 -323 895 0
-168 714 -99 0
-365 343 -463 0
650 784 831 0
124 994 503 0
-148 -987 345 0
-256 -135 321 0
