p cnf 1000 3500
970 51 -809 0
643 -585 753 0
-727 899 -746 0
801 480 657 0
259 778 266 0
-453 -305 -390 0
-633 169 725 0
680 365 -631 0
-98 -376 897 0
-217 -405 44 0
-63 997 679 0
784 -742 165 0
143 411 793 0
-452 239 14 0
18 -19 298 0
998 -120 88 0
-435 -32 442 0
636 747 -814 0
528 -532 726 0
-728 -689 322 0
-662 -333 501 0
491 -590 -538 0
996 398 -344 0
192 -989 -630 0
-383 688 389 0
127 510 150 0
19 218 190 0
-597 39 -921 0
496 -357 -467 0
-527 690 416 0
204 -747 650 0
320 699 836 0
-436 -805 -208 0
-181 144 836 0
44 -462 -948 0
-69 -329 -925 0
-200 272 916 0
-49 -817 -703 0
609 -357 725 0
-65 89 -555 0
-557 -97 573 0
-878 673 452 0
307 -557 -245 0
-796 138 745 0
620 139 -230 0
226 299 -809 0
-580 -704 822 0
563 -263 -792 0
-140 -330 -34 0
23 -9 -90 0
504 -549 -4 0
34 769 440 0
405 -554 842 0
-798 300 -755 0
896 -84 -971 0
-622 -531 959 0
-858 -563 -503 0
357 531 -677 0
-62 267 -320 0
671 501 588 0
158 635 -5 0
445 -32 682 0
66 -166 -414 0
494 870 970 0
918 547 584 0
619 569 -810 0
-814 426 -894 0
-240 750 -684 0
-173 360 165 0
-971 -560 -245 0
-789 -127 -4 0
-753 -878 -546 0
242 -635 713 0
240 -975 784 0
-412 -981 910 0
161 -682 -442 0
662 -309 -298 0
-415 -251 176 0
-398 378 -137 0
375 884 -578 0
270 878 -26 0
39 805 -502 0
539 -932 73 0
832 37 423 0
-844 627 390 0
-124 555 959 0
112 763 -369 0
-531 906 787 0
-71 676 -451 0
-385 -362 -936 0
768 -306 974 0
-307 835 628 0
980 -129 -822 0
-7 748 697 0
152 -771 496 0
73 -709 529 0
-992 -870 408 0
527 -825 -939 0
-24 972 -117 0
-773 -339 -368 0
21 -960 765 0
332 616 20 0
273 365 -335 0
-454 286 58 0
572 -90 66 0
-782 -497 107 0
-690 762 997 0
-539 -428 -306 0
-27 -828 -662 0
-74 -627 -860 0
-290 763 -607 0
-278 -447 745 0
600 -834 377 0
342 -678 824 0
821 -335 -994 0
601 -432 -328 0
-101 -964 -106 0
257 -389 648 0
-3 -867 -906 0
198 -938 521 0
-961 271 -876 0
-244 -4 91 0
-696 -785 35 0
277 343 -187 0
-3 -745 912 0
-6 -460 -801 0
422 512 -5 0
-954 103 386 0
25 430 -800 0
406 55 -468 0
498 938 868 0
-841 -124 -879 0
-554 -174 575 0
-445 -944 -55 0
-119 142 329 0
370 -287 -926 0
-121 933 -996 0
-546 584 964 0
-749 523 394 0
54 -107 251 0
-634 -204 -754 0
-606 619 760 0
228 211 -132 0
738 -376 -644 0
123 -426 -531 0
-69 105 -212 0
553 -228 479 0
-460 -493 -161 0
-389 -977 996 0
161 -794 -559 0
-238 -290 512 0
-856 519 -141 0
862 387 385 0
-515 -242 -288 0
-417 -744 -641 0
305 -122 647 0
39 696 441 0
46 838 536 0
-358 862 78 0
-835 -380 -445 0
701 -966 -493 0
393 5 475 0
-168 -614 -591 0
484 -976 452 0
-64 840 -857 0
327 413 7 0
-133 -316 -958 0
-402 865 -641 0
-562 -342 -280 0
-161 -598 93 0
356 922 675 0
471 -865 -656 0
-134 -115 -966 0
621 307 -513 0
779 991 645 0
639 288 526 0
-26 -700 -344 0
953 615 137 0
104 -237 11 0
268 -326 337 0
-47 246 -229 0
191 357 -598 0
-559 -185 -910 0
402 -330 -219 0
-588 402 665 0
241 -163 -83 0
-224 -959 161 0
-12 -121 -268 0
774 -608 902 0
860 -22 872 0
-104 571 23 0
486 332 477 0
-963 -207 727 0
-656 744 856 0
-521 -193 -942 0
-196 -15 349 0
-512 -462 -200 0
-408 -469 -312 0
-615 -188 819 0
-736 851 -73 0
789 809 877 0
-500 -535 946 0
358 678 -571 0
427 -253 245 0
-12 -451 942 0
526 587 -975 0
525 757 190 0
622 -133 403 0
-204 -684 609 0
-837 -608 364 0
957 900 743 0
631 -463 88 0
-949 -698 152 0
-294 620 184 0
643 -454 362 0
127 -989 769 0
348 896 985 0
981 -749 25 0
-70 -875 -920 0
241 -75 733 0
-90 -289 -876 0
484 30 -406 0
474 981 -402 0
-284 -653 -898 0
997 326 748 0
447 -14 169 0
-261 -455 -178 0
150 646 660 0
736 -551 -927 0
-758 -261 -680 0
11 -840 -473 0
-732 145 958 0
-910 585 -183 0
-65 -748 913 0
-24 -674 -384 0
140 -106 459 0
245 -488 -806 0
616 -338 -976 0
422 -941 -385 0
-427 989 -349 0
252 -950 -446 0
-201 638 -27 0
220 748 -741 0
-767 484 997 0
739 -42 -625 0
-339 -512 781 0
436 -588 -938 0
-543 821 995 0
355 989 -947 0
-518 497 734 0
-855 863 -115 0
991 -818 198 0
-106 -884 890 0
844 -919 364 0
-255 -548 866 0
213 122 -879 0
-53 -274 189 0
935 -349 -970 0
254 -821 546 0
199 -606 -273 0
495 -300 -559 0
228 -19 -233 0
-264 -647 -438 0
872 -244 -572 0
350 266 835 0
161 10 798 0
-109 411 513 0
-442 127 335 0
-410 762 501 0
241 742 -636 0
309 408 -723 0
-26 -506 -199 0
239 -556 696 0
-766 -689 -216 0
150 569 -797 0
836 574 473 0
117 -546 579 0
613 997 203 0
514 650 -23 0
-334 542 -354 0
-710 -99 -589 0
628 475 114 0
-547 -111 -758 0
-438 338 915 0
-132 -840 964 0
40 -873 43 0
477 719 -68 0
874 -583 -412 0
969 -696 -924 0
-601 431 -508 0
491 -540 -522 0
844 -705 -730 0
3 -914 296 0
-646 828 -51 0
672 -304 724 0
-262 -771 -484 0
-631 -921 -439 0
639 269 -3 0
207 -471 -900 0
-397 -542 -61 0
228 -343 990 0
-258 530 762 0
745 -889 -958 0
-488 -921 685 0
-627 -447 -9 0
121 -454 -253 0
387 508 -889 0
665 312 559 0
-218 -251 -71 0
320 -577 772 0
-283 33 -103 0
320 -976 -473 0
-852 -469 709 0
210 -703 597 0
254 -415 3 0
-216 -264 946 0
-978 383 -680 0
783 261 600 0
39 -918 -724 0
989 -807 -171 0
-166 287 -173 0
881 -662 61 0
794 801 349 0
-784 961 568 0
343 -748 -106 0
-654 -493 -462 0
-990 920 57 0
858 -665 -467 0
766 -963 -76 0
-475 -910 978 0
-121 582 598 0
-953 630 675 0
105 -914 -141 0
-876 709 -376 0
867 96 -299 0
-784 56 432 0
155 594 445 0
-165 353 -859 0
291 -407 663 0
594 566 -242 0
400 -242 -102 0
247 -858 -827 0
-541 482 312 0
-623 10 225 0
-895 834 -696 0
705 -155 474 0
-575 654 -733 0
779 -261 445 0
545 86 -779 0
35 751 -893 0
-473 8 265 0
830 917 828 0
357 -228 -958 0
469 12 -14 0
-732 538 587 0
-889 -711 302 0
662 841 -583 0
928 318 846 0
-281 -176 -973 0
-623 600 878 0
-659 496 -770 0
497 277 168 0
-212 299 306 0
973 417 -816 0
-622 575 -88 0
235 -994 -186 0
249 77 -606 0
-811 -551 -389 0
-161 399 -76 0
-165 336 817 0
798 378 -97 0
509 120 320 0
-790 -34 -458 0
-424 -513 728 0
-862 645 210 0
356 -605 633 0
-810 772 847 0
701 -501 795 0
199 20 149 0
-617 833 -791 0
-445 -860 722 0
583 342 920 0
429 249 23 0
499 -57 750 0
965 611 -520 0
-456 945 478 0
526 796 904 0
859 700 -627 0
-733 -532 -158 0
-257 -735 -772 0
379 530 -475 0
-227 837 -461 0
-552 695 -506 0
343 298 44 0
-762 -122 846 0
-891 956 824 0
-506 -219 -659 0
112 75 321 0
-971 -256 -339 0
-376 859 974 0
-401 -57 478 0
-164 182 894 0
-296 -403 -960 0
-150 434 259 0
-263 -120 -12 0
407 -429 -15 0
298 61 456 0
-811 -421 274 0
-928 -69 -309 0
823 -125 -998 0
-192 323 -139 0
-140 705 368 0
510 -340 -882 0
613 -778 -605 0
935 -322 280 0
509 -542 55 0
157 -845 630 0
196 672 1 0
-111 -600 -999 0
360 6 443 0
-73 -38 52 0
497 168 -472 0
-711 -339 59 0
-861 -644 62 0
618 564 -50 0
328 -84 -114 0
-74 637 -880 0
-92 -945 772 0
-56 -770 18 0
-380 -621 876 0
468 -996 985 0
613 -671 400 0
105 575 -833 0
986 -505 -255 0
923 939 147 0
135 596 -521 0
-895 -418 522 0
940 651 556 0
378 -452 -371 0
803 -777 922 0
-24 -302 214 0
543 851 813 0
457 -47 756 0
703 -866 -648 0
346 -671 555 0
412 540 863 0
261 73 204 0
588 96 -65 0
962 -738 -648 0
-727 376 -740 0
-876 -9 -804 0
735 343 7 0
-289 175 155 0
-337 78 854 0
833 905 -491 0
755 523 -438 0
-215 -810 451 0
-82 -57 650 0
-132 -713 -876 0
236 796 272 0
573 -402 -492 0
632 62 817 0
251 483 -527 0
-910 632 287 0
511 -163 -918 0
-573 -854 -76 0
-14 150 -237 0
175 -46 -568 0
-770 -371 425 0
-757 610 -597 0
-275 -822 -874 0
-268 730 596 0
212 -307 640 0
-574 -603 207 0
-74 -746 -658 0
-43 463 552 0
-746 493 -359 0
187 -652 -829 0
-166 58 111 0
-966 584 331 0
-234 319 -552 0
859 79 346 0
-982 -886 -32 0
-500 545 -564 0
547 994 -389 0
-67 -253 -881 0
619 -875 342 0
586 237 160 0
-897 -619 -543 0
-331 80 484 0
226 225 180 0
-731 883 -564 0
-348 543 256 0
255 -146 -702 0
687 61 970 0
-955 -925 516 0
244 790 582 0
646 391 621 0
-544 -240 480 0
-648 -453 -189 0
-563 729 388 0
-158 756 418 0
-438 506 -397 0
118 -842 -591 0
-459 -33 -255 0
-178 -181 -807 0
-720 729 363 0
-930 -749 -194 0
-291 -24 75 0
-124 888 -763 0
873 656 355 0
-453 -882 188 0
-762 337 426 0
-618 553 -591 0
293 -203 384 0
416 989 -883 0
189 607 658 0
903 -402 -897 0
824 55 -318 0
-785 -945 670 0
592 -663 -565 0
10 -725 -527 0
517 -6 378 0
-579 793 742 0
5 752 -746 0
319 59 62 0
751 700 -375 0
113 -138 -241 0
-704 -813 -537 0
-845 937 315 0
877 593 -996 0
-460 -874 -106 0
-273 467 -707 0
795 30 900 0
173 472 133 0
817 -149 871 0
-108 12 693 0
907 -178 46 0
990 567 -547 0
852 -346 -536 0
-260 589 870 0
-678 716 -116 0
830 540 -518 0
-399 -14 -598 0
669 -296 -198 0
323 -811 -335 0
287 -46 -214 0
999 598 -118 0
61 -473 -627 0
-32 -8 -771 0
451 -80 973 0
289 -180 215 0
974 80 86 0
-541 -513 849 0
-477 693 -624 0
-939 -407 -653 0
-138 -374 32 0
-874 -576 -151 0
-222 -439 -9 0
-523 -214 176 0
420 -958 -869 0
-444 912 923 0
-256 -888 374 0
-330 131 338 0
-544 443 808 0
-684 -560 -318 0
548 -939 740 0
-657 -76 -324 0
560 640 685 0
-485 -526 808 0
-848 950 -660 0
-248 -485 675 0
-127 -692 413 0
659 316 -975 0
-308 -876 393 0
131 -54 -847 0
-950 288 -226 0
627 -124 350 0
-892 -602 508 0
193 580 520 0
449 -608 -463 0
826 652 -852 0
-596 -457 688 0
449 -998 -520 0
672 548 -361 0
-40 -78 -952 0
-741 615 -816 0
-892 801 -547 0
-904 788 -361 0
621 3 36 0
683 509 595 0
283 -340 484 0
-410 -866 208 0
27 -549 188 0
-956 572 -409 0
-30 -492 609 0
-595 249 -333 0
609 -579 -116 0
208 893 -681 0
-273 -645 305 0
-506 -949 112 0
578 -201 725 0
-953 -456 -173 0
-878 515 -433 0
-646 -478 724 0
788 188 678 0
-432 -197 -166 0
94 336 -420 0
-693 -943 390 0
-750 -867 439 0
-734 -792 184 0
-70 666 54 0
-23 350 684 0
-190 460 -576 0
-201 803 535 0
-885 420 -163 0
-187 -750 204 0
991 -61 -63 0
908 994 260 0
320 -647 -140 0
714 350 -421 0
927 -839 90 0
-779 575 454 0
453 -245 -759 0
-303 -978 -740 0
-251 205 216 0
-838 949 291 0
-550 -564 117 0
221 284 976 0
606 127 -670 0
-710 -290 -933 0
692 515 -725 0
580 753 395 0
-713 276 599 0
-637 694 745 0
-626 224 199 0
-191 827 -688 0
-970 -578 -934 0
83 -687 -909 0
840 141 28 0
921 771 254 0
827 690 -174 0
-851 -280 -783 0
-451 45 191 0
-915 -52 -135 0
-322 -45 685 0
-726 -138 -930 0
404 -25 104 0
632 -842 832 0
91 941 -382 0
-159 217 358 0
-488 525 -376 0
-579 -720 -707 0
-698 157 314 0
161 85 -328 0
6 -290 -618 0
-246 137 646 0
-521 -69 -860 0
245 924 554 0
-882 191 360 0
-970 496 -262 0
601 540 -181 0
910 -762 548 0
141 146 -977 0
-245 -914 961 0
642 387 -572 0
587 605 -66 0
-602 360 208 0
-775 28 -906 0
157 -777 -425 0
-156 803 -241 0
-596 -362 -479 0
312 522 -506 0
-193 -539 192 0
421 -339 875 0
98 -99 -738 0
944 -53 541 0
313 744 -555 0
138 11 990 0
551 -363 -322 0
-800 854 -424 0
354 -863 760 0
561 -782 41 0
3 -832 -86 0
-160 -871 -967 0
965 -629 372 0
829 -720 -496 0
252 -465 114 0
472 -390 -751 0
321 692 502 0
-390 -652 805 0
298 -127 -735 0
463 999 192 0
817 -803 665 0
993 -263 -539 0
-171 681 262 0
496 -521 -975 0
913 590 -125 0
-266 801 158 0
727 -251 -3 0
565 166 670 0
-540 -294 -341 0
974 451 762 0
-652 -425 -438 0
-939 -391 156 0
56 822 73 0
-803 886 684 0
639 588 915 0
-913 332 -534 0
477 -54 478 0
621 177 -505 0
544 210 -36 0
-345 747 -178 0
-128 -362 -309 0
-503 -363 -626 0
953 210 185 0
-230 -874 -364 0
-32 699 843 0
-598 168 65 0
-939 316 -553 0
-223 -3 640 0
-593 -333 -932 0
-474 312 -944 0
590 -746 816 0
641 223 -51 0
-390 -821 137 0
-573 191 -892 0
205 455 42 0
418 829 -405 0
897 -545 -266 0
397 624 540 0
-823 21 -841 0
-73 814 896 0
833 -988 -8 0
213 -953 -478 0
-139 894 -377 0
-275 -140 621 0
373 202 -578 0
591 -157 -114 0
317 215 -339 0
-459 -263 -144 0
183 449 83 0
-434 -838 736 0
289 233 -970 0
-958 739 -88 0
295 -569 -85 0
-203 526 661 0
-412 -178 -368 0
-461 93 94 0
62 -389 -313 0
78 -825 713 0
-869 -892 115 0
-818 -935 165 0
692 169 971 0
428 385 -730 0
-13 967 -350 0
426 747 26 0
-169 634 200 0
874 23 -956 0
-99 -685 -890 0
340 -233 -13 0
284 173 -381 0
864 713 397 0
-513 -88 -866 0
-135 -790 687 0
788 308 -407 0
-23 -561 250 0
-836 -494 -647 0
574 314 -911 0
-244 400 580 0
-95 -685 97 0
-89 -817 485 0
-659 -645 615 0
130 -550 248 0
53 98 -850 0
965 -599 59 0
-700 -577 543 0
-682 -768 -207 0
-414 991 508 0
281 -803 -666 0
-153 853 -192 0
-14 267 -941 0
-966 45 -570 0
109 138 64 0
559 -57 901 0
-611 368 -204 0
-141 -161 -209 0
-411 -462 -824 0
-435 -313 -226 0
439 576 -724 0
-968 -690 -966 0
-862 684 -755 0
108 -443 -445 0
-63 -193 467 0
-590 771 848 0
160 195 798 0
-766 631 368 0
-960 965 253 0
-735 365 -915 0
997 994 191 0
-682 609 957 0
-915 661 -225 0
987 172 772 0
-756 -414 -79 0
870 -470 -174 0
569 559 663 0
-196 297 466 0
-498 -416 27 0
-80 -411 160 0
-722 796 947 0
160 -590 843 0
508 -653 -714 0
-829 736 412 0
456 -319 39 0
-492 -988 -203 0
554 280 -423 0
-368 -657 -11 0
944 -193 -141 0
762 -548 252 0
58 48 132 0
129 907 842 0
799 -104 434 0
661 819 -341 0
-841 192 945 0
100 140 -50 0
893 342 -349 0
-179 387 393 0
-974 -560 -590 0
-4 -62 990 0
-932 675 -53 0
237 -701 349 0
859 -374 -531 0
210 903 -244 0
-809 -478 -616 0
-27 -431 635 0
-380 655 -260 0
-463 -25 -930 0
347 -524 78 0
460 243 -887 0
805 593 674 0
-774 905 -833 0
965 575 785 0
780 62 -967 0
837 -156 488 0
-625 -426 471 0
889 473 -681 0
-504 813 -357 0
-917 -563 -947 0
675 -990 -588 0
804 96 -981 0
460 -635 767 0
-401 156 -909 0
865 -672 -242 0
-944 98 287 0
-344 -133 -545 0
-688 997 -619 0
225 -790 229 0
51 34 779 0
662 366 96 0
-704 49 -404 0
-159 -379 -128 0
-701 652 -762 0
75 653 889 0
-651 -130 753 0
263 254 840 0
-38 -800 577 0
268 -801 98 0
-150 -769 59 0
-534 -852 839 0
-263 181 522 0
-739 -813 211 0
-990 -207 -276 0
152 987 -39 0
-72 -309 455 0
-990 844 -305 0
993 621 -606 0
4 -588 273 0
-437 -912 931 0
-923 5 -780 0
602 507 240 0
617 976 809 0
-724 760 -655 0
507 -959 -85 0
-257 -165 423 0
893 452 -774 0
-570 381 379 0
469 256 -713 0
391 236 -949 0
354 334 -687 0
471 632 859 0
-812 -940 -544 0
865 -730 111 0
-108 72 -899 0
334 550 291 0
638 -565 741 0
-843 -430 527 0
-843 170 871 0
-280 658 -918 0
-964 -769 310 0
851 374 -730 0
481 191 194 0
728 302 -517 0
-366 921 -694 0
-145 -823 -886 0
-72 -521 668 0
315 601 496 0
203 -909 -437 0
-522 -218 539 0
905 -286 435 0
-664 -957 -626 0
-94 -901 -896 0
-763 -371 -501 0
926 752 855 0
274 -675 589 0
400 916 -147 0
-620 -935 754 0
503 -481 -971 0
799 835 -852 0
914 -97 -253 0
16 329 517 0
505 371 -351 0
181 286 325 0
873 -983 -737 0
-599 -291 -25 0
679 671 846 0
877 -547 339 0
-782 667 -958 0
-189 637 -922 0
-658 967 317 0
-606 -814 -548 0
-61 -516 700 0
383 170 -85 0
36 -598 -39 0
196 -500 -708 0
420 688 324 0
-993 337 -398 0
-25 -427 269 0
-607 -422 -913 0
306 607 -263 0
-258 -107 -663 0
-594 768 493 0
888 -593 -577 0
694 46 649 0
144 694 375 0
245 -839 262 0
699 -376 756 0
-586 869 724 0
-301 278 819 0
-230 -246 -286 0
-489 -421 -338 0
-340 131 -188 0
-578 -664 869 0
519 -104 -501 0
-145 -219 -659 0
-223 -403 478 0
637 -656 -399 0
-963 -682 -519 0
720 -377 240 0
214 -438 210 0
-582 -215 -540 0
-404 928 -155 0
446 -641 429 0
-577 692 223 0
-973 -57 -314 0
41 607 -504 0
427 -922 -100 0
-450 389 678 0
-719 -762 495 0
872 -656 -598 0
-825 -328 356 0
619 80 -497 0
314 674 -658 0
955 -973 94 0
-550 355 -643 0
-284 -4 -425 0
231 -15 -924 0
240 82 782 0
624 -628 598 0
-693 -249 -742 0
-169 870 788 0
471 478 -255 0
819 681 -686 0
-789 802 -664 0
873 -857 -329 0
-301 -706 -323 0
179 -651 400 0
-841 35 438 0
156 -153 609 0
554 -36 560 0
-341 676 -105 0
-49 904 124 0
399 -287 219 0
317 -756 260 0
-914 -579 966 0
711 944 840 0
-802 -767 -430 0
705 -267 8 0
-130 -748 13 0
994 -390 700 0
214 -292 -73 0
-254 -731 572 0
33 958 611 0
-65 948 -166 0
-563 36 259 0
8 -368 -576 0
411 -342 840 0
-454 308 -547 0
847 -203 407 0
152 -664 -854 0
-280 -638 46 0
278 -147 179 0
-925 942 -565 0
-135 398 263 0
95 721 -845 0
834 385 87 0
-85 446 -582 0
-240 -110 -658 0
-345 -6 -862 0
-144 -729 894 0
680 990 -742 0
399 -195 534 0
-255 -269 -299 0
349 162 -961 0
185 -39 -61 0
481 -959 -610 0
-993 891 369 0
616 947 -334 0
-78 -883 354 0
62 334 147 0
752 577 145 0
42 297 466 0
-734 513 52 0
577 -465 226 0
-308 511 904 0
-935 -513 -81 0
110 -298 680 0
763 191 -36 0
929 -849 -888 0
-764 -28 -742 0
-292 604 -854 0
-592 -639 735 0
616 -891 -856 0
421 -16 126 0
-746 -884 892 0
-400 -169 -418 0
-479 830 -50 0
-903 514 861 0
341 514 -887 0
-281 -79 -839 0
365 -738 -390 0
213 -311 -16 0
633 172 -93 0
-485 887 83 0
975 -807 -262 0
-836 -867 802 0
930 -314 769 0
-538 -102 -54 0
-996 -324 74 0
539 14 -10 0
-919 -260 -812 0
-230 -368 441 0
-377 -10 -321 0
-190 -813 -677 0
-769 -958 926 0
982 -642 -305 0
-788 292 21 0
998 -303 899 0
242 25 -844 0
-802 436 450 0
556 707 -523 0
-130 -375 461 0
46 -588 -370 0
184 422 -511 0
-829 181 -975 0
387 -609 177 0
589 -652 -650 0
-889 -607 -451 0
-754 950 325 0
-85 208 -211 0
61 198 262 0
-834 449 49 0
-310 -378 236 0
-625 335 14 0
-47 -326 836 0
-413 -617 -70 0
221 -907 497 0
-621 -241 -115 0
-287 342 -594 0
826 -92 929 0
-871 -58 279 0
884 738 -382 0
736 -169 -494 0
-880 332 -852 0
-817 897 101 0
-779 -12 997 0
-390 480 432 0
64 90 -478 0
423 422 366 0
931 80 -680 0
-447 408 -392 0
914 515 -900 0
-436 -924 312 0
444 -953 -882 0
905 503 -677 0
-137 758 -568 0
-165 572 898 0
388 -8 42 0
867 683 275 0
502 -581 -349 0
701 -247 -965 0
934 -440 203 0
-84 698 493 0
525 -725 -617 0
-324 376 -914 0
608 270 401 0
303 -187 154 0
144 475 -987 0
320 -154 -660 0
212 517 -775 0
-288 -529 319 0
-901 932 515 0
952 -999 523 0
-42 880 -356 0
516 187 730 0
-773 723 544 0
-622 908 -504 0
760 350 -598 0
-476 370 -8 0
980 -498 -987 0
943 626 -760 0
28 642 -697 0
450 -858 -740 0
449 -378 178 0
-905 -491 795 0
599 51 753 0
-4 706 801 0
-892 524 820 0
-403 168 -117 0
-160 967 -848 0
666 -587 -894 0
-28 382 156 0
396 192 63 0
903 -530 551 0
-91 -598 -71 0
771 -314 -284 0
-68 696 -255 0
-895 -281 16 0
-964 256 801 0
-574 -504 339 0
197 787 -781 0
-857 784 -960 0
764 -240 -921 0
-443 219 -941 0
937 120 67 0
-376 807 952 0
-125 -310 924 0
-41 -474 -404 0
-578 441 -268 0
-354 836 215 0
547 -12 527 0
-936 -209 -118 0
983 -472 515 0
-474 -290 330 0
-397 174 193 0
569 -365 39 0
-648 -766 267 0
168 533 -551 0
483 285 4 0
250 606 392 0
-634 870 124 0
-247 138 306 0
-256 451 669 0
217 -668 -482 0
382 814 494 0
-522 805 -84 0
-638 -518 -324 0
-630 -723 483 0
137 -66 853 0
891 246 475 0
282 -629 -964 0
-867 -19 93 0
517 -619 -769 0
-856 677 -905 0
938 445 468 0
-10 852 -985 0
-148 918 992 0
698 75 -373 0
-898 -36 -490 0
868 -104 6 0
-315 -733 50 0
168 588 -729 0
-291 670 667 0
486 -203 -528 0
-94 -34 -427 0
359 318 -72 0
-941 -956 -61 0
-8 417 186 0
202 835 -398 0
428 -73 -864 0
967 -758 -839 0
440 -415 -894 0
262 -105 787 0
711 -819 367 0
-904 -817 987 0
-272 116 237 0
639 -322 -59 0
-986 -828 599 0
-644 535 2 0
274 -568 137 0
-825 955 243 0
-548 -26 -539 0
-987 -988 440 0
-213 -144 -378 0
-32 872 785 0
-372 889 766 0
-829 661 -603 0
-510 -731 838 0
966 -598 720 0
97 -799 59 0
-11 539 -886 0
420 -677 -703 0
403 232 109 0
189 754 760 0
440 -104 -150 0
826 52 101 0
-561 761 -403 0
514 470 853 0
151 593 -820 0
825 -323 -542 0
-694 -202 793 0
580 859 843 0
179 -484 250 0
743 123 -895 0
78 -538 861 0
-371 368 957 0
-105 731 789 0
908 32 345 0
992 755 -632 0
750 123 146 0
829 163 91 0
-588 -548 829 0
-473 668 812 0
-318 890 -298 0
-669 985 -796 0
439 550 -843 0
207 994 750 0
-133 330 -117 0
-306 677 -351 0
201 -367 448 0
632 8 461 0
39 -64 -990 0
471 785 117 0
-976 -607 332 0
-540 191 400 0
359 491 -160 0
-554 -320 938 0
86 -320 -604 0
-944 813 925 0
-689 166 -268 0
756 -8 858 0
958 -328 258 0
-886 -870 -200 0
643 -706 655 0
-850 289 669 0
216 145 638 0
405 -345 919 0
202 -983 669 0
-749 -640 633 0
787 -783 559 0
-109 -257 -115 0
-113 -357 -316 0
135 -820 -517 0
-220 -53 -855 0
147 -901 -236 0
-447 472 -474 0
971 342 -709 0
-774 977 -359 0
763 -799 601 0
-344 -805 108 0
812 469 -608 0
163 977 512 0
367 -517 541 0
-365 -45 202 0
-409 -193 855 0
-704 791 -526 0
772 484 518 0
-8 -668 -895 0
-512 -282 -162 0
511 66 669 0
519 752 -773 0
107 -720 -177 0
375 -771 -98 0
-988 42 -214 0
-185 -3 802 0
659 698 884 0
143 -356 99 0
-872 876 256 0
-937 -116 -109 0
-985 -556 -694 0
-773 538 379 0
308 245 -451 0
802 -372 123 0
-799 -85 655 0
52 972 971 0
730 -243 949 0
333 -77 -940 0
-341 487 -602 0
385 -381 102 0
-704 -590 -859 0
-281 600 128 0
-462 361 -847 0
163 -302 -344 0
411 -273 771 0
-962 -267 -836 0
893 133 -561 0
-282 626 -708 0
573 -255 570 0
337 -897 899 0
-356 -717 318 0
-420 -48 -469 0
249 -492 783 0
785 61 -542 0
11 258 -54 0
470 198 -175 0
-494 626 -340 0
911 -837 368 0
-758 632 -61 0
-768 793 -307 0
-551 554 686 0
-431 -312 -149 0
-776 385 -173 0
-529 -774 -435 0
-383 779 -49 0
-418 -74 -902 0
922 -689 49 0
-508 -760 750 0
-423 -648 426 0
336 797 -13 0
-339 -170 -490 0
293 -555 -269 0
611 -996 61 0
17 -466 -18 0
729 -467 929 0
-456 -899 -212 0
-661 100 -530 0
-9 -878 181 0
583 -788 -828 0
-95 -319 26 0
896 -482 672 0
373 -771 494 0
-726 483 362 0
868 -264 -116 0
553 -256 -465 0
649 456 -310 0
424 695 399 0
301 -437 116 0
816 -424 -923 0
-47 151 300 0
-326 -327 -240 0
813 -324 800 0
342 330 148 0
-204 -907 -598 0
197 -538 -649 0
-724 381 -129 0
-445 -623 -757 0
598 -825 851 0
-403 620 -294 0
-407 219 231 0
101 -713 -345 0
782 781 -301 0
-318 529 107 0
715 98 -630 0
-247 847 679 0
-994 -695 -675 0
-487 -959 426 0
764 356 -436 0
744 559 -781 0
29 83 -511 0
219 -11 -874 0
651 336 -128 0
613 -33 773 0
96 -404 129 0
-607 346 -671 0
-456 459 -662 0
70 -795 999 0
-915 623 717 0
-163 238 536 0
364 632 -268 0
-327 829 -252 0
-301 -985 -572 0
-729 -979 -936 0
109 -793 927 0
19 863 -713 0
-660 -879 -277 0
28 -6 -283 0
-545 434 -301 0
191 -279 613 0
761 -142 -447 0
-334 660 56 0
321 -192 925 0
-786 -819 -560 0
-334 879 -829 0
-339 551 213 0
793 493 -578 0
127 -33 833 0
114 282 989 0
-766 -160 777 0
350 918 -657 0
-128 604 -771 0
-97 287 -346 0
-604 636 -140 0
-780 951 -422 0
776 -875 -821 0
-452 877 -139 0
379 -401 65 0
309 866 402 0
-253 -13 -393 0
-495 237 -938 0
651 -672 351 0
373 632 -22 0
-140 949 -875 0
-115 757 399 0
-766 36 -397 0
77 87 574 0
440 560 218 0
183 -958 -205 0
-479 249 -303 0
-334 -933 -335 0
-267 -798 -623 0
28 566 999 0
-868 370 -171 0
-288 -802 505 0
918 805 347 0
347 -132 -299 0
545 812 -654 0
-406 -219 -299 0
423 199 -503 0
-254 -944 -688 0
961 476 319 0
554 -508 -412 0
562 -710 -127 0
354 222 867 0
-683 962 -462 0
866 -251 -728 0
-803 -631 -331 0
-616 292 885 0
615 721 310 0
178 -866 976 0
12 560 -769 0
-828 196 539 0
97 -280 -339 0
418 -114 -335 0
220 -865 247 0
-480 590 -224 0
-347 885 916 0
817 167 840 0
75 603 -335 0
142 -570 860 0
966 106 -10 0
377 -374 -539 0
129 457 25 0
-167 545 344 0
-380 -794 -526 0
530 101 -359 0
877 -472 -694 0
-783 -26 -222 0
929 274 507 0
276 -738 14 0
-544 183 919 0
-837 -471 271 0
-313 -668 -84 0
-512 652 819 0
-991 997 -675 0
426 479 637 0
679 -996 -371 0
-140 663 -841 0
-169 813 769 0
388 -689 -319 0
-218 -378 492 0
716 218 62 0
539 -935 -593 0
945 495 141 0
893 -688 95 0
290 678 894 0
350 924 373 0
-519 -607 -441 0
-69 -800 422 0
-351 -983 748 0
-709 158 -874 0
218 753 743 0
850 -484 -190 0
-847 -239 -87 0
-61 877 99 0
-697 -603 736 0
-171 776 -573 0
404 -900 134 0
884 -773 -146 0
-596 766 -174 0
-651 119 -314 0
-740 -596 -11 0
-479 684 829 0
78 257 -217 0
-575 853 837 0
989 -884 555 0
828 928 391 0
-501 427 -448 0
156 691 267 0
-992 -64 -676 0
-425 231 429 0
244 -18 -743 0
318 -208 728 0
589 -690 217 0
-331 198 -850 0
389 228 518 0
948 -403 -16 0
40 -296 -575 0
-958 207 593 0
-348 -277 -762 0
-87 -574 666 0
-960 455 528 0
-677 758 -755 0
786 449 -130 0
-617 -809 630 0
139 -521 -648 0
590 -446 839 0
-822 -683 494 0
804 370 664 0
954 -376 -334 0
-455 -227 -161 0
-163 377 145 0
53 437 -441 0
940 -75 -712 0
-999 -314 942 0
-323 727 -100 0
-755 -186 -857 0
-784 -276 -259 0
653 298 746 0
-746 -867 530 0
654 -426 -174 0
-649 106 984 0
181 -434 321 0
282 -712 -543 0
932 16 505 0
960 948 781 0
-300 735 -279 0
793 999 -591 0
-780 243 816 0
-261 -518 54 0
-787 -179 -643 0
454 -916 -948 0
805 926 -20 0
-744 -825 987 0
514 852 -967 0
-501 -643 777 0
-836 532 -875 0
329 471 -887 0
339 -396 -668 0
-527 -819 -287 0
-86 -984 778 0
-846 81 956 0
-61 -467 -382 0
-546 268 239 0
-98 76 16 0
884 -172 479 0
-914 -814 -388 0
992 785 259 0
820 813 484 0
609 -633 -196 0
332 -550 29 0
-981 -235 296 0
280 -943 -957 0
69 348 591 0
701 204 543 0
395 -642 -833 0
667 226 -581 0
-250 79 -891 0
-610 180 869 0
-877 -80 -934 0
964 1 366 0
-429 -544 607 0
728 57 -566 0
-993 -1000 879 0
466 986 -186 0
-179 484 -643 0
-1000 -481 270 0
384 787 235 0
-397 730 -227 0
-874 -841 -296 0
-742 -654 -153 0
-331 -992 539 0
378 -129 656 0
-250 522 72 0
981 290 -500 0
804 -680 103 0
902 213 -566 0
665 -924 -153 0
197 673 -834 0
-518 -517 460 0
-874 100 -969 0
230 -815 -896 0
-969 166 240 0
-285 903 -520 0
609 -385 -372 0
735 -184 855 0
776 -319 -175 0
-492 178 -728 0
955 -854 -878 0
-68 206 302 0
-556 -813 979 0
-72 800 870 0
383 -426 168 0
-976 962 314 0
-815 356 304 0
-161 -536 676 0
-675 956 514 0
-616 -846 636 0
727 854 -625 0
292 753 525 0
-256 727 658 0
85 128 -289 0
-985 98 -762 0
746 -96 -316 0
245 902 -996 0
367 -631 715 0
-884 -506 56 0
986 -872 -391 0
633 -611 -114 0
730 -252 -615 0
-812 -164 630 0
329 -50 275 0
572 -484 -369 0
664 -194 -562 0
-327 -428 -630 0
740 328 -388 0
-45 44 569 0
-742 -957 559 0
-958 -574 756 0
-411 117 761 0
666 398 -87 0
-181 -788 -130 0
-521 363 394 0
379 -882 38 0
359 -737 -925 0
822 136 792 0
-778 303 504 0
179 39 -906 0
147 133 355 0
-661 -697 -691 0
709 -405 686 0
726 302 960 0
-546 -832 -425 0
-21 288 894 0
-287 126 354 0
397 639 -260 0
193 -353 -357 0
737 -290 627 0
-156 966 -998 0
-913 543 -389 0
747 528 -428 0
930 928 -128 0
-645 30 794 0
-91 -513 -980 0
-243 -892 -823 0
745 466 859 0
-795 -111 -509 0
-602 295 920 0
358 953 748 0
460 273 133 0
-654 187 -64 0
405 917 675 0
561 446 -236 0
186 -82 396 0
839 789 251 0
-798 658 -566 0
-187 481 -211 0
506 206 452 0
689 -103 381 0
211 -220 -773 0
-280 -967 -412 0
-268 -192 977 0
-791 -69 -663 0
751 202 92 0
-796 -578 -772 0
-446 580 188 0
550 -876 -219 0
347 -758 863 0
512 -576 -363 0
-367 270 -860 0
703 -106 -31 0
914 -616 372 0
364 -523 -471 0
-528 -82 -850 0
-450 477 -281 0
508 -991 -946 0
576 -252 -706 0
973 -157 -734 0
275 686 -382 0
-267 82 356 0
-266 -637 -534 0
861 -56 -66 0
-853 -569 802 0
619 -723 -845 0
-158 51 295 0
927 -291 -102 0
836 -100 722 0
-231 535 -957 0
575 -565 397 0
-730 -540 -496 0
500 394 -161 0
484 135 -376 0
-555 -628 -486 0
958 -283 376 0
-793 824 355 0
-677 587 -390 0
-117 -249 793 0
-287 -229 -384 0
993 -876 285 0
-202 888 80 0
-330 -520 340 0
-598 104 866 0
-688 98 -593 0
406 192 772 0
-192 -148 323 0
575 -441 836 0
633 317 135 0
-32 -21 615 0
954 483 -732 0
-330 511 -795 0
98 -263 160 0
444 -631 436 0
716 -256 -521 0
-902 -993 912 0
72 -904 921 0
659 -452 930 0
371 -413 859 0
-170 91 498 0
-948 -450 -246 0
-901 669 16 0
42 52 54 0
890 252 667 0
-13 -70 432 0
-570 246 -10 0
-411 -843 -966 0
720 -52 -293 0
-759 -720 -71 0
-108 -25 913 0
-858 416 -433 0
338 -79 -357 0
-637 -671 649 0
-279 325 697 0
846 -319 -283 0
-413 918 730 0
-506 -161 853 0
-379 197 -731 0
-699 918 -663 0
-242 -971 653 0
841 575 229 0
437 821 551 0
366 891 -584 0
199 -102 830 0
-757 -686 -424 0
405 551 657 0
500 -593 393 0
-63 534 545 0
898 659 798 0
-30 -338 -277 0
198 672 -235 0
-399 -44 -99 0
266 187 -892 0
-829 638 592 0
-689 -253 -156 0
563 -706 -673 0
932 74 -969 0
428 -174 741 0
828 234 -57 0
485 331 633 0
485 -132 -384 0
80 -148 617 0
-277 95 -690 0
794 971 860 0
51 341 -75 0
-806 -272 -554 0
332 856 330 0
-38 -141 576 0
-914 428 516 0
492 735 -646 0
-881 -797 431 0
354 87 476 0
-800 -820 979 0
950 -712 -649 0
586 -833 -774 0
959 367 578 0
405 -832 -267 0
-602 -104 -262 0
-38 -622 -378 0
520 873 -880 0
-697 510 -843 0
693 69 751 0
322 530 -754 0
416 -836 866 0
-358 -778 69 0
340 88 667 0
648 635 66 0
776 170 -429 0
949 -542 -272 0
388 840 19 0
947 -842 878 0
381 -969 224 0
835 -605 155 0
304 900 81 0
-625 121 -868 0
610 -5 -649 0
-348 -745 829 0
688 -326 221 0
118 -216 -976 0
-207 574 71 0
-815 -339 -681 0
-498 -316 719 0
8 503 129 0
834 491 423 0
-373 -565 -659 0
726 397 99 0
-928 -828 202 0
175 -493 -36 0
701 926 -129 0
943 393 -422 0
-96 -892 141 0
-840 -220 -303 0
-772 -884 758 0
50 -396 555 0
-267 800 930 0
764 -61 363 0
-765 334 -683 0
844 667 -502 0
527 854 87 0
921 150 127 0
-536 -472 175 0
-880 349 -274 0
7 170 -626 0
915 994 967 0
-325 284 -640 0
-965 569 -702 0
-583 -519 743 0
40 -258 213 0
683 -162 595 0
194 -453 298 0
753 -995 632 0
855 -126 -93 0
569 -967 -825 0
164 755 660 0
-466 104 -3 0
-599 -803 824 0
319 873 -764 0
777 -279 847 0
346 139 -907 0
432 -657 985 0
-97 -825 -865 0
-486 981 -703 0
-75 101 37 0
845 -906 172 0
763 249 -679 0
-306 411 -942 0
-532 659 81 0
-788 789 -489 0
812 -294 740 0
999 -136 -797 0
700 -437 266 0
64 597 37 0
-656 700 -497 0
-988 -625 182 0
803 717 183 0
-635 306 803 0
-973 925 -466 0
-157 797 888 0
-110 -412 -807 0
-935 373 80 0
365 -477 -384 0
626 160 -564 0
-879 269 148 0
-8 -642 -957 0
176 -73 582 0
-671 619 -86 0
57 430 -983 0
760 249 -858 0
-290 -364 379 0
995 -70 -304 0
425 -971 -397 0
792 16 -243 0
-245 136 -875 0
66 788 -910 0
-431 247 -599 0
876 116 -735 0
-950 -749 -23 0
-5 -452 399 0
741 -77 -397 0
-989 -400 -550 0
-800 237 918 0
-673 640 492 0
-76 -64 346 0
80 -548 -728 0
628 -709 108 0
644 -75 136 0
330 322 -959 0
-19 670 -116 0
-973 953 215 0
274 -334 368 0
904 395 -762 0
-653 972 -628 0
647 275 120 0
36 326 469 0
-90 -391 721 0
995 779 490 0
368 990 467 0
480 -115 260 0
-391 48 234 0
-870 947 -396 0
-989 130 438 0
615 -527 -123 0
-128 -209 -641 0
-416 504 -216 0
-594 -660 -507 0
-78 967 -953 0
239 -646 -903 0
614 -806 938 0
604 47 -77 0
-268 344 100 0
-324 607 11 0
-647 849 965 0
269 -117 -249 0
388 325 -530 0
-157 966 752 0
348 326 380 0
-542 515 611 0
685 152 371 0
-860 393 -820 0
-795 480 -68 0
881 -898 198 0
-593 -155 276 0
-13 505 116 0
-489 187 627 0
-301 -8 -535 0
480 -621 305 0
-134 807 741 0
-769 -558 585 0
-235 105 -690 0
536 438 355 0
789 482 792 0
350 187 115 0
170 851 999 0
492 157 -900 0
261 46 891 0
718 -308 965 0
-36 820 -338 0
979 -775 402 0
-803 -204 -826 0
-251 567 696 0
-147 917 261 0
-192 389 -524 0
330 878 -607 0
865 757 -641 0
472 -778 -757 0
394 309 885 0
821 555 32 0
668 181 632 0
-986 -350 640 0
382 660 -709 0
136 -780 34 0
721 172 -660 0
-575 -167 14 0
-844 821 638 0
913 -335 45 0
-498 754 -20 0
-235 73 -418 0
-162 -213 -894 0
-822 -952 -951 0
-743 795 596 0
-954 -868 673 0
500 -255 481 0
-715 -328 -791 0
-302 -166 592 0
-447 677 347 0
841 865 152 0
-224 -537 -658 0
-779 881 -480 0
-246 -726 686 0
-491 -467 246 0
72 -316 413 0
363 398 -739 0
8 -565 370 0
472 413 -480 0
749 288 -407 0
-365 -967 -113 0
165 -301 -65 0
-873 617 -575 0
-72 -909 -568 0
676 303 -783 0
91 338 923 0
602 -379 951 0
-452 -630 -984 0
-43 752 -889 0
407 -115 -879 0
359 390 394 0
-94 -445 832 0
-546 -839 -457 0
-414 -625 -489 0
-475 -875 816 0
-880 -376 -269 0
-211 757 925 0
-564 718 -17 0
-292 175 342 0
899 404 -253 0
-549 -861 743 0
-777 502 -498 0
-831 -450 -281 0
123 680 -805 0
-201 536 -372 0
993 -808 -382 0
-553 -560 -240 0
102 374 168 0
-999 -92 -684 0
-643 444 -716 0
588 23 26 0
1000 -350 704 0
-161 -673 68 0
-332 -687 683 0
607 132 206 0
651 993 888 0
-826 -918 355 0
752 546 -166 0
260 -570 145 0
-578 956 -767 0
947 -778 -325 0
-729 -713 -317 0
-101 -98 -122 0
903 79 264 0
-172 -204 350 0
706 193 117 0
-685 241 644 0
-562 -611 -618 0
453 -486 76 0
517 -622 90 0
884 4 634 0
247 -919 -823 0
475 404 -465 0
287 -108 -617 0
-813 463 767 0
348 337 534 0
89 28 -952 0
463 810 402 0
-477 -158 830 0
-233 740 299 0
953 -320 612 0
146 405 199 0
979 630 -242 0
-995 832 -405 0
387 752 -473 0
287 830 -211 0
-186 -968 -955 0
-645 -367 453 0
461 444 420 0
-707 -137 812 0
97 -7 875 0
161 -504 312 0
891 727 570 0
863 -720 607 0
-190 -265 -259 0
605 -517 -918 0
682 92 310 0
958 -476 226 0
-792 814 961 0
-76 531 -914 0
-407 -561 709 0
-816 195 682 0
427 -860 -230 0
-787 185 763 0
-962 -85 -811 0
830 264 -465 0
604 239 -619 0
174 515 7 0
441 -124 -663 0
235 517 -127 0
271 -275 -329 0
-21 -215 -387 0
663 63 657 0
-258 857 -626 0
963 891 -997 0
-365 -572 -764 0
-762 -443 247 0
789 731 -23 0
6 -429 266 0
-597 216 966 0
927 866 632 0
990 767 107 0
179 356 -7 0
-898 616 -844 0
-413 -686 -615 0
245 381 232 0
578 247 -926 0
145 -620 -764 0
342 790 -541 0
-915 -19 -745 0
143 896 423 0
-104 405 -394 0
-198 580 373 0
-366 -435 733 0
-359 941 -326 0
-591 -517 -861 0
-275 861 426 0
-237 791 42 0
735 -813 -562 0
353 -628 -918 0
908 -407 -446 0
-115 -373 401 0
-103 -790 459 0
651 -215 -957 0
611 -38 -902 0
-998 -49 546 0
324 430 -972 0
-317 -36 716 0
-717 -253 -743 0
-487 14 457 0
855 -990 -585 0
93 407 82 0
90 566 46 0
354 -51 -828 0
-928 867 73 0
218 221 -895 0
802 482 520 0
696 449 383 0
-561 -824 168 0
20 -663 -873 0
-868 -292 -673 0
-223 -679 711 0
162 425 -81 0
489 -73 311 0
-854 -259 -266 0
814 -336 -722 0
-589 -286 911 0
763 -35 402 0
321 394 -438 0
827 308 296 0
951 -525 10 0
-694 -55 774 0
-488 -831 -270 0
-393 -903 -154 0
-969 37 -708 0
-936 -728 -418 0
407 -694 988 0
-485 474 -704 0
-265 288 -65 0
-743 -729 259 0
-135 908 142 0
392 485 -43 0
434 665 -500 0
-807 872 582 0
38 -797 930 0
453 -965 -497 0
892 834 -882 0
715 711 -244 0
248 -368 792 0
-684 277 823 0
-130 30 506 0
628 -630 973 0
-334 -647 638 0
576 925 668 0
-98 -24 121 0
-536 -236 -832 0
713 -75 751 0
-327 481 815 0
-414 941 -307 0
448 847 796 0
815 -915 -342 0
662 506 -459 0
-10 -815 -487 0
-566 -521 -614 0
824 118 -977 0
687 -719 558 0
505 -340 941 0
241 236 -868 0
783 -518 479 0
660 530 328 0
224 -246 -205 0
144 -435 -754 0
-883 593 933 0
-716 -493 883 0
-818 -180 167 0
287 -423 -379 0
136 881 -756 0
-280 363 -132 0
369 524 -551 0
694 245 454 0
516 333 260 0
440 77 143 0
-193 565 673 0
168 -762 -543 0
800 -573 641 0
24 -654 583 0
-163 956 -20 0
66 -200 -169 0
-879 -804 -809 0
608 -190 -231 0
-86 274 924 0
32 372 -202 0
-774 756 -760 0
-796 640 -376 0
-513 428 -389 0
494 -994 743 0
-832 -611 -824 0
454 866 -912 0
-106 -313 -56 0
-634 -311 720 0
328 223 22 0
638 -413 -761 0
954 224 720 0
-847 -350 362 0
553 485 25 0
-616 -122 256 0
-439 554 358 0
-723 482 293 0
-366 575 -357 0
15 -8 -694 0
883 -480 -950 0
-353 -40 -712 0
496 358 -756 0
-374 -886 685 0
-958 -272 -765 0
839 -250 -311 0
-313 -189 -762 0
-506 762 71 0
-878 -638 -871 0
792 -205 139 0
785 10 938 0
-198 -687 683 0
-562 229 -899 0
-958 14 -271 0
851 434 925 0
160 -522 -412 0
422 738 798 0
-604 94 744 0
-769 -680 102 0
-650 -804 -864 0
339 22 147 0
-289 270 707 0
475 -539 103 0
-934 148 507 0
975 262 140 0
556 613 337 0
393 469 132 0
878 774 -661 0
-511 -95 -962 0
696 441 -187 0
-940 -78 -77 0
-911 701 -486 0
-741 366 477 0
822 -827 -190 0
903 -348 -382 0
-366 -487 948 0
22 -457 222 0
598 -34 53 0
720 -837 -708 0
894 979 -830 0
-83 -705 329 0
776 19 -548 0
436 932 305 0
675 572 -47 0
611 30 -563 0
-152 -978 -190 0
125 -929 -41 0
680 -870 978 0
110 -557 -113 0
-292 880 -875 0
-303 562 899 0
-436 859 -591 0
698 839 -221 0
-925 -253 417 0
-243 -225 -658 0
-432 454 -492 0
495 -351 -822 0
-540 -397 -282 0
280 443 769 0
-542 -918 -552 0
-20 604 524 0
-732 -629 -337 0
-553 24 -179 0
700 648 -913 0
-39 -372 -76 0
170 927 659 0
-996 -430 300 0
16 -822 -802 0
-95 -715 -674 0
-815 764 368 0
653 433 -711 0
619 -906 -593 0
311 -358 620 0
-277 494 -470 0
-532 570 85 0
-89 624 -118 0
-748 400 -224 0
123 -805 -453 0
-208 803 -108 0
833 617 737 0
638 711 -932 0
-749 -946 177 0
541 -429 -804 0
689 306 468 0
9 244 -815 0
627 54 726 0
444 -212 341 0
-445 164 -639 0
58 127 195 0
-576 337 -635 0
154 -659 461 0
-258 933 -518 0
780 451 658 0
-419 722 -79 0
523 -59 -381 0
-150 -685 -216 0
526 -712 42 0
833 210 416 0
13 -47 43 0
922 82 446 0
-592 174 -329 0
-257 -377 -699 0
-553 -306 172 0
-12 -938 457 0
577 -640 449 0
775 791 709 0
38 127 -181 0
-765 636 77 0
980 411 896 0
-30 884 -448 0
867 78 -263 0
893 -785 -631 0
-933 -507 96 0
245 826 929 0
648 786 693 0
-353 -903 -605 0
978 34 -1 0
204 752 846 0
567 -508 981 0
-959 -734 -921 0
753 -69 142 0
469 834 -25 0
-963 -377 647 0
507 582 -675 0
861 618 -131 0
864 -128 -964 0
-475 251 -868 0
-797 -353 -549 0
-316 544 403 0
-617 -532 191 0
-408 -712 250 0
-554 479 -33 0
-870 -739 934 0
-864 56 -992 0
673 -995 -489 0
-804 523 -350 0
489 727 229 0
-321 685 -172 0
-456 -749 -88 0
35 -688 -887 0
39 -879 -748 0
-549 -733 53 0
343 459 -181 0
-953 898 853 0
-325 -429 -567 0
-822 298 267 0
-939 -320 421 0
-477 -78 -44 0
-339 574 131 0
496 20 -735 0
-910 -350 958 0
-129 -406 812 0
-870 513 -816 0
-320 238 56 0
329 -875 -530 0
-287 -908 -555 0
603 54 -12 0
-674 -695 769 0
-14 623 -205 0
863 692 -492 0
-56 379 -499 0
-91 814 181 0
420 -426 333 0
-541 -312 -590 0
-241 -889 411 0
22 789 205 0
-267 711 303 0
175 -195 -942 0
-569 808 714 0
-632 610 170 0
975 872 2 0
715 924 968 0
-968 -226 -667 0
135 -100 619 0
749 -114 -562 0
687 228 -418 0
502 -594 -40 0
-767 376 912 0
-504 363 400 0
-157 -317 -335 0
704 -739 197 0
334 -116 -984 0
-628 418 566 0
568 -39 -497 0
-312 -354 -866 0
-539 759 -892 0
870 362 -439 0
-538 -560 305 0
-132 656 -177 0
-773 -231 406 0
-427 -10 712 0
-288 -993 397 0
-242 235 -348 0
564 -15 -474 0
511 412 -609 0
-601 -621 872 0
245 474 130 0
-991 -243 769 0
-827 -376 -63 0
-946 -243 -770 0
-989 -75 842 0
-467 50 482 0
201 858 507 0
-342 -858 -197 0
-809 211 -272 0
368 510 63 0
-406 -489 -519 0
697 315 -850 0
-207 -196 -572 0
-255 -238 55 0
698 371 770 0
889 -376 1000 0
-426 881 603 0
-105 364 -868 0
-490 104 607 0
245 -667 -494 0
425 955 402 0
611 -707 723 0
788 -67 -10 0
126 -907 -460 0
-994 261 746 0
680 -458 -626 0
233 -395 -474 0
204 316 496 0
-831 -422 -955 0
-709 410 586 0
-639 -128 675 0
582 -871 14 0
-564 860 -307 0
725 785 -821 0
-794 -41 893 0
358 805 350 0
-614 708 668 0
-761 956 512 0
234 -680 516 0
215 804 815 0
-537 -1000 -300 0
-810 464 -759 0
-473 -343 891 0
-188 141 -556 0
-116 467 908 0
-624 746 -759 0
-636 144 -404 0
-439 -213 -6 0
-528 -942 560 0
295 251 -336 0
-274 -402 -215 0
-236 -960 -226 0
-780 381 -963 0
112 838 -855 0
425 24 -67 0
-396 737 119 0
-895 418 369 0
653 -596 -176 0
-608 -867 889 0
672 92 -257 0
-259 295 460 0
-419 963 577 0
510 -451 895 0
-32 392 961 0
-828 -758 472 0
-440 225 108 0
-775 981 -609 0
-44 109 -740 0
371 542 -518 0
905 -456 67 0
-297 559 200 0
-458 -759 -111 0
-538 -828 181 0
617 -920 -931 0
678 1000 445 0
-922 949 -501 0
-319 339 -247 0
-913 -492 -772 0
291 -353 -886 0
374 750 699 0
984 -523 -960 0
-718 757 585 0
565 795 -384 0
273 259 -527 0
-521 750 -597 0
943 122 331 0
-223 -69 -858 0
-543 454 -449 0
-70 277 -135 0
983 -66 -694 0
-61 844 68 0
437 -441 147 0
-145 -449 -403 0
-910 232 380 0
405 -583 719 0
-950 -274 -106 0
-354 555 -747 0
-481 914 -156 0
-718 516 -981 0
456 -232 -818 0
814 -611 -118 0
533 -967 694 0
-522 450 742 0
834 -172 -703 0
-248 27 653 0
-330 71 230 0
857 289 831 0
484 364 -393 0
-233 386 354 0
-412 824 147 0
-434 -990 -226 0
12 -85 752 0
-124 -893 -306 0
849 653 -953 0
554 -808 -363 0
6 462 687 0
-880 400 -897 0
716 289 -56 0
673 614 440 0
-181 -142 -152 0
-950 -938 -685 0
-273 -914 -948 0
-527 -540 -17 0
418 -50 -579 0
651 -373 -45 0
-336 310 417 0
290 -353 -33 0
-564 413 -222 0
306 -441 416 0
588 579 -690 0
-117 997 715 0
742 796 438 0
-234 955 178 0
-209 603 -926 0
553 -641 -991 0
789 -277 970 0
905 6 932 0
227 -949 -995 0
127 221 224 0
278 -671 -712 0
-47 -546 -134 0
666 157 -409 0
-669 -137 -302 0
-939 543 253 0
-608 484 -250 0
6 -178 320 0
712 -160 -187 0
533 854 -504 0
-930 -632 -194 0
931 -945 -128 0
858 308 414 0
870 119 282 0
-783 -54 449 0
-13 874 -668 0
403 96 462 0
-673 -532 795 0
-41 -39 56 0
-883 -451 218 0
-382 761 -622 0
108 867 503 0
471 -305 -177 0
871 -637 -503 0
-336 -699 437 0
851 -417 -605 0
963 862 501 0
159 -361 896 0
15 147 -10 0
459 527 -77 0
-149 217 7 0
-837 14 332 0
-270 -788 765 0
164 309 -626 0
172 -608 613 0
-596 -204 -39 0
95 747 671 0
-739 -578 495 0
-897 582 361 0
477 -948 -535 0
571 -889 -849 0
-445 -498 -192 0
833 422 -546 0
-530 -526 900 0
115 894 -64 0
-735 -134 244 0
437 921 -948 0
-446 58 112 0
-953 828 -336 0
911 -559 -715 0
596 438 884 0
868 -156 -36 0
179 697 396 0
766 843 194 0
-452 -900 -195 0
-747 -869 457 0
-53 293 29 0
-19 -502 -499 0
-717 119 439 0
210 -122 480 0
922 -857 -212 0
-317 -332 -479 0
207 -569 904 0
121 247 -280 0
363 -724 897 0
724 -507 -195 0
799 504 -164 0
613 -441 374 0
-84 -254 -472 0
-490 -381 -954 0
797 -708 -516 0
160 -58 -891 0
-416 685 -346 0
-594 -938 -732 0
162 445 199 0
779 -923 -646 0
-837 -669 -852 0
-620 -537 813 0
364 -917 -661 0
-668 -501 -526 0
634 -833 640 0
-598 36 -626 0
-904 -934 -821 0
730 -294 -488 0
171 -605 -985 0
-808 -795 156 0
90 250 -591 0
205 327 252 0
-952 751 -677 0
-259 -541 48 0
-166 -76 319 0
-899 231 -83 0
-733 -478 -492 0
308 5 864 0
884 -80 -275 0
637 -21 562 0
246 -962 -534 0
-573 -76 922 0
-278 -32 469 0
366 955 350 0
-588 551 -46 0
159 154 -121 0
-688 903 -874 0
-656 -436 841 0
-329 -526 102 0
-814 -438 274 0
929 -945 829 0
398 916 -679 0
601 -724 -492 0
276 -131 -628 0
730 69 541 0
-142 390 -231 0
-158 -840 -499 0
768 -569 -342 0
74 838 918 0
818 -745 646 0
-178 -653 241 0
-577 978 -143 0
583 -443 -869 0
-980 -180 60 0
-379 -969 284 0
-868 579 128 0
681 609 -622 0
-591 -588 -122 0
-710 -933 -786 0
127 920 703 0
-799 346 -543 0
249 -28 149 0
843 -853 -808 0
-738 -485 -936 0
99 -831 -607 0
495 -367 565 0
702 -777 -318 0
863 -185 -695 0
-187 -233 -897 0
263 -748 768 0
559 -942 -156 0
-268 -300 -659 0
-573 927 -281 0
-895 -622 -973 0
976 -658 -302 0
672 786 -800 0
433 794 -288 0
-670 -667 -227 0
29 -264 -394 0
-676 -377 551 0
-236 542 515 0
733 319 -959 0
110 -493 750 0
-428 -434 -306 0
18 -332 -980 0
216 -262 508 0
-517 953 647 0
373 914 231 0
966 -825 -293 0
-361 -8 325 0
-286 -25 239 0
-95 349 413 0
-669 -29 821 0
-724 -457 -52 0
-461 -883 223 0
-36 127 756 0
916 -335 -480 0
647 -270 -389 0
176 694 -703 0
218 -150 -537 0
-861 -306 608 0
-758 -293 635 0
-462 114 -87 0
71 174 517 0
-499 -65 -207 0
914 -770 -161 0
308 -972 -265 0
-811 -888 -895 0
-899 -315 -446 0
983 -534 538 0
687 -574 -83 0
708 -82 193 0
370 569 160 0
-619 736 495 0
101 604 648 0
595 -332 963 0
-324 78 991 0
609 599 50 0
-521 -729 440 0
-699 349 -967 0
-740 32 -742 0
836 -575 478 0
47 987 -859 0
559 -542 899 0
-422 948 211 0
102 -721 517 0
-354 572 -67 0
-216 76 -48 0
767 680 812 0
768 -952 43 0
-662 651 968 0
-334 6 -961 0
740 -202 -724 0
879 -136 594 0
-116 -996 239 0
98 -694 -347 0
-439 -722 594 0
899 224 -947 0
-881 -200 498 0
266 641 792 0
-313 -234 467 0
309 751 -27 0
-700 682 -46 0
432 -807 -957 0
-624 122 -443 0
-664 637 950 0
570 -894 -979 0
-998 10 978 0
628 -912 -641 0
955 -979 -762 0
-812 -409 708 0
129 -339 384 0
-1 -876 932 0
643 485 259 0
-431 8 920 0
690 -306 533 0
217 581 -983 0
-482 -973 236 0
30 -169 515 0
-177 149 -793 0
-66 -821 317 0
244 -246 -315 0
766 -141 946 0
418 143 913 0
-651 -746 245 0
-395 371 835 0
-326 -360 283 0
378 -639 -544 0
297 404 477 0
933 -79 -631 0
-625 759 288 0
877 -455 -334 0
992 910 -722 0
788 710 -483 0
-978 -45 -747 0
444 299 -628 0
-781 618 128 0
-535 -500 -807 0
-662 381 -234 0
225 18 390 0
688 740 936 0
-655 868 309 0
-777 -727 -484 0
-376 120 -140 0
-67 382 -545 0
-519 268 -977 0
-467 -701 451 0
-758 751 -877 0
171 -482 -762 0
-699 779 34 0
831 971 -491 0
-989 -638 -221 0
795 674 -205 0
615 -553 -38 0
-884 -337 -622 0
-207 -835 237 0
954 -512 -829 0
147 304 387 0
349 32 921 0
-123 -531 -979 0
-291 -634 184 0
527 21 -822 0
-260 -830 572 0
996 88 545 0
440 577 490 0
915 -536 -120 0
574 685 -605 0
-705 -959 -913 0
-122 657 444 0
-798 -288 145 0
-806 775 599 0
-338 -710 -192 0
79 -19 472 0
-373 332 227 0
-533 -552 -258 0
306 -917 299 0
-207 815 567 0
249 -321 475 0
582 -328 425 0
-459 -163 -266 0
-640 -543 126 0
-379 -195 -208 0
-697 -762 938 0
316 440 478 0
-509 -303 -27 0
-920 -97 362 0
820 744 -893 0
-908 -446 -948 0
-966 -162 -201 0
-196 -29 633 0
-576 43 -145 0
763 -403 462 0
598 637 -708 0
-793 360 -770 0
268 887 -529 0
673 465 -130 0
-279 599 28 0
-871 -741 228 0
803 -870 -883 0
-53 539 -158 0
-749 -831 -331 0
-323 307 -897 0
990 -730 924 0
930 -6 785 0
403 -48 -983 0
-699 -652 -792 0
-365 429 178 0
777 809 243 0
47 636 -146 0
-220 -315 665 0
-208 -620 931 0
415 -159 -847 0
869 875 -713 0
126 804 -928 0
-972 -797 508 0
-329 826 -146 0
-882 -837 727 0
-138 -617 -62 0
-502 69 703 0
-768 -366 18 0
29 806 998 0
526 -466 861 0
260 79 -592 0
-802 -44 652 0
-155 830 -151 0
-359 -113 -864 0
-799 -609 231 0
208 416 -778 0
-138 326 -875 0
232 -783 -698 0
683 -331 137 0
-493 -466 251 0
774 -517 520 0
264 138 -872 0
285 781 -174 0
853 740 42 0
-227 -357 822 0
365 -703 681 0
-267 -615 -939 0
-154 661 347 0
-646 -875 -352 0
455 72 -860 0
-972 261 485 0
84 -257 144 0
-755 -651 509 0
-473 281 541 0
-393 930 413 0
662 895 -365 0
-18 -771 726 0
721 -965 501 0
-914 516 -440 0
30 -639 535 0
-10 178 335 0
897 546 -400 0
857 685 -987 0
-525 -280 279 0
-363 693 134 0
-997 220 -11 0
749 -38 698 0
-661 -718 -228 0
969 488 466 0
-541 823 647 0
-716 329 -238 0
-313 512 -18 0
661 -30 -798 0
1 -327 -293 0
983 -570 128 0
-703 710 528 0
-405 491 744 0
-804 267 811 0
652 945 -994 0
-666 -80 575 0
-619 442 -866 0
424 281 591 0
569 453 -329 0
-269 421 827 0
-215 318 -943 0
-442 -78 -19 0
-979 -767 -570 0
184 377 -864 0
-125 669 -490 0
463 659 -783 0
262 925 502 0
402 963 840 0
191 813 -385 0
-155 877 242 0
164 161 -345 0
928 -199 -600 0
306 -686 -608 0
5 531 -45 0
-193 956 870 0
332 -604 -221 0
112 60 141 0
-191 887 -822 0
-753 190 -241 0
-921 -601 315 0
118 -187 626 0
-34 266 -870 0
15 -846 255 0
649 -974 -872 0
95 -206 193 0
337 806 923 0
130 -999 395 0
-255 -13 336 0
-909 620 317 0
382 -401 135 0
609 513 385 0
400 -433 345 0
289 594 -213 0
971 -110 -628 0
-69 -938 -238 0
-787 834 -996 0
-397 307 -818 0
-377 154 -234 0
293 526 90 0
698 253 984 0
-678 -502 -298 0
865 -290 956 0
-347 181 794 0
-145 650 -691 0
-10 -623 -136 0
972 201 -530 0
-779 313 524 0
173 -456 475 0
-881 -643 -567 0
-646 -23 -59 0
-138 -273 -644 0
-715 -75 -265 0
708 -844 -158 0
102 -196 63 0
-324 787 -423 0
13 -932 -183 0
-659 90 949 0
296 -70 622 0
-205 876 967 0
539 303 -743 0
-819 -106 -351 0
-275 -55 872 0
-152 255 -509 0
512 -790 -758 0
-729 -148 -612 0
-766 99 150 0
-719 -140 -214 0
-54 372 -103 0
437 220 18 0
237 530 568 0
-600 151 263 0
541 -237 -868 0
-476 906 -876 0
207 -558 292 0
976 383 -837 0
-274 707 451 0
515 28 -778 0
496 422 -87 0
-499 681 706 0
61 -27 -170 0
-505 152 -499 0
-282 -953 -54 0
-162 -323 -201 0
-909 319 761 0
792 -957 -113 0
-715 339 -771 0
884 937 -811 0
607 -21 938 0
-6 -651 621 0
789 523 187 0
711 -838 694 0
777 -287 622 0
-328 -723 -439 0
-756 520 36 0
-407 -391 937 0
-12 267 -930 0
830 -142 837 0
953 547 -608 0
453 -208 944 0
147 -527 -528 0
190 -236 445 0
-186 -637 -477 0
209 830 245 0
962 585 -628 0
-250 -754 500 0
451 -121 637 0
-178 405 851 0
-154 -882 529 0
-946 -317 -534 0
-568 -995 -79 0
149 205 -160 0
-398 186 -850 0
248 8 -703 0
-157 369 -984 0
385 -663 -371 0
-76 -176 516 0
997 55 -903 0
633 943 573 0
160 -687 728 0
380 639 -185 0
50 -701 -896 0
-777 1 407 0
-198 890 -307 0
-268 59 543 0
869 652 584 0
-163 -554 -691 0
172 286 530 0
-758 -562 185 0
473 968 -994 0
-774 126 -325 0
-119 238 728 0
-492 250 560 0
-703 472 -643 0
540 -180 250 0
207 -930 -834 0
-267 962 -380 0
28 519 -549 0
952 591 -536 0
-968 -808 892 0
201 411 883 0
-618 494 -624 0
170 468 -543 0
659 639 -444 0
423 972 -97 0
-253 -264 -262 0
-812 466 -754 0
64 180 291 0
-105 -615 827 0
-770 951 729 0
758 98 -266 0
663 -126 -739 0
507 -588 76 0
696 791 -155 0
-119 72 -699 0
509 -738 930 0
-298 825 -380 0
-432 972 -119 0
851 -76 463 0
-656 -97 -509 0
626 -228 -539 0
363 869 755 0
-103 -403 169 0
-195 -562 -165 0
-394 30 -460 0
-958 -869 611 0
51 -467 464 0
276 -831 -189 0
73 -976 60 0
-327 -622 118 0
338 -418 307 0
-908 351 -675 0
-883 58 674 0
680 764 -220 0
-698 429 336 0
320 -14 -125 0
-798 398 -648 0
999 306 -766 0
40 -768 553 0
804 -244 -297 0
-313 -309 599 0
-667 615 982 0
-578 -964 -863 0
93 -214 271 0
376 665 -905 0
-746 602 -647 0
685 338 500 0
-416 635 -802 0
-223 377 -572 0
-250 833 -452 0
235 -575 -631 0
-66 -756 -618 0
952 -522 288 0
-583 -905 -57 0
-94 476 444 0
-959 -836 -138 0
464 377 138 0
144 -142 -734 0
15 -380 -251 0
623 603 821 0
-632 154 222 0
149 22 171 0
-453 -440 -386 0
90 757 206 0
-49 -241 -58 0
-361 -752 -435 0
-278 380 888 0
-628 802 176 0
768 -632 -858 0
-245 84 -98 0
253 433 699 0
861 251 598 0
-908 766 539 0
-138 200 -369 0
-608 -660 -482 0
62 541 -560 0
599 898 59 0
-594 -591 -627 0
-270 -296 625 0
854 -796 -729 0
-740 753 685 0
-862 903 79 0
707 977 721 0
-31 -958 44 0
-511 57 -787 0
181 809 31 0
-843 447 -874 0
-35 -539 -584 0
-457 -611 576 0
-160 965 -739 0
597 634 227 0
718 546 854 0
-458 445 -145 0
861 -724 -140 0
-947 417 228 0
490 583 637 0
-601 -317 215 0
-221 -690 -654 0
-613 -467 -49 0
229 516 102 0
-218 -686 872 0
58 -959 409 0
922 664 100 0
121 348 82 0
251 797 -365 0
711 -305 483 0
186 741 66 0
-668 967 591 0
285 730 -609 0
-10 182 935 0
298 -925 -341 0
-185 -658 -567 0
624 -634 -822 0
-698 28 -58 0
953 -365 -273 0
-788 -290 -808 0
710 36 339 0
-704 -682 926 0
-16 909 415 0
800 497 365 0
169 79 -35 0
-662 -895 894 0
-495 -85 263 0
916 -794 86 0
580 -470 -781 0
-867 -554 -23 0
-923 -221 -736 0
276 314 -577 0
-448 989 -986 0
908 -798 661 0
-960 595 -284 0
-427 -766 -89 0
-151 -542 910 0
116 -24 -268 0
-874 -802 -696 0
-199 513 -413 0
-18 428 128 0
26 -962 -120 0
-129 906 348 0
897 -304 -895 0
70 -260 -467 0
512 297 568 0
241 47 -835 0
-65 633 118 0
509 -370 -61 0
-775 -964 -319 0
87 -572 -822 0
-154 -24 298 0
684 -720 59 0
-403 -856 -57 0
296 779 671 0
-981 -730 -387 0
635 -852 -17 0
861 -524 429 0
734 -75 -639 0
-963 -945 325 0
-38 -464 800 0
674 517 738 0
-134 274 738 0
366 873 633 0
930 -929 -618 0
-678 -497 927 0
-226 568 -220 0
705 684 -9 0
-317 -210 -62 0
-286 -470 411 0
784 -237 -46 0
-451 566 -272 0
220 -541 746 0
235 738 -967 0
-302 -204 -254 0
338 -463 154 0
-753 -122 -521 0
635 -626 771 0
464 -252 266 0
959 -925 557 0
742 -375 995 0
761 -510 -450 0
223 26 807 0
-876 -327 554 0
-21 211 -227 0
693 351 675 0
-901 323 926 0
644 955 -379 0
-925 -747 -581 0
-469 419 -380 0
-298 123 -604 0
81 84 -299 0
-851 818 951 0
555 -244 865 0
-263 -133 -589 0
-353 752 236 0
-801 585 544 0
-580 -60 -936 0
199 -15 908 0
-78 692 -115 0
-929 29 360 0
935 392 222 0
-300 -482 946 0
-734 222 -372 0
551 256 352 0
-553 861 -520 0
-300 -937 -309 0
346 222 -650 0
-804 -667 -500 0
-647 -144 -385 0
-998 -777 -967 0
158 -226 723 0
-83 -962 536 0
-282 866 143 0
953 -761 871 0
-352 -176 -792 0
911 -19 456 0
-205 -194 -935 0
578 691 -15 0
-858 285 -413 0
13 -156 -346 0
679 62 796 0
-934 3 -61 0
887 912 -433 0
-696 310 -328 0
-528 317 337 0
155 -262 924 0
145 -794 144 0
-862 580 262 0
355 -320 188 0
241 979 603 0
-960 -921 -780 0
-497 473 -413 0
-118 643 232 0
192 530 -426 0
-115 -433 -280 0
-289 -799 315 0
-662 910 -382 0
526 8 487 0
-183 -240 680 0
-271 -593 -717 0
285 268 -726 0
492 -699 414 0
-285 993 -45 0
-147 -963 -237 0
446 -347 -842 0
-872 -6 660 0
-600 923 -149 0
525 299 -32 0
427 324 -381 0
481 -137 580 0
-651 -204 -450 0
-863 879 -798 0
28 -496 176 0
-839 -376 962 0
-102 -558 -632 0
-505 -726 -568 0
-698 -877 -947 0
-633 353 116 0
462 -14 -359 0
-649 -767 -456 0
-522 -627 -858 0
297 705 213 0
-696 -802 74 0
550 279 -453 0
314 355 -271 0
920 516 292 0
264 -366 740 0
840 854 -916 0
219 -252 529 0
-713 342 185 0
257 -471 -605 0
-912 878 90 0
188 615 -211 0
571 -930 -287 0
836 770 384 0
166 -964 -867 0
913 323 -508 0
155 51 464 0
-674 370 -687 0
540 -952 -290 0
-134 -173 -907 0
742 618 749 0
388 -765 -184 0
7 432 773 0
-857 -401 142 0
622 348 305 0
-778 710 554 0
306 440 849 0
-830 737 86 0
673 -574 109 0
-248 143 -167 0
-371 -152 -951 0
775 -346 25 0
491 -974 -775 0
-927 -777 -841 0
-861 -247 762 0
743 515 683 0
262 -50 -48 0
-201 -738 218 0
-847 446 309 0
-304 -961 511 0
315 67 586 0
567 516 773 0
404 -761 -640 0
-39 905 -938 0
628 -345 45 0
746 207 744 0
535 758 491 0
-323 -777 -338 0
-903 -975 -403 0
-188 -507 163 0
-512 447 499 0
526 593 412 0
-689 166 813 0
-826 95 -90 0
276 559 889 0
-328 -3 649 0
-110 384 495 0
593 -448 -383 0
-38 -420 -194 0
870 952 -194 0
45 33 -202 0
237 -184 -648 0
482 905 733 0
503 418 -887 0
-130 484 -549 0
576 -498 -836 0
819 -372 -258 0
392 580 -515 0
-888 550 143 0
585 161 -875 0
-392 905 921 0
352 716 45 0
902 -934 6 0
523 957 208 0
192 -320 -684 0
461 449 -965 0
-524 973 -204 0
683 345 527 0
-94 -779 -888 0
-34 262 -62 0
-369 -501 706 0
758 661 -709 0
621 656 -64 0
-399 -202 860 0
199 -193 -754 0
-96 90 420 0
-4 -274 62 0
427 702 -325 0
-501 405 949 0
690 -322 -875 0
-115 18 25 0
618 -47 908 0
252 500 696 0
-977 -411 962 0
964 -7 -435 0
996 716 166 0
766 235 -63 0
9 702 -127 0
233 181 -594 0
703 -147 733 0
102 620 -597 0
960 390 -608 0
-782 -185 -946 0
658 -746 679 0
988 -259 -110 0
576 -812 169 0
516 -336 122 0
238 53 911 0
-300 -649 -14 0
265 239 -496 0
-818 -511 -907 0
-869 100 -875 0
-987 770 -6 0
-163 -231 451 0
-72 272 -240 0
448 -410 -865 0
135 39 123 0
-545 -994 838 0
-252 572 794 0
-503 -316 707 0
-573 12 -111 0
735 -638 192 0
566 -755 -882 0
213 -849 242 0
861 -683 -752 0
439 598 209 0
716 614 -6 0
-455 -731 -20 0
-887 -70 773 0
-347 489 -548 0
286 -684 -404 0
-962 576 882 0
-396 -46 852 0
455 633 -388 0
-939 183 -884 0
-322 118 740 0
521 -351 -941 0
635 -48 -105 0
833 -97 -920 0
-698 44 -1000 0
713 963 -846 0
-805 925 429 0
-145 82 -119 0
-641 354 170 0
-804 828 986 0
-498 -738 877 0
179 65 -475 0
-806 -940 -224 0
-937 -760 692 0
587 -179 923 0
-88 -158 209 0
459 -209 -455 0
-855 -534 -503 0
716 573 199 0
481 -808 -231 0
-978 512 532 0
667 -86 -280 0
-656 39 -743 0
-32 868 -265 0
-402 -539 892 0
-304 611 -17 0
405 -752 114 0
786 -462 -589 0
971 -481 452 0
-792 -543 -200 0
-267 -579 -433 0
