p cnf 100 355
-74 -99 -95 0
-18 7 -57 0
-96 -72 49 0
67 -31 -17 0
12 -66 98 0
44 7 -8 0
-54 11 -79 0
-84 -24 20 0
-44 -49 -98 0
99 92 -13 0
86 -9 65 0
-97 -16 -32 0
73 22 65 0
-97 -69 -82 0
48 -63 -27 0
-60 -7 -96 0
31 -96 35 0
11 -44 -7 0
-20 -86 -9 0
-24 -6 -34 0
-94 18 -23 0
-7 -19 -71 0
22 93 -47 0
98 -2 -85 0
-100 -46 -69 0
-71 -63 61 0
14 84 -94 0
94 -79 -75 0
92 -43 34 0
60 49 -51 0
41 40 -78 0
-40 52 -35 0
-40 -16 -92 0
-3 19 67 0
-10 85 8 0
25 -48 -85 0
-35 -16 84 0
92 35 -20 0
43 25 81 0
-40 89 76 0
55 -93 -35 0
48 18 52 0
-91 59 -19 0
-96 -33 10 0
-98 45 -62 0
-59 54 -60 0
-44 -88 -57 0
100 73 35 0
87 -97 -93 0
86 -13 -66 0
-65 53 -96 0
-36 92 35 0
-45 65 -38 0
11 -44 62 0
-64 -82 92 0
-57 25 -50 0
100 -14 2 0
-89 81 12 0
-72 -30 -78 0
-13 15 -47 0
-95 -96 -92 0
-72 9 -68 0
-68 20 64 0
6 -69 -83 0
-96 22 37 0
-38 -78 -45 0
-6 64 -90 0
65 33 -5 0
-21 18 -42 0
-9 -17 31 0
-98 -29 -2 0
-88 -4 -18 0
-13 79 -15 0
-22 -93 89 0
43 75 -3 0
-37 4 28 0
69 48 -58 0
-5 67 59 0
26 -19 -5 0
42 -96 -36 0
4 29 -71 0
-31 90 33 0
72 -76 84 0
3 -99 -14 0
-14 -94 5 0
46 93 -11 0
92 -61 -99 0
14 36 -82 0
98 13 9 0
-80 -74 49 0
77 7 -61 0
-59 31 -6 0
-29 20 46 0
41 -82 -12 0
50 -78 60 0
-87 -93 -20 0
-42 13 1 0
-68 66 51 0
25 9 30 0
-20 76 55 0
37 33 81 0
61 81 -97 0
-52 -51 -34 0
-50 60 89 0
99 10 45 0
71 -42 43 0
73 -75 -100 0
-14 -89 63 0
-100 -5 -22 0
96 87 71 0
-55 -19 38 0
37 -46 31 0
-20 14 -59 0
-97 -100 41 0
-12 -56 54 0
-66 44 60 0
-27 -99 -53 0
80 -38 17 0
74 -94 -50 0
29 -48 -10 0
32 68 82 0
65 97 41 0
-55 88 -28 0
38 7 -43 0
48 33 55 0
19 -30 -90 0
-83 -59 -36 0
-18 33 78 0
-93 15 39 0
25 -98 40 0
17 -75 -85 0
88 -36 27 0
-9 -10 -14 0
64 39 -42 0
24 -20 2 0
-99 -63 -47 0
-4 99 -45 0
-22 -2 -32 0
94 25 -56 0
6 -82 50 0
-40 -39 41 0
64 -88 -16 0
-23 -44 82 0
-51 -3 21 0
-39 20 11 0
-46 32 18 0
69 28 -37 0
-64 75 -19 0
90 71 -88 0
-19 -91 33 0
-61 -10 -41 0
-63 -68 -78 0
-85 81 73 0
-65 24 -50 0
69 81 -5 0
95 92 -82 0
-66 50 -92 0
75 -58 68 0
92 71 -96 0
15 64 5 0
-42 -6 12 0
-34 -23 18 0
28 58 -74 0
12 -7 51 0
34 -90 54 0
79 6 -64 0
-22 -52 -91 0
-19 -95 44 0
31 60 -56 0
40 -78 21 0
-34 55 16 0
86 -27 30 0
-55 -62 66 0
3 25 -21 0
-10 97 -83 0
-65 86 25 0
-56 18 26 0
-8 26 -70 0
-51 34 -77 0
-86 41 -100 0
-23 81 31 0
-35 19 -68 0
59 39 -96 0
14 46 57 0
-18 63 86 0
18 60 -40 0
-7 96 -14 0
50 37 -86 0
41 -42 -94 0
-25 74 92 0
-91 -3 -87 0
85 -52 25 0
58 5 -55 0
-28 74 27 0
-75 44 -50 0
-76 -64 12 0
75 7 94 0
73 17 -3 0
61 -84 8 0
5 -17 29 0
-62 13 68 0
-21 -49 -98 0
58 -40 -26 0
27 -67 33 0
86 10 -91 0
87 -96 26 0
-27 -95 -6 0
-80 55 47 0
2 31 -98 0
19 53 66 0
-70 -84 -22 0
-58 -76 83 0
60 -3 90 0
-53 4 87 0
2 55 50 0
-25 -71 -15 0
-1 -52 85 0
-25 98 5 0
36 -90 -63 0
58 -14 -62 0
-27 -11 69 0
-32 72 76 0
8 83 -74 0
-92 12 -80 0
83 85 82 0
97 33 -77 0
2 100 79 0
70 66 -19 0
-3 24 49 0
-3 60 94 0
44 65 18 0
-31 -54 -87 0
52 -69 73 0
6 15 -75 0
13 22 -38 0
-71 30 -22 0
-61 73 86 0
-93 -20 -39 0
-22 87 92 0
-27 -32 31 0
-71 5 44 0
61 -53 -2 0
-23 77 -22 0
42 41 -15 0
33 82 60 0
23 -38 97 0
-59 76 29 0
86 -76 -59 0
-4 5 -47 0
-91 29 5 0
12 97 73 0
96 64 -89 0
-90 14 19 0
33 65 46 0
-91 -19 97 0
-78 30 70 0
100 -67 52 0
26 35 27 0
-74 12 63 0
16 75 -8 0
-39 34 -23 0
-23 61 -87 0
9 80 23 0
61 -93 70 0
-54 -11 79 0
-13 90 51 0
-84 99 41 0
33 -39 -50 0
13 -11 49 0
-90 -87 -72 0
95 -50 -23 0
-42 53 29 0
6 -47 -97 0
-42 34 8 0
86 33 -34 0
12 -3 -18 0
-31 -37 87 0
27 88 19 0
-19 -43 -75 0
63 46 76 0
85 -81 -44 0
-62 73 -43 0
64 -82 -86 0
67 40 -80 0
75 25 9 0
29 -57 44 0
13 59 79 0
61 -2 54 0
-61 -40 -65 0
-16 67 19 0
-24 31 -92 0
-42 14 59 0
93 -49 -38 0
18 90 91 0
61 -27 -59 0
-66 11 -55 0
33 -66 -43 0
44 49 25 0
-39 -77 -13 0
-2 -99 -76 0
-58 -6 -95 0
22 -19 16 0
-38 40 -93 0
30 81 20 0
-58 36 -51 0
60 58 45 0
-59 32 95 0
-100 -47 66 0
38 77 -42 0
-60 16 -15 0
53 44 -83 0
43 -64 -41 0
32 -62 -13 0
23 -70 100 0
-40 29 -87 0
16 55 -19 0
-64 -13 23 0
-79 54 39 0
76 -53 70 0
-35 100 3 0
96 -35 -79 0
61 -41 98 0
91 29 -8 0
-93 -61 78 0
63 -97 23 0
-56 93 73 0
-95 25 99 0
56 -71 32 0
-85 -67 61 0
-81 -62 -60 0
69 6 -26 0
56 -97 -54 0
-22 95 -39 0
33 12 -29 0
14 46 41 0
-14 24 45 0
-4 -55 -57 0
-52 -36 -37 0
10 -26 82 0
56 -37 -66 0
6 17 -15 0
8 38 42 0
-27 78 -53 0
64 55 -13 0
-2 -19 100 0
15 92 95 0
26 -92 100 0
86 91 -42 0
-72 -63 -97 0
-82 23 4 0
-90 -81 29 0
-2 -8 30 0
-60 9 -46 0
13 -57 -64 0
-53 -29 61 0
