p cnf 100 345
93 80 -44 0
79 -87 74 0
22 10 27 0
77 -39 -30 0
1 -54 -26 0
-38 -6 -74 0
29 98 17 0
73 84 8 0
65 89 85 0
68 -22 -78 0
55 59 25 0
-2 50 -14 0
-82 -3 27 0
60 58 36 0
-19 -99 -20 0
54 -11 -85 0
-11 77 -18 0
-78 -41 -38 0
64 -44 -81 0
-91 -44 -56 0
-24 -45 79 0
-27 -54 53 0
-39 -61 19 0
3 80 -1 0
54 78 -68 0
85 32 -28 0
-52 5 93 0
61 -53 66 0
-82 -28 92 0
76 73 72 0
-66 -4 13 0
-84 26 28 0
48 86 67 0
-33 -66 -32 0
61 62 -7 0
72 33 -45 0
-78 74 -35 0
7 -38 -17 0
56 -46 -66 0
79 55 -78 0
58 57 94 0
12 -23 79 0
6 71 2 0
93 -5 60 0
-72 -41 -89 0
-62 18 50 0
57 92 -78 0
29 -81 -55 0
-88 26 94 0
-36 52 44 0
4 76 50 0
97 -65 -48 0
95 -99 -100 0
-1 26 88 0
-1 41 -89 0
16 -45 -86 0
52 -7 -71 0
57 -30 -33 0
-31 89 -20 0
59 -91 71 0
88 52 44 0
-52 -23 55 0
4 -55 92 0
-64 -45 -74 0
-3 -52 60 0
-35 30 -9 0
75 -67 -20 0
70 64 -99 0
-27 -62 55 0
73 -20 -80 0
-41 -25 -93 0
60 71 -32 0
-73 -37 11 0
-68 -39 35 0
75 -68 57 0
93 -11 -66 0
-24 -59 -25 0
-7 -84 -96 0
3 -62 18 0
18 92 -96 0
-96 -41 99 0
-53 -28 -57 0
47 56 -57 0
-18 -43 -39 0
62 -95 99 0
24 -73 50 0
82 31 -36 0
13 30 53 0
99 63 -15 0
-82 47 49 0
-48 -34 44 0
12 22 65 0
-81 -85 -91 0
56 9 -60 0
14 11 8 0
37 -58 54 0
-49 -14 52 0
-33 -87 27 0
-46 -85 -30 0
90 -63 61 0
81 -58 -36 0
64 62 20 0
-13 -12 -38 0
-18 -6 42 0
-12 -36 -100 0
-29 97 89 0
49 -8 47 0
90 99 29 0
-94 -76 -14 0
43 -38 -31 0
44 31 -80 0
25 -95 33 0
48 91 -64 0
-30 77 -97 0
51 -25 -90 0
-79 -47 6 0
-57 -93 13 0
88 89 -60 0
59 88 -77 0
65 15 -49 0
-9 -78 58 0
-27 -7 65 0
-4 8 -44 0
80 -67 91 0
82 -75 -95 0
68 23 -26 0
-40 -98 -20 0
53 67 84 0
41 33 -13 0
62 87 76 0
-26 47 -61 0
15 8 -80 0
87 40 -29 0
-10 79 81 0
7 50 -19 0
1 -17 35 0
-68 40 -25 0
98 -58 -48 0
-44 -70 -75 0
-1 74 -40 0
-84 83 92 0
-35 24 -60 0
-59 63 64 0
86 1 6 0
55 94 27 0
68 -67 -7 0
17 -35 60 0
100 64 -96 0
62 -49 -28 0
-20 32 81 0
-70 -27 72 0
36 -69 68 0
-71 1 -27 0
82 -50 99 0
-60 76 75 0
-1 -37 94 0
-72 -53 -76 0
-21 -5 37 0
35 -2 -22 0
-1 30 -26 0
91 -35 -76 0
47 -22 81 0
-49 -48 89 0
17 -91 94 0
7 64 15 0
-92 -26 -50 0
15 70 -25 0
72 96 21 0
-95 -72 8 0
49 94 -67 0
48 -10 -36 0
98 13 53 0
-72 64 21 0
28 82 -85 0
44 -82 -87 0
96 -100 47 0
-63 -9 64 0
56 98 33 0
51 17 -75 0
85 52 -19 0
-12 -83 72 0
36 84 10 0
-96 -15 -7 0
14 -37 -11 0
43 -35 -9 0
-89 25 -14 0
-79 63 -36 0
-45 -66 99 0
-58 -50 3 0
-82 -96 97 0
-88 -33 79 0
53 -31 34 0
58 32 2 0
-45 -18 -79 0
62 -75 -12 0
9 53 -4 0
18 91 -100 0
-60 56 -50 0
-92 -89 -71 0
85 -42 -79 0
-34 75 -60 0
-15 -82 2 0
-40 -34 47 0
79 -16 -26 0
82 -24 -26 0
-19 -51 70 0
-97 26 33 0
-27 63 -23 0
-69 -58 -66 0
68 77 -17 0
45 -28 -51 0
-90 59 -33 0
61 -17 -74 0
-63 -2 -19 0
78 37 -82 0
23 -35 -12 0
-34 -32 -16 0
-12 57 37 0
-4 -67 96 0
-12 22 19 0
-94 79 -25 0
-56 -10 73 0
97 -50 94 0
-52 -26 62 0
59 33 96 0
71 22 96 0
69 -23 83 0
-81 3 20 0
48 -80 99 0
-23 63 44 0
-58 18 -66 0
32 -3 57 0
-2 58 47 0
-94 12 -29 0
-75 21 66 0
-36 -50 -39 0
-27 -85 61 0
-79 30 37 0
79 -45 7 0
69 -80 47 0
-74 6 21 0
79 83 -31 0
-23 -65 -83 0
70 -1 47 0
-74 89 -88 0
82 95 -92 0
43 -80 -5 0
-91 -95 44 0
-76 70 -84 0
8 49 84 0
-41 -4 61 0
14 91 -84 0
42 -3 -24 0
80 21 -1 0
-73 -79 8 0
-94 -64 -20 0
66 18 -42 0
-94 -33 -73 0
-94 -12 -28 0
-5 8 96 0
-47 92 -75 0
86 14 2 0
-28 32 47 0
78 24 44 0
43 75 59 0
85 59 52 0
-23 28 -56 0
-76 86 93 0
41 -98 6 0
-78 -32 -61 0
-16 -41 36 0
29 39 77 0
-85 73 -13 0
4 -59 -3 0
-39 5 100 0
4 48 38 0
16 -31 32 0
-5 -75 56 0
25 -86 -97 0
49 -30 14 0
-83 -25 73 0
81 63 -59 0
-25 -22 -7 0
71 -95 63 0
8 -87 -47 0
-90 83 -50 0
-56 12 95 0
8 -26 61 0
12 66 -46 0
14 54 -1 0
-3 22 -55 0
28 -8 -30 0
4 85 -50 0
-89 20 -32 0
-49 -50 10 0
-20 -25 -88 0
66 94 -70 0
-46 -65 68 0
5 -97 -41 0
-90 4 -30 0
61 1 -94 0
-24 -82 -3 0
79 31 -6 0
69 20 40 0
-64 52 -99 0
68 44 -7 0
42 -63 20 0
-45 80 -36 0
56 -57 94 0
-69 -97 -68 0
40 -19 -54 0
20 -32 7 0
-30 80 -86 0
-14 10 -55 0
73 -88 55 0
-45 47 54 0
47 -82 84 0
-69 -50 -53 0
-1 44 52 0
96 -24 85 0
-28 57 92 0
-29 -42 -22 0
-13 94 87 0
-1 94 -76 0
-100 8 63 0
-79 5 32 0
62 58 -59 0
-39 -42 92 0
-95 -73 49 0
-60 90 57 0
43 -87 -57 0
-70 19 73 0
-2 51 -47 0
28 -21 -6 0
54 -30 26 0
27 64 78 0
-72 -84 -89 0
-45 12 -14 0
72 -8 68 0
-71 -6 -17 0
39 -58 -100 0
51 22 47 0
-44 -11 -69 0
-5 85 55 0
6 -58 73 0
