p cnf 500 1500
-240 -383 -63 0
-332 143 289 0
160 58 -437 0
-298 160 166 0
53 397 -17 0
-281 442 165 0
327 469 395 0
-364 486 318 0
-467 164 66 0
-288 -436 -45 0
41 -256 -330 0
-476 -3 446 0
-363 48 488 0
-37 -119 -2 0
216 -56 468 0
-267 -233 412 0
134 280 11 0
-202 -13 217 0
-104 -24 -489 0
-280 -180 -374 0
363 -465 -77 0
-359 -306 -260 0
378 -311 -192 0
-309 170 453 0
-146 373 307 0
-289 154 -51 0
222 460 -349 0
37 -375 -87 0
413 133 17 0
94 -33 89 0
-28 85 -129 0
192 294 54 0
-274 -444 -217 0
340 -90 -61 0
-452 326 -90 0
-433 -159 377 0
352 41 92 0
39 370 277 0
289 -468 481 0
-487 -82 155 0
335 286 376 0
-319 316 -36 0
270 -385 344 0
140 -336 -498 0
-374 -115 315 0
-482 381 391 0
-269 266 146 0
-256 -164 41 0
151 168 417 0
-160 276 232 0
-363 -179 -124 0
264 201 279 0
-119 293 350 0
-294 -386 -230 0
-399 214 -119 0
-373 402 -427 0
-300 484 -194 0
-474 -440 -314 0
381 163 -424 0
-447 446 224 0
173 -57 -226 0
-166 254 471 0
-49 -130 39 0
240 -9 2 0
162 6 5 0
-425 23 424 0
-175 -367 -386 0
-161 275 -186 0
-384 -286 222 0
-43 -370 -65 0
387 -475 -171 0
-136 205 224 0
-466 186 8 0
-62 44 -116 0
-266 337 -263 0
-84 12 360 0
-237 -85 -116 0
432 -327 191 0
432 31 -142 0
-331 -488 381 0
151 -201 78 0
-333 68 462 0
-403 228 -489 0
-146 -371 312 0
314 -387 171 0
-299 -368 397 0
-75 34 286 0
-122 -117 428 0
114 -40 -43 0
410 89 -414 0
-21 -214 -58 0
240 500 17 0
-254 158 228 0
-177 488 302 0
-9 20 -165 0
427 -37 -102 0
380 -67 32 0
186 -498 -338 0
169 64 -184 0
161 -325 -323 0
333 -306 -349 0
-377 -366 -8 0
466 465 183 0
86 273 -70 0
-69 -489 -136 0
-405 -320 384 0
-489 116 -363 0
93 -41 -233 0
-207 404 104 0
-7 137 -109 0
492 -22 134 0
-146 -81 443 0
358 -94 -172 0
-256 -393 73 0
-199 -27 -347 0
173 -106 -438 0
-376 -112 267 0
-442 457 -363 0
-402 -212 -23 0
-152 111 125 0
283 414 80 0
459 -222 -82 0
180 -360 -315 0
-20 -28 194 0
83 -276 291 0
-437 227 -151 0
169 495 -318 0
63 389 -126 0
327 44 -276 0
-144 -262 381 0
-405 -290 -45 0
-192 424 32 0
-313 476 -445 0
283 280 -444 0
-5 103 -190 0
414 -500 359 0
-8 -171 -429 0
-469 -171 -344 0
-208 430 -483 0
-244 73 -484 0
44 -219 -362 0
238 -208 83 0
-334 -238 -392 0
-316 -123 -328 0
422 -385 403 0
37 -169 -75 0
418 -234 228 0
-305 -478 45 0
53 -133 154 0
118 64 -276 0
-243 108 -69 0
289 440 -467 0
-454 327 -449 0
-371 362 -378 0
24 307 126 0
486 6 -331 0
-147 365 -255 0
461 -402 -423 0
-154 -269 -146 0
-413 175 -241 0
-236 -421 -141 0
486 -145 -368 0
376 46 -444 0
-290 430 -306 0
93 -295 48 0
-35 -418 -15 0
218 -78 -101 0
-30 -29 361 0
-295 245 32 0
-368 293 288 0
-102 -207 -205 0
-481 300 356 0
457 116 71 0
-301 89 376 0
60 -88 -331 0
415 -90 148 0
185 -126 15 0
289 -391 443 0
431 348 40 0
158 -238 -276 0
76 -429 -209 0
-130 500 -127 0
-282 -47 -362 0
6 261 -449 0
-260 -344 -496 0
465 286 120 0
120 -137 -211 0
-283 -148 -210 0
46 -486 -258 0
241 125 62 0
301 154 111 0
375 -391 -72 0
214 -496 363 0
5 -53 -48 0
-33 -492 445 0
-143 -202 -314 0
-371 389 -407 0
-238 323 85 0
447 122 -72 0
-362 477 -108 0
195 263 273 0
228 -287 417 0
-336 209 -7 0
316 -414 -85 0
342 222 -155 0
-497 -183 -219 0
-349 325 99 0
-374 -99 -75 0
317 -494 -94 0
-435 407 -220 0
261 -290 496 0
325 -170 -33 0
-55 -256 48 0
107 -239 378 0
-266 -145 -383 0
-455 -354 131 0
-431 168 53 0
-157 341 -301 0
-358 -377 293 0
32 -269 -85 0
-334 -5 -408 0
271 185 94 0
53 304 409 0
-470 -363 -329 0
-366 -324 -120 0
415 312 -78 0
105 317 422 0
-324 -420 49 0
-368 -193 181 0
403 391 417 0
-222 472 282 0
371 -75 -376 0
-327 -185 -245 0
-228 337 85 0
-58 -132 380 0
417 321 393 0
274 -441 55 0
-185 -311 468 0
379 -194 -26 0
-429 -349 -394 0
30 47 -55 0
-22 -232 -270 0
370 -466 451 0
232 -76 78 0
-361 -298 277 0
-268 -301 -253 0
-483 -314 125 0
215 62 -357 0
73 351 416 0
-75 177 -40 0
-394 288 -269 0
148 153 121 0
-130 265 45 0
-132 -467 288 0
-10 -46 -360 0
-221 -153 500 0
376 -35 98 0
-271 -460 78 0
-483 25 -114 0
-31 -311 -479 0
424 -162 -233 0
-219 85 -324 0
334 159 181 0
-56 -133 113 0
92 251 78 0
-471 -224 -351 0
-74 -261 95 0
-175 -4 -45 0
418 288 -174 0
-399 -253 -113 0
260 -80 -114 0
441 136 476 0
409 42 -349 0
-35 -254 233 0
457 -116 421 0
-168 -6 -372 0
421 108 190 0
143 235 147 0
-402 -312 84 0
-478 -57 -299 0
-130 161 -21 0
479 230 -375 0
-241 88 -266 0
412 -466 -193 0
276 -349 -472 0
474 205 -330 0
218 -349 -228 0
-425 383 351 0
200 37 120 0
-80 -477 -494 0
-275 499 -160 0
368 347 46 0
361 -258 115 0
-452 -141 -379 0
42 417 -322 0
436 -98 -471 0
402 459 -185 0
179 -43 -79 0
-167 91 -389 0
42 391 77 0
-492 -185 380 0
112 -71 -379 0
-253 18 150 0
-326 -111 390 0
478 228 -63 0
360 -197 493 0
-361 -410 -235 0
439 -227 -476 0
-2 327 -440 0
-140 185 386 0
-252 142 -50 0
-286 -374 103 0
381 -109 -424 0
104 -242 298 0
-365 483 -42 0
8 243 -416 0
269 500 261 0
427 421 -412 0
468 341 160 0
265 156 411 0
-317 120 370 0
-140 -255 -426 0
18 -98 -187 0
431 -220 460 0
-476 -314 364 0
242 -135 378 0
386 -69 21 0
431 415 -207 0
-327 323 -33 0
9 -310 27 0
-415 239 -179 0
62 214 220 0
-26 -160 427 0
-26 127 -242 0
-18 -437 109 0
175 142 296 0
359 495 -20 0
424 251 102 0
76 -430 144 0
43 -284 44 0
-51 94 110 0
-334 -123 -50 0
-129 312 274 0
114 -163 193 0
-1 -474 255 0
286 436 -20 0
-413 148 -495 0
-270 -104 382 0
275 100 85 0
-475 6 -155 0
410 -78 188 0
-333 -400 -207 0
-361 167 -443 0
252 238 -153 0
50 -431 -470 0
137 -19 -449 0
-425 -405 148 0
183 -313 256 0
143 -268 61 0
341 323 -128 0
-464 -370 369 0
-463 -481 -450 0
110 -366 -339 0
-313 -101 85 0
-47 -278 103 0
240 172 114 0
-403 -469 -149 0
-448 -126 -500 0
58 68 413 0
289 214 -228 0
-408 -373 -402 0
-275 393 -66 0
308 437 292 0
202 -158 182 0
-353 -364 -325 0
214 -37 -146 0
76 91 -356 0
-394 12 -366 0
210 -77 268 0
454 -274 470 0
-262 -114 49 0
296 55 -182 0
-83 389 -64 0
206 265 -357 0
-420 44 -267 0
441 -338 -443 0
166 -348 62 0
-348 388 -222 0
439 381 458 0
213 -390 -237 0
76 220 207 0
-272 151 -382 0
221 237 316 0
376 -339 -492 0
-358 -343 476 0
-173 209 -438 0
-97 -415 394 0
-100 86 -54 0
-334 -77 229 0
320 -485 22 0
-227 -426 -156 0
-236 -398 217 0
189 389 372 0
-343 -139 -141 0
334 391 390 0
64 -208 -427 0
34 492 481 0
263 -179 -78 0
360 -115 -37 0
376 141 73 0
179 497 172 0
-94 -98 -431 0
-123 -380 137 0
318 473 -401 0
19 302 -207 0
-486 -343 -320 0
-125 -421 4 0
162 -409 311 0
107 -280 -183 0
-160 64 129 0
-363 -52 -30 0
-357 259 -50 0
-212 -10 266 0
-449 124 -324 0
220 407 -56 0
-229 -432 189 0
242 332 221 0
-202 -352 170 0
72 333 -121 0
-484 -269 191 0
488 -471 143 0
366 -260 391 0
-159 -109 329 0
71 -35 -107 0
396 -222 482 0
55 -466 241 0
19 -93 42 0
272 141 -118 0
-385 108 -144 0
-127 -393 -359 0
234 77 -96 0
-43 332 429 0
269 -391 225 0
-312 242 261 0
-478 -244 500 0
-410 443 182 0
-318 -86 -139 0
-40 -455 438 0
5 232 114 0
347 -408 -173 0
246 -471 19 0
5 248 -145 0
-377 226 -392 0
1 -199 21 0
-257 463 -361 0
-359 -80 495 0
258 192 272 0
250 78 -128 0
180 118 -52 0
-221 237 372 0
325 211 114 0
339 172 178 0
-370 -471 -23 0
346 -434 442 0
48 -2 -284 0
389 248 -284 0
440 -163 57 0
-423 193 358 0
14 -456 -61 0
-424 59 -348 0
457 -500 120 0
177 464 156 0
-431 -152 -430 0
-11 172 185 0
106 -392 -157 0
-167 259 380 0
331 475 -238 0
-27 21 -199 0
-273 239 -451 0
-463 -323 -99 0
-100 237 -359 0
483 151 462 0
-3 422 -487 0
204 -365 -101 0
40 -385 309 0
81 -337 96 0
-395 -194 -255 0
72 -147 306 0
195 136 -153 0
377 -182 389 0
-423 373 -399 0
14 373 -199 0
41 -69 185 0
-89 -288 223 0
153 -302 -93 0
55 -286 262 0
360 26 302 0
-393 417 325 0
-232 -297 -201 0
-384 -1 162 0
423 -147 266 0
-358 184 491 0
69 109 77 0
-110 437 235 0
-239 478 278 0
366 402 -158 0
489 -390 -404 0
-496 -424 -18 0
-443 46 432 0
112 -294 -491 0
332 23 490 0
-165 282 -390 0
-4 136 -472 0
-394 -58 -158 0
208 -303 459 0
439 266 -179 0
450 -207 -351 0
161 35 113 0
464 250 -330 0
-22 -302 442 0
-394 460 -107 0
43 404 452 0
-201 70 439 0
53 -275 26 0
-64 71 475 0
-440 176 -226 0
244 171 29 0
97 120 -203 0
-359 -481 217 0
211 484 449 0
-360 -195 127 0
-11 99 185 0
93 372 404 0
4 244 445 0
-266 137 -105 0
-351 -171 -210 0
-296 -150 233 0
41 67 354 0
186 -197 -254 0
417 321 463 0
-394 -318 -193 0
321 -396 223 0
-460 59 40 0
-333 -313 84 0
-245 -61 -415 0
59 70 136 0
304 -165 138 0
343 -6 478 0
-45 -237 -119 0
285 -442 -67 0
500 -24 181 0
332 -405 -74 0
122 373 318 0
357 -93 38 0
-138 -370 76 0
-112 144 -288 0
-24 -302 284 0
-186 -113 295 0
462 -26 -190 0
478 -68 -137 0
-214 98 191 0
-90 418 208 0
70 -467 135 0
-285 354 -152 0
-453 -387 86 0
-181 145 -131 0
-398 -310 277 0
-432 205 252 0
-462 200 -486 0
-115 471 -164 0
203 202 -366 0
21 234 -215 0
403 -66 57 0
-278 -265 -21 0
-114 74 -133 0
-186 -299 -87 0
211 35 295 0
133 404 305 0
301 243 -80 0
-389 -424 -359 0
-293 -425 -338 0
-416 438 294 0
-475 273 54 0
386 -328 -279 0
-263 -467 -167 0
-181 -5 488 0
-415 -481 -436 0
-61 354 365 0
271 -153 -21 0
-370 401 -324 0
-469 -268 -274 0
-449 -326 237 0
-127 135 302 0
-447 -481 176 0
356 369 -313 0
2 -309 73 0
-247 157 -399 0
-413 -166 321 0
-41 -455 420 0
-158 -66 50 0
424 -491 -296 0
-192 -55 -372 0
128 -271 158 0
-12 -407 -41 0
4 438 -176 0
-179 129 -224 0
233 -101 361 0
-307 -139 282 0
421 172 -212 0
-253 51 268 0
108 477 -74 0
255 -184 355 0
-409 133 -281 0
-165 185 467 0
-200 -330 246 0
407 387 -44 0
358 230 -99 0
-106 -401 -273 0
5 -238 279 0
342 240 -362 0
-301 363 -412 0
352 106 -158 0
274 -269 238 0
488 454 325 0
300 99 357 0
-215 132 -270 0
-32 -168 -377 0
300 -291 -176 0
99 110 240 0
-259 289 -367 0
213 -156 -141 0
265 124 88 0
-230 199 -200 0
69 -98 -94 0
455 408 -352 0
-152 -405 332 0
-74 -140 -334 0
-278 -37 405 0
106 293 -468 0
448 -130 -68 0
-487 -330 191 0
356 -432 -48 0
214 421 -340 0
-489 89 -287 0
446 299 329 0
161 29 -140 0
7 -57 135 0
-204 -318 -466 0
-140 -287 428 0
417 248 -135 0
109 -46 238 0
-162 -250 225 0
367 -498 338 0
81 380 -208 0
460 -247 -433 0
313 72 -418 0
-124 -255 -34 0
186 -196 426 0
384 52 -358 0
291 344 257 0
-391 105 -159 0
-417 383 -392 0
233 -440 378 0
144 280 15 0
-358 129 52 0
454 384 -190 0
-253 -366 83 0
239 -308 78 0
-210 -473 -352 0
-262 -398 283 0
384 -270 32 0
189 -96 -178 0
-365 -478 68 0
-325 32 301 0
-267 14 -361 0
325 -486 455 0
48 -110 119 0
-482 457 -208 0
-400 407 -416 0
418 416 -376 0
135 -23 193 0
-289 -92 -491 0
-464 -214 356 0
-215 -257 31 0
-364 319 -299 0
-346 -162 135 0
424 -14 380 0
-77 475 191 0
46 346 -149 0
456 -243 170 0
-407 -270 -249 0
399 -314 111 0
-253 62 -454 0
241 204 -457 0
-237 -407 116 0
-52 -49 -133 0
342 -257 95 0
391 473 -265 0
167 -370 -464 0
-158 -232 47 0
252 488 -377 0
37 398 168 0
-332 -322 -312 0
-353 -268 271 0
-354 -493 457 0
-158 -283 -489 0
-144 425 -59 0
122 65 -39 0
443 337 465 0
-153 -364 -86 0
419 -285 -147 0
-24 -374 92 0
-263 -438 -13 0
256 39 213 0
-430 -228 -355 0
-258 -459 -38 0
-114 331 154 0
284 -217 45 0
269 -463 -5 0
-25 41 458 0
-275 147 -107 0
-326 -496 -485 0
-44 -486 2 0
-187 24 -178 0
251 -196 -38 0
81 -248 141 0
170 -255 -484 0
11 429 20 0
-188 -300 444 0
52 46 425 0
-135 -71 -228 0
33 311 -298 0
-161 -157 -276 0
-45 -345 190 0
382 24 252 0
-451 130 434 0
-223 458 88 0
424 -390 -195 0
-43 136 -86 0
-467 296 431 0
357 400 303 0
-183 -25 -120 0
373 475 -112 0
37 -187 409 0
376 462 87 0
154 -428 129 0
-183 -300 419 0
477 -266 158 0
457 -181 -20 0
-339 414 270 0
-458 227 -241 0
-74 -240 -44 0
103 -281 -237 0
328 218 154 0
72 -95 407 0
450 -471 127 0
255 231 103 0
491 28 264 0
-406 297 -383 0
-347 91 -242 0
-83 -413 115 0
131 495 422 0
336 -173 469 0
-483 376 45 0
385 225 336 0
137 40 185 0
257 -254 -121 0
23 -269 488 0
411 257 -467 0
-222 83 -248 0
146 100 -128 0
167 -349 235 0
-65 263 461 0
480 -26 149 0
209 425 -57 0
358 -335 369 0
-119 -199 -115 0
-197 219 472 0
-316 -99 296 0
-486 410 67 0
-408 33 -83 0
-23 -316 296 0
-296 -130 -14 0
458 -449 241 0
-339 425 308 0
-480 486 -247 0
-84 265 -306 0
16 267 -257 0
205 477 -395 0
-222 -116 453 0
-362 27 -190 0
434 -62 -327 0
-172 -404 444 0
-190 -477 270 0
205 -451 -48 0
20 -440 172 0
328 326 -322 0
52 204 448 0
97 92 -152 0
-73 -112 -274 0
-441 63 -281 0
-215 55 -496 0
435 196 281 0
35 145 33 0
127 388 -354 0
-70 -340 -159 0
-160 304 56 0
-499 -17 278 0
-160 227 136 0
-163 -264 184 0
-141 -340 312 0
21 227 -332 0
-486 -273 298 0
458 -27 436 0
-378 23 43 0
155 -15 -448 0
-307 -210 282 0
157 -145 -358 0
369 318 34 0
-155 401 -243 0
-307 323 441 0
92 480 41 0
-446 -319 284 0
-31 -337 275 0
409 94 -403 0
-59 -221 344 0
457 -229 -90 0
-160 -85 -234 0
96 186 -48 0
246 487 -108 0
-93 109 -375 0
-364 -112 107 0
-63 135 359 0
-317 -54 -37 0
-462 -79 -387 0
-267 -460 -302 0
-95 -350 -103 0
-53 267 10 0
-224 -432 -481 0
-408 -48 388 0
468 -235 -360 0
203 291 436 0
-242 -396 185 0
-299 281 -97 0
-460 32 -402 0
-143 -278 -317 0
-216 -208 -261 0
345 283 209 0
-399 -17 -331 0
241 -292 363 0
-83 416 -146 0
-247 -230 -169 0
217 246 132 0
176 326 327 0
486 164 342 0
-292 398 -36 0
324 -363 462 0
16 -272 -75 0
-262 -150 462 0
330 -5 -101 0
184 464 -337 0
169 158 -451 0
487 24 -131 0
323 -81 105 0
134 439 -274 0
12 -332 -277 0
50 -253 -214 0
-274 -372 -428 0
-204 -413 303 0
347 -471 -367 0
-276 -374 -168 0
-372 -265 24 0
-1 383 -387 0
-316 -190 158 0
390 499 -47 0
-304 -231 216 0
-108 479 -392 0
318 -5 64 0
98 -179 -60 0
337 27 288 0
177 103 -102 0
302 316 -245 0
62 -12 421 0
-272 475 -128 0
249 91 -2 0
101 -298 490 0
-29 -376 481 0
253 117 -66 0
-315 -441 2 0
-478 122 -244 0
431 182 419 0
141 37 80 0
46 -386 465 0
313 -124 496 0
-92 -318 -178 0
487 484 -40 0
-321 -44 -479 0
437 -414 180 0
-401 480 422 0
-41 420 -399 0
-125 443 -91 0
433 -289 215 0
431 382 -157 0
-199 270 323 0
-102 -362 59 0
-105 214 -53 0
-222 -355 -166 0
115 -7 63 0
-311 -161 -420 0
71 -178 487 0
-29 340 -73 0
234 236 -485 0
444 -182 -197 0
-48 -249 455 0
-1 218 129 0
-120 113 -75 0
209 -259 -355 0
419 -406 420 0
-458 175 12 0
-304 -372 30 0
86 -478 365 0
149 417 65 0
-159 403 -152 0
-89 341 77 0
472 -123 19 0
-236 252 430 0
446 265 8 0
157 364 497 0
73 -16 -91 0
-211 245 232 0
-242 -403 -50 0
359 203 379 0
-61 -160 379 0
274 -348 437 0
423 -217 -370 0
475 492 -58 0
453 388 -492 0
395 133 361 0
-469 -125 494 0
165 140 -201 0
-14 -238 264 0
-104 -114 -281 0
110 -268 -42 0
-415 485 383 0
140 -185 -61 0
179 -234 67 0
331 -5 -442 0
96 453 -167 0
-296 -121 -429 0
488 188 -325 0
21 -446 180 0
-31 -363 66 0
458 486 230 0
41 -10 201 0
-319 1 113 0
395 -469 208 0
158 -418 -8 0
-151 -375 132 0
-500 -261 380 0
-329 -224 386 0
-153 405 -212 0
119 170 -280 0
376 -457 310 0
305 -109 -404 0
436 -21 222 0
-369 425 -102 0
474 10 325 0
422 56 -224 0
303 319 -499 0
344 -207 -10 0
407 152 -291 0
226 157 -28 0
100 254 -456 0
196 126 -380 0
-172 -79 398 0
-393 27 -176 0
231 485 3 0
82 -149 -446 0
-474 436 36 0
161 -478 -444 0
-183 -81 100 0
-121 286 19 0
392 -191 76 0
-31 -406 -69 0
388 466 8 0
414 246 449 0
-57 324 -490 0
483 -376 61 0
281 -9 -412 0
-345 84 170 0
-456 387 225 0
-229 -211 -434 0
252 286 -410 0
181 478 69 0
-284 -495 -261 0
-189 -321 -134 0
-375 276 273 0
-325 -132 458 0
-170 -378 -193 0
-100 91 226 0
-199 -102 47 0
191 -252 -414 0
-257 -464 99 0
384 222 -227 0
-447 -490 299 0
30 -428 -392 0
-151 238 -387 0
-229 445 454 0
39 -29 331 0
122 -83 -442 0
-369 -20 253 0
471 473 283 0
-477 -84 -42 0
-190 -453 -255 0
-448 321 237 0
-362 155 470 0
-173 126 438 0
389 41 362 0
76 185 156 0
-342 -70 -121 0
-495 -113 218 0
460 101 178 0
44 -357 -236 0
266 -63 -85 0
-336 33 137 0
10 167 165 0
482 418 309 0
217 222 162 0
-130 110 -198 0
139 -351 219 0
383 -387 171 0
-83 179 -215 0
301 195 432 0
-446 213 463 0
116 -259 -319 0
-354 -194 270 0
-325 -50 -452 0
233 6 110 0
369 -391 -358 0
174 333 4 0
-293 210 -471 0
81 -278 122 0
-391 -133 -292 0
-461 -149 346 0
57 -297 -256 0
289 32 335 0
-328 -209 -338 0
-347 36 -441 0
361 -229 -236 0
-138 378 386 0
-295 -81 -112 0
-228 -183 -209 0
-90 -288 75 0
-227 321 -52 0
-191 120 139 0
97 -187 -166 0
-294 132 38 0
-345 -274 -167 0
-34 -370 -382 0
332 -68 485 0
99 -173 -390 0
266 -202 479 0
-137 184 248 0
-399 -108 268 0
164 -452 88 0
-293 -166 366 0
233 -145 359 0
-268 159 -299 0
80 183 -440 0
-13 247 -335 0
14 157 -53 0
57 -313 -306 0
259 371 -283 0
134 -360 -152 0
220 -271 486 0
-47 347 152 0
340 200 387 0
-403 -219 -41 0
-63 366 -263 0
455 427 -422 0
-488 494 162 0
-199 -184 32 0
-293 -128 65 0
-291 98 326 0
-2 414 320 0
444 -210 448 0
-442 338 278 0
-86 -28 158 0
225 264 -121 0
-61 177 64 0
-202 66 -238 0
-342 -14 -120 0
-205 270 326 0
-113 -208 -463 0
404 311 -129 0
-180 211 200 0
-398 -92 134 0
368 169 -258 0
13 88 187 0
-460 -20 -384 0
61 -154 152 0
-487 -119 68 0
101 -260 323 0
-86 436 497 0
6 205 -220 0
368 -415 -441 0
-432 24 -344 0
-26 -116 -468 0
-497 52 -252 0
-462 -358 66 0
131 494 -329 0
379 -477 -128 0
71 388 -316 0
473 -309 32 0
314 40 355 0
-229 155 86 0
253 415 -308 0
356 -71 -39 0
-88 190 -268 0
-287 -136 -274 0
122 495 147 0
27 154 -187 0
355 85 425 0
-220 -354 485 0
-398 201 13 0
167 302 412 0
-150 -316 -8 0
-13 207 -263 0
-250 -392 -91 0
-268 -11 -465 0
25 320 -47 0
-441 -152 -304 0
481 -257 377 0
-30 212 276 0
-292 349 327 0
-366 264 -336 0
-156 -146 78 0
-137 316 211 0
93 449 -135 0
412 44 419 0
172 -288 -14 0
237 455 -437 0
146 345 77 0
343 394 440 0
33 -188 310 0
-486 265 302 0
143 384 79 0
-114 130 -435 0
-25 -411 212 0
-393 462 -48 0
253 -228 -99 0
488 -403 124 0
306 440 193 0
-251 -230 -480 0
-269 -372 349 0
53 320 -25 0
492 -224 476 0
336 424 444 0
137 488 165 0
-48 -208 -152 0
-495 463 -96 0
-490 -216 114 0
-158 294 -351 0
107 -319 -296 0
-53 -299 29 0
126 -115 78 0
465 -462 -481 0
-230 -353 -220 0
482 -13 362 0
449 -419 437 0
-305 70 165 0
35 43 -163 0
215 167 350 0
-358 72 -142 0
216 -137 170 0
-410 493 76 0
241 124 -435 0
426 45 166 0
307 15 457 0
-361 -37 43 0
-40 285 -44 0
308 -475 142 0
486 -263 178 0
-52 177 200 0
51 -134 -421 0
-41 478 -181 0
400 -203 -155 0
-460 -455 496 0
31 -384 -203 0
-302 331 78 0
-142 165 -479 0
-214 351 139 0
-12 -243 230 0
-320 247 -112 0
-196 299 -90 0
132 481 -50 0
-224 -443 -21 0
447 225 -387 0
428 -284 -1 0
-50 -165 -124 0
155 393 245 0
-423 -195 -277 0
336 32 -228 0
452 -304 -175 0
129 412 370 0
14 421 104 0
-196 -338 -138 0
159 323 -317 0
-404 414 -445 0
11 -243 -425 0
-410 -222 -242 0
-311 128 124 0
186 249 173 0
481 -500 -301 0
-197 137 246 0
-60 485 453 0
-477 -35 34 0
-410 443 -422 0
302 114 201 0
17 90 68 0
-263 479 150 0
477 -236 233 0
-175 -400 -438 0
408 -445 -13 0
-485 -190 63 0
200 -392 144 0
115 339 -393 0
-438 434 21 0
379 362 -63 0
195 -329 273 0
145 485 63 0
-85 179 -197 0
313 -495 -296 0
-296 47 -382 0
265 296 -253 0
445 162 -289 0
-224 -114 81 0
-140 -464 -493 0
-405 191 -300 0
460 -291 -147 0
-340 287 -447 0
-66 -115 -428 0
114 -406 -167 0
-337 -83 106 0
260 -413 -211 0
-12 16 -363 0
170 -22 134 0
-133 60 333 0
26 19 264 0
-21 -323 -386 0
-233 322 219 0
388 -95 39 0
-163 372 436 0
167 496 452 0
109 128 -273 0
439 62 195 0
264 -225 -186 0
287 126 343 0
-311 -441 211 0
-289 154 282 0
318 118 -110 0
-338 486 104 0
-127 -141 388 0
-68 -480 195 0
-194 -463 279 0
384 112 -238 0
-109 239 -209 0
-498 -368 -229 0
331 376 231 0
459 -430 113 0
-87 359 110 0
486 -457 12 0
448 144 82 0
-41 404 -131 0
442 -39 308 0
167 -276 45 0
-128 19 -199 0
-332 -205 142 0
-9 276 48 0
-270 141 -163 0
399 -107 -109 0
165 263 -220 0
-33 -191 118 0
-127 -471 177 0
63 -485 -66 0
275 414 -240 0
-404 -473 -429 0
-158 -450 -422 0
-455 -148 -75 0
493 -194 -80 0
-224 71 -496 0
-182 143 -50 0
69 221 227 0
452 190 136 0
-194 -403 236 0
-201 420 376 0
224 174 -482 0
-135 33 -193 0
-441 -155 -393 0
456 39 244 0
-119 -414 57 0
-491 252 300 0
-407 -400 -37 0
-80 355 -203 0
-407 -485 -293 0
172 -201 -262 0
-498 392 -422 0
-136 83 85 0
267 -56 -155 0
342 -179 486 0
-78 394 351 0
115 347 -87 0
317 -43 -300 0
402 299 8 0
208 465 25 0
-155 194 -328 0
56 -188 -338 0
387 101 -355 0
193 367 350 0
-134 -285 -402 0
373 -306 300 0
416 359 -76 0
311 124 24 0
-481 239 -412 0
401 -387 212 0
323 243 -195 0
-343 337 -155 0
271 379 -468 0
-468 -304 323 0
463 -17 -331 0
-142 -448 -204 0
-413 265 125 0
-443 45 -48 0
-159 -218 83 0
450 -483 -418 0
-278 -345 56 0
-217 -152 -104 0
140 -334 -440 0
-389 -479 334 0
213 -345 97 0
-159 246 22 0
-421 -336 -89 0
-12 328 171 0
15 365 -392 0
-275 82 193 0
418 -268 -375 0
442 -93 100 0
153 -60 -67 0
-474 -357 -414 0
431 61 235 0
71 -498 -1 0
-266 -99 6 0
387 -258 103 0
-357 162 -225 0
375 -217 391 0
144 295 -131 0
361 -311 -209 0
-355 -450 177 0
-88 45 -15 0
-74 180 -390 0
-14 -118 -204 0
362 347 438 0
110 160 -28 0
375 25 167 0
200 -142 311 0
422 432 -10 0
-499 -363 -270 0
-464 344 -136 0
292 -253 -408 0
324 170 -419 0
-224 -109 -360 0
451 -377 -405 0
29 67 315 0
196 -275 -397 0
184 440 373 0
223 -40 -76 0
-222 -495 265 0
-40 -157 -405 0
-122 -493 465 0
-86 192 393 0
251 423 268 0
-460 -339 -372 0
-73 164 -24 0
348 14 296 0
166 298 -184 0
-450 -126 -481 0
209 -237 -143 0
361 467 -469 0
488 -470 -110 0
-113 454 -137 0
129 -87 140 0
-109 71 -304 0
-250 169 362 0
123 -34 470 0
-358 324 -14 0
416 -495 464 0
-263 -305 -396 0
-453 273 240 0
-499 -354 -123 0
-439 201 -360 0
202 393 307 0
102 223 308 0
-288 -438 77 0
172 -146 400 0
-369 -9 -56 0
-65 -152 -285 0
-156 197 -391 0
103 265 -496 0
471 317 266 0
187 160 -305 0
-161 451 290 0
-286 272 -54 0
-388 149 463 0
394 285 428 0
-276 143 134 0
-287 332 218 0
397 280 36 0
-337 -13 165 0
138 -194 -14 0
-242 342 434 0
258 -288 -246 0
-212 296 -498 0
148 -162 145 0
28 456 5 0
362 -8 -67 0
446 -43 75 0
-278 32 375 0
476 -401 477 0
251 40 199 0
224 -301 237 0
122 -239 78 0
93 243 -468 0
-83 -286 -500 0
-203 110 -287 0
469 -430 -386 0
-79 -65 -112 0
-37 419 12 0
-451 -336 33 0
-72 -321 -122 0
408 -2 266 0
500 295 -333 0
-249 471 339 0
221 -205 -398 0
394 -369 -248 0
-397 -308 -469 0
266 499 76 0
224 364 273 0
454 -145 -226 0
-165 -109 359 0
-130 -488 291 0
-17 309 -83 0
375 -148 232 0
361 -280 -156 0
494 -236 -14 0
-424 -311 -383 0
-226 -317 127 0
143 -285 474 0
178 259 260 0
324 -64 -206 0
-235 -334 -250 0
54 108 -365 0
305 388 -216 0
322 492 -396 0
3 -297 26 0
-382 -339 -199 0
115 207 -7 0
-66 200 270 0
228 -235 -391 0
-444 58 -373 0
50 248 267 0
-157 -435 -53 0
235 -42 -158 0
322 -196 295 0
-465 -344 -3 0
-345 -192 120 0
65 -4 -315 0
425 493 -341 0
-95 -28 116 0
360 44 327 0
149 131 440 0
-65 -390 -51 0
-54 403 88 0
65 224 -385 0
125 -211 -378 0
298 -142 329 0
-169 222 472 0
-296 -289 422 0
114 348 -289 0
-149 480 48 0
-300 -437 -284 0
-22 396 174 0
410 381 282 0
389 -243 218 0
91 305 -474 0
185 -448 -76 0
-344 -431 343 0
469 -5 151 0
89 12 -333 0
-392 498 -119 0
347 22 -305 0
