p cnf 200 869
52 -107 150 0
-18 123 151 0
152 -157 -99 0
50 158 -62 0
-33 40 35 0
172 73 62 0
-134 -111 -42 0
65 -164 17 0
147 -50 -184 0
50 -167 195 0
140 100 177 0
82 63 130 0
33 -173 165 0
-75 108 -178 0
-120 49 162 0
-193 145 118 0
115 184 125 0
4 96 15 0
173 -199 -123 0
-47 44 23 0
86 -91 129 0
20 46 129 0
-86 169 -176 0
134 -123 16 0
-158 134 -119 0
68 -10 -166 0
37 68 49 0
-98 -59 -111 0
169 199 63 0
-82 34 117 0
197 176 -130 0
171 181 -101 0
-25 134 50 0
193 200 188 0
4 54 -144 0
27 182 -45 0
155 -10 123 0
30 4 33 0
-169 -23 193 0
-97 171 -155 0
107 -89 -191 0
141 -31 -66 0
146 175 -85 0
155 83 -15 0
193 147 -53 0
-85 -187 -190 0
-178 -182 -168 0
28 12 19 0
64 -187 -185 0
56 78 139 0
-87 -193 18 0
126 34 -106 0
44 -62 -59 0
143 178 -7 0
39 168 125 0
144 -134 18 0
4 58 103 0
-64 -52 -157 0
28 -195 26 0
-97 44 -170 0
-60 -3 -28 0
107 -77 -30 0
18 -190 -50 0
-26 96 -27 0
-31 -177 -153 0
29 94 70 0
173 48 150 0
-190 -172 -189 0
-1 -103 129 0
31 156 -54 0
-184 24 138 0
115 -165 -145 0
155 178 -25 0
-155 194 189 0
-160 -46 -184 0
186 180 99 0
-123 -166 105 0
-115 50 170 0
-6 103 -10 0
130 126 -88 0
-41 67 -141 0
-143 53 -81 0
146 82 144 0
-65 67 121 0
-96 139 117 0
-155 61 -98 0
165 40 -7 0
65 175 37 0
27 -91 -76 0
76 172 9 0
-172 -154 -76 0
-68 -24 -165 0
-133 -25 -68 0
51 169 193 0
-9 -103 146 0
-35 172 134 0
35 67 -135 0
105 43 18 0
-181 -18 -184 0
-63 -82 -49 0
45 178 111 0
185 37 140 0
140 -197 13 0
3 -17 151 0
80 118 199 0
-39 -141 15 0
134 -192 169 0
99 -53 172 0
129 -100 -118 0
-168 -132 -152 0
-188 9 -57 0
63 68 -122 0
8 151 -22 0
-17 -131 -53 0
-192 -179 -1 0
32 -120 188 0
-38 -80 -137 0
-99 -30 91 0
186 194 143 0
-81 -92 -6 0
112 -41 106 0
96 135 92 0
75 86 112 0
-189 -138 170 0
-74 153 33 0
-115 194 -58 0
-79 112 148 0
108 139 -39 0
68 150 20 0
141 17 166 0
-24 104 -34 0
-95 41 13 0
-20 -135 -169 0
162 -18 -157 0
-95 32 -183 0
56 36 -113 0
-164 98 169 0
197 139 -155 0
-113 -119 142 0
136 111 -61 0
33 113 -39 0
-143 133 -37 0
-177 -85 180 0
18 80 78 0
160 154 -24 0
-61 116 136 0
-186 93 72 0
146 -123 5 0
-21 68 -186 0
-41 43 195 0
-20 46 -48 0
-47 -60 200 0
-133 -19 109 0
-19 -3 149 0
106 112 8 0
92 -145 166 0
-110 -114 -37 0
-167 -173 154 0
-80 -132 -18 0
115 154 108 0
-191 149 90 0
24 -43 20 0
-113 120 -199 0
48 -10 -22 0
143 -101 -79 0
198 111 -164 0
-1 169 -67 0
92 115 44 0
-167 28 68 0
-84 -92 -168 0
-41 191 117 0
96 -104 57 0
170 -96 -194 0
129 200 -84 0
-62 1 152 0
-114 37 -110 0
51 -55 111 0
-117 -85 -68 0
-52 -15 -142 0
111 81 -107 0
30 48 111 0
32 -72 89 0
-149 -25 47 0
-111 135 -153 0
185 2 -37 0
57 -200 134 0
-192 -99 -17 0
-52 10 198 0
100 187 -15 0
136 -46 171 0
-128 -20 -196 0
44 -139 120 0
170 68 188 0
29 25 154 0
35 -151 -125 0
56 -21 33 0
-103 165 -105 0
-6 97 37 0
-88 77 29 0
164 -28 -83 0
-125 103 65 0
195 162 -96 0
88 43 -84 0
197 151 15 0
-147 27 -160 0
-39 162 -185 0
-116 44 82 0
-84 45 -168 0
140 29 21 0
134 176 153 0
91 114 115 0
35 22 -154 0
170 -50 46 0
37 -35 -8 0
66 86 158 0
-3 102 182 0
-23 103 -110 0
100 76 -109 0
133 -129 122 0
-106 190 -59 0
-125 -101 137 0
76 -57 -129 0
135 -172 -139 0
-156 162 152 0
-65 -113 41 0
200 -140 -91 0
-147 -18 -111 0
-42 -142 171 0
-33 133 157 0
154 84 -177 0
-43 200 -155 0
154 -70 -21 0
115 -193 -184 0
116 -55 113 0
-29 -14 37 0
13 -1 21 0
24 -52 -57 0
127 -192 139 0
-178 -159 -55 0
132 -100 -22 0
66 195 9 0
-154 139 -171 0
71 87 -142 0
87 116 12 0
200 -11 -183 0
55 -63 148 0
-40 -171 -169 0
-65 -67 -54 0
149 -73 -93 0
11 194 13 0
-122 -54 -102 0
13 126 -4 0
-122 -13 -28 0
-6 143 53 0
128 -156 -175 0
34 156 -109 0
-41 -78 159 0
134 126 -100 0
-66 3 -36 0
-86 -87 -165 0
90 -177 82 0
14 158 -157 0
75 -200 -131 0
25 -114 123 0
-117 -161 53 0
-27 113 -88 0
182 -46 31 0
-8 77 -17 0
32 -160 -107 0
-182 -51 13 0
-7 136 178 0
-169 -67 -20 0
9 -82 -111 0
-156 -49 -85 0
131 7 -118 0
6 47 -102 0
71 -144 -180 0
36 -113 95 0
105 30 74 0
100 194 195 0
170 160 28 0
-26 47 -19 0
200 173 -166 0
-52 164 76 0
-22 -152 -63 0
54 117 14 0
43 172 -170 0
-31 124 -70 0
38 -193 37 0
-182 -85 -175 0
109 67 -30 0
-185 189 196 0
68 144 194 0
114 -64 -99 0
107 61 121 0
26 -79 155 0
-162 -24 144 0
193 -133 159 0
119 152 26 0
132 -140 -128 0
10 13 -9 0
8 1 58 0
-134 101 142 0
-55 22 -11 0
-38 48 92 0
64 -121 -168 0
62 200 -188 0
-111 -77 107 0
37 10 171 0
-151 -108 -183 0
172 -197 113 0
-44 -136 185 0
93 -66 -83 0
-166 125 146 0
162 -50 -85 0
89 144 -195 0
77 -68 136 0
176 32 -95 0
9 74 -90 0
-65 -4 -132 0
-97 -37 -82 0
73 12 102 0
6 -9 71 0
-112 22 61 0
98 -159 151 0
-142 15 -167 0
66 -42 -129 0
57 -49 -161 0
-186 -177 85 0
44 81 -143 0
163 158 149 0
-102 -112 104 0
156 -138 83 0
-182 -5 -52 0
192 18 -24 0
9 -155 20 0
119 -121 37 0
5 -180 -145 0
-109 193 -164 0
173 -9 32 0
88 -21 65 0
-95 -27 -103 0
8 -49 130 0
-49 -11 -87 0
-93 153 7 0
42 -165 72 0
195 -161 -23 0
-162 -37 -143 0
-165 -115 -55 0
-14 -127 116 0
-198 68 -35 0
-138 8 -153 0
-66 172 126 0
-8 128 -64 0
-131 184 139 0
7 -168 -31 0
85 82 200 0
-76 123 140 0
-92 103 167 0
-140 -143 182 0
-190 95 138 0
132 -70 66 0
20 164 -170 0
-135 30 192 0
25 99 49 0
-105 -188 167 0
23 7 111 0
-62 -49 -160 0
-185 86 -149 0
126 -94 -35 0
-152 -4 60 0
192 124 -35 0
-98 66 -89 0
-116 -198 -183 0
134 132 37 0
187 48 -74 0
-104 137 -118 0
77 17 -34 0
115 65 -112 0
-30 -112 91 0
185 77 -56 0
82 -141 -163 0
-127 -194 43 0
-115 43 59 0
27 -82 -137 0
-96 -184 -9 0
32 -33 30 0
-56 -60 -20 0
-158 17 -61 0
109 101 13 0
-11 150 -98 0
55 169 161 0
-154 -189 -55 0
191 -49 -87 0
69 120 15 0
167 -48 -13 0
-154 147 161 0
56 -133 140 0
195 -57 -90 0
198 -150 15 0
113 37 88 0
175 39 11 0
156 -197 98 0
-38 -167 25 0
-11 -154 158 0
-178 108 -198 0
-194 -167 63 0
-85 -118 -185 0
-191 195 -172 0
93 190 194 0
-22 183 163 0
16 -119 31 0
-92 -66 -68 0
-135 -23 -43 0
163 -42 13 0
-63 43 34 0
-69 -164 -178 0
14 -83 -119 0
-60 9 39 0
198 -91 -68 0
88 -178 -143 0
-44 -110 -5 0
-6 -191 44 0
160 -87 129 0
161 -70 -27 0
14 -154 68 0
119 136 -27 0
200 150 168 0
-42 -31 -19 0
30 177 100 0
-162 68 135 0
-18 -191 42 0
-65 91 90 0
67 -183 -102 0
26 -100 71 0
-194 74 -157 0
-35 34 -127 0
176 -167 -152 0
50 20 -114 0
33 63 195 0
148 171 154 0
-171 -106 118 0
30 33 -114 0
-74 -17 20 0
145 -87 -119 0
-150 20 166 0
95 -26 -142 0
32 199 -59 0
142 134 -138 0
182 52 -192 0
22 -26 -122 0
-97 137 116 0
119 -55 -129 0
112 -194 42 0
99 145 -29 0
185 33 -190 0
196 -142 17 0
74 70 -140 0
-66 114 -175 0
-149 -77 -121 0
-188 -11 -85 0
-145 147 76 0
-149 58 47 0
-105 81 -133 0
-98 83 142 0
152 -175 -115 0
65 -26 -150 0
-152 76 -137 0
-113 -138 76 0
-37 -12 52 0
-157 166 70 0
-63 19 115 0
65 64 -112 0
1 43 -196 0
57 4 82 0
-4 170 -2 0
-148 188 -146 0
-95 45 -115 0
-79 -137 103 0
105 -57 -2 0
-60 163 135 0
-187 -125 -155 0
-118 -51 -180 0
70 122 59 0
36 72 -15 0
158 -155 30 0
162 -24 -132 0
65 -145 -182 0
153 -118 -111 0
151 -112 -120 0
148 -158 -189 0
171 58 -138 0
122 -98 -36 0
106 138 141 0
40 -76 183 0
-81 64 -57 0
189 163 -121 0
-88 59 -104 0
95 -59 152 0
154 28 116 0
136 152 74 0
-32 97 176 0
59 -161 86 0
139 -78 -136 0
-21 148 -70 0
155 -115 -12 0
-45 -18 73 0
-143 -26 37 0
45 38 -140 0
199 172 157 0
36 195 17 0
32 -186 59 0
-89 -167 -15 0
52 -89 142 0
-85 90 115 0
127 12 195 0
-119 -169 -17 0
-175 53 -120 0
-178 -179 -198 0
85 -171 -195 0
-116 186 182 0
-161 170 75 0
25 -113 147 0
-69 31 18 0
-142 162 45 0
43 -16 102 0
170 -40 100 0
-139 -165 19 0
146 197 -168 0
-53 37 -27 0
20 -136 -74 0
-172 -178 144 0
90 -26 193 0
-200 173 -65 0
-174 199 79 0
-102 -66 -168 0
12 45 38 0
-133 -96 -13 0
-130 -25 92 0
-152 185 -4 0
62 97 18 0
153 123 -163 0
70 -101 56 0
-135 126 -111 0
-108 162 -27 0
97 87 -53 0
163 -70 -4 0
87 -150 80 0
23 -99 -185 0
-162 75 73 0
-175 -56 -160 0
-148 139 -146 0
-112 25 138 0
17 -154 -24 0
161 119 -129 0
148 77 130 0
59 197 -141 0
164 -170 118 0
39 -106 108 0
-33 -88 -148 0
143 200 196 0
139 84 89 0
-15 -71 121 0
35 28 -33 0
-152 -173 115 0
-161 -67 -121 0
135 -168 -78 0
-157 -80 -88 0
-119 -35 188 0
177 -127 56 0
120 -121 111 0
164 -145 72 0
-100 -2 83 0
110 91 -61 0
26 -158 99 0
140 85 194 0
-81 130 155 0
-78 81 150 0
-111 200 -32 0
-39 141 -138 0
-173 6 -174 0
21 -185 30 0
121 53 -97 0
-59 -101 11 0
-173 -71 -152 0
-77 -156 83 0
73 142 135 0
-171 -186 -140 0
147 -102 153 0
120 59 174 0
149 146 17 0
24 29 48 0
118 -167 179 0
32 167 -130 0
125 -37 -103 0
119 -177 51 0
31 111 -27 0
-29 -121 -70 0
193 27 -199 0
32 -1 159 0
-77 93 106 0
-11 154 121 0
61 -69 43 0
-195 -5 -25 0
-105 -64 -185 0
-93 137 -131 0
-167 -155 181 0
-143 -101 -135 0
149 32 -152 0
-164 -142 -60 0
-60 118 36 0
-64 161 94 0
-33 -93 -75 0
3 52 192 0
131 151 1 0
-123 150 -138 0
-125 -198 -98 0
66 -146 51 0
-170 -44 -166 0
-95 154 129 0
-132 121 51 0
132 -70 -52 0
107 -54 156 0
73 -183 163 0
118 44 65 0
52 95 94 0
-67 45 85 0
103 -42 -183 0
166 53 -156 0
-149 -93 -28 0
196 86 115 0
179 149 -148 0
-56 52 -189 0
-101 -144 -78 0
-149 -13 186 0
141 -26 -200 0
134 -52 -102 0
159 25 156 0
193 115 176 0
-80 4 -89 0
-108 58 -12 0
50 -118 -18 0
10 94 -4 0
-75 82 24 0
94 160 90 0
-114 145 -146 0
-182 -87 121 0
167 156 154 0
-74 111 137 0
-153 137 -19 0
53 -16 -104 0
174 -89 13 0
159 -167 -116 0
49 -137 42 0
188 -33 124 0
107 29 -101 0
-148 164 50 0
-65 -178 115 0
-116 -51 98 0
-194 102 87 0
-8 96 89 0
-142 -109 122 0
-97 -63 -191 0
-119 -31 27 0
-70 134 165 0
-44 -37 -90 0
-4 -168 72 0
-8 102 -87 0
81 -157 169 0
90 -157 -15 0
-89 -194 -106 0
22 140 85 0
-112 87 -35 0
-45 -140 -44 0
-66 -196 88 0
-161 -13 -135 0
123 -72 -21 0
-150 -38 -112 0
83 -141 -76 0
-150 -25 54 0
-43 86 -89 0
-181 -107 -138 0
163 -48 190 0
32 20 81 0
156 -168 -71 0
-154 -24 58 0
71 192 66 0
-109 -127 -144 0
-139 -127 -173 0
73 -33 98 0
183 192 -165 0
-73 -130 178 0
-64 163 40 0
-141 -189 -87 0
193 157 142 0
7 -188 -191 0
80 142 31 0
160 199 187 0
32 149 138 0
135 120 -67 0
-160 36 172 0
-100 34 15 0
-7 -143 -42 0
-62 -91 45 0
33 -81 103 0
50 -38 39 0
113 122 -187 0
-46 -124 -158 0
-116 -133 -123 0
-2 52 132 0
25 -12 -101 0
66 68 33 0
-31 154 100 0
134 29 111 0
55 127 63 0
-60 -167 70 0
-14 121 -66 0
-164 31 74 0
162 -153 -96 0
-15 -84 183 0
-151 102 -159 0
61 181 -114 0
-65 -51 66 0
102 -199 -40 0
-140 -7 -127 0
122 192 -4 0
-116 -155 63 0
188 -171 189 0
143 142 199 0
15 -199 105 0
-17 -127 -79 0
120 76 -157 0
-89 -125 50 0
173 169 -4 0
190 126 136 0
87 -69 -91 0
-105 -36 -96 0
-23 137 78 0
196 183 24 0
-112 -189 84 0
-187 133 -17 0
93 -162 -56 0
-113 101 -56 0
79 59 -42 0
90 -106 -58 0
-193 132 161 0
-78 117 123 0
-131 71 -137 0
191 114 9 0
-119 -11 97 0
162 64 -83 0
194 18 -83 0
-148 97 -13 0
50 -174 71 0
-44 -165 -129 0
-145 -151 -13 0
-28 -108 56 0
16 -199 -83 0
33 32 -73 0
57 158 143 0
-144 110 118 0
9 -46 200 0
-199 82 186 0
125 -16 129 0
88 -144 -79 0
-20 -41 16 0
190 128 4 0
28 149 -16 0
-86 47 -103 0
89 -90 149 0
76 -77 95 0
44 52 -4 0
-148 -89 129 0
-171 182 78 0
42 16 30 0
110 -17 74 0
26 70 9 0
-90 -149 173 0
76 -15 -27 0
-104 -149 -127 0
4 -135 -169 0
75 19 -135 0
80 67 -173 0
-56 53 196 0
-23 40 -56 0
-193 -191 97 0
-109 -48 127 0
37 -113 122 0
-131 64 -24 0
126 38 -135 0
-185 152 68 0
-183 -41 145 0
-163 -22 47 0
127 -66 58 0
-124 -150 145 0
-93 16 -66 0
-93 38 161 0
-56 -10 100 0
144 -162 -129 0
-48 180 104 0
29 101 132 0
171 75 -49 0
-180 -142 82 0
-190 -89 -160 0
-162 -150 31 0
-118 57 -142 0
97 192 61 0
48 98 139 0
104 176 121 0
-28 178 18 0
-166 -5 -120 0
-139 -131 -43 0
-138 106 66 0
-95 78 -79 0
164 -82 -30 0
138 -172 102 0
87 -160 172 0
163 -111 59 0
-105 -55 42 0
-150 -187 -186 0
1 -114 -80 0
-23 29 1 0
-31 3 -120 0
2 49 23 0
-106 -109 -40 0
86 -54 -71 0
-59 191 -31 0
52 -45 149 0
-16 -156 168 0
86 -176 -3 0
-3 -57 -85 0
-11 21 44 0
43 80 -12 0
-197 186 -24 0
51 157 37 0
-83 74 -13 0
-111 -140 -181 0
68 96 26 0
-132 -152 116 0
137 146 115 0
184 -72 -86 0
-35 88 67 0
-92 11 -173 0
-56 -64 -139 0
101 149 53 0
-130 97 65 0
-61 -170 -135 0
56 -12 -172 0
106 167 -14 0
-170 9 173 0
34 -36 -10 0
196 -85 115 0
-142 -180 44 0
-4 -88 175 0
60 132 -187 0
83 -150 -186 0
-20 92 -69 0
175 81 147 0
-168 -43 -50 0
-107 154 -1 0
-79 8 -46 0
160 -40 -141 0
107 -190 147 0
-4 41 -145 0
-157 168 87 0
103 104 -21 0
7 169 -80 0
101 -156 -107 0
120 -195 -65 0
