p cnf 100 484
49 19 -46 0
24 -92 -98 0
-69 20 -49 0
-41 -37 71 0
79 5 22 0
24 -11 79 0
-63 22 -76 0
-99 1 -84 0
6 30 -27 0
-51 58 96 0
-34 59 87 0
22 -100 -66 0
9 31 26 0
-58 -18 87 0
-9 -16 6 0
52 -29 -73 0
62 96 58 0
32 69 66 0
-11 27 18 0
-78 17 6 0
-17 -39 -42 0
55 -1 18 0
54 7 -51 0
29 66 -91 0
-73 35 68 0
-15 -6 97 0
33 -18 -68 0
20 -85 -21 0
47 -63 21 0
61 -65 76 0
98 -3 -55 0
-19 53 -55 0
-7 6 -95 0
-63 -48 70 0
42 -80 -8 0
46 11 -31 0
13 38 -78 0
100 18 28 0
32 23 33 0
-70 -62 -11 0
-1 -18 -84 0
11 18 -80 0
-98 -68 -97 0
44 38 16 0
12 3 9 0
37 -92 -35 0
60 -85 -30 0
29 -39 54 0
-18 -90 -63 0
-46 75 -94 0
-4 100 32 0
82 -77 -35 0
21 51 45 0
18 -90 82 0
-2 -87 36 0
36 14 -4 0
-7 -32 69 0
-26 63 -100 0
-65 44 98 0
10 -46 48 0
-98 12 -70 0
-15 -24 87 0
-51 -63 62 0
-35 -2 -79 0
97 -46 -28 0
-72 -36 -86 0
-79 10 -54 0
-62 -22 -67 0
-72 98 61 0
-21 -61 -80 0
40 90 92 0
68 -25 77 0
-13 -27 91 0
38 85 90 0
-2 31 16 0
36 91 -92 0
-2 -73 -44 0
56 83 -46 0
40 64 93 0
-78 95 -93 0
-94 77 81 0
-58 -99 -47 0
28 56 -11 0
53 -10 -22 0
-17 -57 86 0
54 -93 67 0
93 92 -80 0
89 24 -23 0
-94 47 68 0
-62 65 -87 0
21 -82 27 0
84 -96 -25 0
-60 56 -94 0
77 -47 -12 0
-96 63 87 0
-83 85 63 0
-67 -58 5 0
50 -6 1 0
30 -39 -95 0
45 -35 1 0
11 -99 79 0
14 -83 -66 0
99 59 -92 0
52 -4 -18 0
67 -44 64 0
-96 79 56 0
-40 72 41 0
76 88 -27 0
38 -13 -1 0
44 -100 45 0
1 25 -10 0
4 60 81 0
81 -58 86 0
-93 -9 5 0
59 -82 -47 0
61 64 -17 0
87 36 19 0
9 -48 62 0
-16 99 -65 0
83 93 20 0
86 56 -59 0
5 -88 -20 0
-23 73 -38 0
18 45 -30 0
-94 62 5 0
98 9 22 0
-27 23 -55 0
53 -94 -91 0
-7 15 -84 0
36 13 62 0
-86 -89 -32 0
20 70 -42 0
2 -46 47 0
-95 -48 -29 0
3 45 -22 0
-53 21 72 0
91 -76 -57 0
83 35 -9 0
10 -94 64 0
-48 30 39 0
87 -81 -78 0
-20 11 4 0
-84 58 -1 0
5 -29 -24 0
-8 84 -78 0
87 -20 -53 0
44 67 -19 0
-31 -66 88 0
-76 57 -68 0
-11 50 52 0
-86 -29 -93 0
-44 -63 37 0
-14 41 94 0
-66 -58 -24 0
12 -62 -96 0
-81 10 44 0
-53 -8 -18 0
-42 55 14 0
88 22 83 0
-38 33 11 0
8 -76 28 0
16 -38 -99 0
-60 -26 -97 0
10 83 -54 0
42 76 -58 0
81 -25 4 0
-35 -54 80 0
67 76 7 0
-73 -8 95 0
70 -66 96 0
-56 59 51 0
-45 -66 17 0
95 -21 -77 0
51 24 26 0
-4 -27 -15 0
-24 51 88 0
15 -40 -56 0
25 -75 21 0
-39 -29 26 0
66 77 -56 0
6 -60 -88 0
-4 52 16 0
55 -53 -92 0
42 89 -16 0
-28 -6 -25 0
7 -11 -9 0
-31 50 -16 0
-9 -50 -77 0
84 83 28 0
52 -69 -63 0
67 10 -87 0
82 -7 -91 0
-97 63 90 0
72 -63 -81 0
50 -45 -35 0
-53 -21 -23 0
28 -56 -87 0
82 -95 86 0
-4 77 -99 0
-86 -33 -34 0
-48 78 -15 0
8 -70 -63 0
-36 -39 -79 0
-42 -68 67 0
43 -21 -77 0
-72 -21 -55 0
72 19 -68 0
-47 -84 78 0
74 37 -4 0
40 -7 -6 0
66 32 10 0
29 -16 -32 0
-34 58 95 0
20 -25 24 0
-74 77 32 0
41 99 55 0
62 88 -50 0
58 19 63 0
70 7 78 0
47 68 75 0
35 -84 -4 0
-34 -54 -41 0
-61 -86 80 0
-33 -80 18 0
-48 65 97 0
53 -89 -73 0
-34 60 -53 0
99 6 43 0
-73 -4 -74 0
-46 -35 -20 0
39 -20 -82 0
48 30 14 0
17 -69 -43 0
76 -35 17 0
-45 -11 98 0
68 36 -43 0
-83 -30 -25 0
74 6 -77 0
-76 -41 25 0
89 -16 -31 0
-23 -93 54 0
67 -52 -59 0
-79 96 -41 0
-75 -56 -3 0
7 75 6 0
13 -59 96 0
16 -56 91 0
-88 -84 100 0
87 1 47 0
1 -53 -24 0
-69 -34 38 0
82 -65 90 0
19 -20 78 0
22 11 -77 0
-10 -78 72 0
33 70 -20 0
29 -45 -35 0
12 1 -20 0
96 34 -77 0
-49 -77 67 0
-7 64 -21 0
-4 87 -55 0
14 5 -61 0
-29 15 88 0
-61 87 15 0
-59 19 5 0
95 -50 85 0
58 -16 -25 0
-35 -67 92 0
57 28 -87 0
32 10 -80 0
-65 31 69 0
-33 -50 76 0
60 -84 -71 0
98 -12 42 0
68 54 -77 0
56 73 -19 0
68 85 -62 0
-37 94 -30 0
32 -17 92 0
30 67 6 0
-10 -8 -50 0
44 10 -20 0
-52 -40 56 0
54 87 -97 0
60 -8 92 0
-5 -52 -16 0
-86 8 40 0
60 -59 -45 0
-89 -64 -4 0
-9 99 94 0
-2 -66 15 0
-38 24 -35 0
12 40 60 0
-97 77 72 0
-86 4 -63 0
-45 52 77 0
22 -6 23 0
61 49 17 0
-91 -80 -56 0
31 21 55 0
8 97 74 0
100 -26 -15 0
34 11 -48 0
20 73 16 0
23 75 12 0
23 100 -13 0
-93 -97 -89 0
51 -27 53 0
57 -53 35 0
66 -88 63 0
-85 36 -49 0
1 84 62 0
-38 -1 -84 0
33 18 94 0
-13 69 -37 0
27 -14 28 0
84 -69 30 0
10 33 99 0
22 74 81 0
47 28 -81 0
-36 82 84 0
86 -89 -12 0
-25 -39 57 0
-98 -89 1 0
95 2 -49 0
-35 -22 -98 0
25 -15 47 0
-5 2 57 0
11 -62 -88 0
-62 87 -90 0
-71 -25 74 0
93 60 -36 0
7 -50 -67 0
-13 90 47 0
-29 44 23 0
24 -37 -76 0
-9 -28 93 0
-88 64 15 0
-82 72 25 0
-31 17 13 0
-22 87 12 0
95 26 -75 0
-14 62 7 0
90 53 -84 0
95 47 -12 0
-65 66 -97 0
25 31 -10 0
-31 -26 65 0
-45 93 66 0
80 55 -61 0
-36 85 63 0
-96 -46 -51 0
2 -20 -66 0
-54 30 -49 0
29 53 -86 0
86 -20 54 0
40 -44 -79 0
-82 96 -10 0
46 -82 52 0
-98 34 -47 0
-73 75 -19 0
75 -52 33 0
28 86 -83 0
23 70 67 0
-40 18 -77 0
-58 -80 -91 0
-6 57 42 0
-70 54 -77 0
62 -9 -2 0
-60 40 -83 0
46 -28 -60 0
19 -67 -75 0
-35 74 -84 0
-35 -25 97 0
9 -62 -44 0
-50 97 10 0
-15 91 41 0
12 -10 -2 0
-9 -97 92 0
-100 58 -8 0
-95 66 97 0
-55 4 -36 0
-8 96 -4 0
-55 -17 -99 0
69 -97 26 0
-48 92 -32 0
64 21 45 0
-55 -66 -83 0
31 34 94 0
26 46 63 0
-9 76 7 0
25 70 64 0
-67 36 -3 0
-67 69 55 0
34 -44 53 0
-63 82 -69 0
4 18 -6 0
71 33 -51 0
-34 35 -17 0
-36 -81 84 0
-79 99 -11 0
55 -85 73 0
60 -26 -20 0
-56 -15 -63 0
-63 20 -57 0
38 -91 43 0
-64 17 76 0
43 -46 31 0
-12 -8 -3 0
-81 7 -39 0
61 -50 -10 0
41 20 27 0
16 51 -11 0
99 80 50 0
37 -17 7 0
-3 -96 -64 0
24 -80 -100 0
-97 9 -86 0
-81 -83 93 0
33 -13 55 0
67 -64 -6 0
1 -76 43 0
39 92 -67 0
-90 -54 -10 0
8 -33 -57 0
-5 -98 27 0
50 95 94 0
-3 35 70 0
-16 -59 60 0
-91 33 -66 0
-90 -70 21 0
-31 69 27 0
37 82 49 0
-29 -32 -4 0
-33 100 -25 0
-71 -21 -30 0
46 -59 -79 0
60 83 -17 0
82 -77 -97 0
27 80 -90 0
15 -42 -17 0
11 -39 -64 0
-76 -33 -28 0
6 8 94 0
63 -96 42 0
95 -97 -50 0
-76 -50 68 0
-85 -31 65 0
32 54 85 0
57 -80 -76 0
62 61 -50 0
89 44 38 0
33 2 -54 0
-29 -90 53 0
29 -79 -45 0
39 91 52 0
44 -35 -66 0
22 46 95 0
-65 -3 67 0
53 -80 81 0
51 -54 -20 0
38 -78 67 0
99 69 -77 0
46 7 -59 0
95 18 87 0
-8 90 -92 0
-10 -28 42 0
64 -85 66 0
3 20 -57 0
47 -55 -49 0
-31 -59 64 0
-77 -98 67 0
26 74 94 0
-99 72 59 0
-31 -73 -14 0
-53 -21 -66 0
68 -42 65 0
-10 26 -81 0
40 -62 10 0
9 -43 -54 0
51 -60 -57 0
-67 -40 -23 0
6 54 -25 0
