p cnf 1000 3550
-756 -332 557 0
-628 -554 -106 0
-618 576 -28 0
-55 -766 125 0
794 -97 685 0
-587 -164 -464 0
-305 609 249 0
-553 596 14 0
-400 -816 250 0
679 -270 356 0
798 -208 -373 0
112 717 692 0
54 583 936 0
-711 -814 -318 0
-66 161 -43 0
-784 -176 710 0
-184 123 -924 0
-723 802 829 0
-897 677 338 0
-812 667 983 0
470 643 240 0
-229 506 764 0
80 99 -401 0
-715 16 -286 0
263 251 248 0
-176 410 -742 0
-706 224 -298 0
-477 -366 792 0
-100 738 -171 0
-127 -69 598 0
-803 -620 -361 0
366 -313 822 0
54 -968 -469 0
983 655 -510 0
741 805 857 0
627 728 828 0
899 832 484 0
-483 -52 750 0
-339 184 839 0
454 297 -422 0
328 939 952 0
394 380 732 0
234 478 -94 0
-779 -394 -582 0
-651 218 925 0
420 954 -765 0
-954 475 283 0
182 322 -627 0
-910 436 349 0
788 -51 390 0
281 964 -614 0
772 894 -750 0
-204 -609 -776 0
-247 856 867 0
-225 -267 838 0
-986 176 495 0
454 898 41 0
-381 541 323 0
-651 364 -897 0
543 -161 293 0
592 -800 -744 0
-519 -656 -500 0
-294 131 818 0
499 -630 -76 0
-206 588 688 0
252 462 831 0
-469 -695 -140 0
591 144 -217 0
463 -885 -916 0
743 -209 -726 0
711 625 486 0
-823 595 -392 0
-685 252 876 0
-808 -77 228 0
422 -123 24 0
292 63 -337 0
249 -639 565 0
111 -950 391 0
194 -747 130 0
-906 51 -200 0
-207 266 -397 0
829 -538 493 0
218 777 628 0
658 462 -791 0
747 763 -329 0
830 -482 -668 0
-426 208 977 0
992 -406 -780 0
-317 276 988 0
-696 -124 512 0
256 333 -159 0
-506 114 462 0
-490 911 2 0
915 -862 364 0
-869 -45 93 0
477 646 -793 0
-420 102 645 0
-245 -179 -132 0
387 587 130 0
-77 -311 -316 0
283 770 716 0
861 -565 489 0
102 -825 129 0
931 -236 -382 0
498 -487 -774 0
-647 -459 -556 0
-933 -411 -423 0
539 -246 868 0
658 733 757 0
598 644 804 0
738 -338 140 0
-6 -808 397 0
278 359 243 0
-26 -538 661 0
32 -628 343 0
-528 -35 -318 0
590 100 -253 0
472 -377 602 0
-309 -428 -917 0
-273 339 393 0
-256 -84 -465 0
-306 -553 -135 0
-339 623 -273 0
578 710 162 0
-516 573 823 0
-810 -298 484 0
435 208 65 0
-72 218 -99 0
-818 -997 -538 0
-842 -119 693 0
-104 -616 609 0
372 -139 720 0
-208 -770 -278 0
-800 673 -675 0
588 893 750 0
38 -688 625 0
-696 -12 -977 0
-348 774 266 0
-570 -36 -684 0
392 290 -613 0
303 799 -943 0
-196 833 919 0
316 -134 38 0
340 -29 -490 0
-618 776 -790 0
220 -530 964 0
36 -909 -433 0
-551 908 -857 0
-695 -307 280 0
401 -771 -772 0
-48 -895 -702 0
212 -495 -265 0
-123 -851 -273 0
-225 879 269 0
-389 644 -283 0
-389 654 -751 0
41 666 800 0
613 771 985 0
40 498 987 0
-347 393 -710 0
-469 999 -628 0
135 722 296 0
-530 271 784 0
-389 -579 -76 0
-99 -199 444 0
-71 361 -914 0
-898 42 -428 0
836 -66 -374 0
-668 -712 780 0
-447 -286 260 0
-980 2 -50 0
228 696 751 0
254 507 671 0
247 99 -399 0
-50 -433 -296 0
678 768 543 0
167 -636 -197 0
467 4 -644 0
472 121 -565 0
-782 559 206 0
281 -532 -468 0
448 -129 991 0
727 -914 -546 0
-367 722 534 0
358 895 -886 0
-111 -693 209 0
-424 545 971 0
-496 817 -157 0
868 -140 -453 0
910 651 722 0
-328 -81 -856 0
58 -981 -197 0
434 345 -540 0
164 917 952 0
271 -82 -976 0
365 -249 113 0
337 -697 959 0
-337 -994 471 0
-209 62 911 0
255 76 389 0
483 73 -963 0
-382 329 990 0
-387 -266 513 0
690 584 725 0
-547 -278 128 0
-431 -417 -502 0
-860 -296 412 0
-617 153 217 0
-456 -137 226 0
-112 863 -286 0
553 739 205 0
577 558 -370 0
224 -541 -698 0
356 -496 -484 0
590 164 393 0
870 359 103 0
40 -269 -604 0
602 -170 -67 0
799 -571 -863 0
-431 697 -212 0
488 130 -72 0
-251 -712 166 0
40 -903 -261 0
-28 -586 -931 0
-598 -9 -511 0
685 199 983 0
626 809 -36 0
-548 696 186 0
-402 -639 644 0
563 -869 598 0
216 -35 126 0
-688 -8 117 0
417 -728 -788 0
658 -626 -44 0
-656 -510 -774 0
-145 -534 -644 0
399 575 897 0
-395 -285 217 0
391 -503 -9 0
590 754 564 0
940 568 -234 0
21 241 -929 0
435 -404 602 0
-295 134 -725 0
800 -159 -970 0
620 180 439 0
-728 491 -263 0
934 609 204 0
777 -296 -481 0
116 -751 215 0
-837 560 -931 0
787 -494 -867 0
39 510 231 0
-674 246 -312 0
-869 -440 721 0
366 -698 486 0
796 267 -176 0
268 750 -71 0
-398 547 755 0
-42 -333 -805 0
-836 666 91 0
999 -329 403 0
496 983 292 0
-638 -878 -236 0
893 -288 156 0
-732 -833 -790 0
674 -627 -622 0
155 -693 599 0
775 882 154 0
-767 -822 -135 0
372 -428 402 0
421 779 417 0
-35 590 -777 0
161 -439 -659 0
-836 98 621 0
788 354 -870 0
-734 -245 -413 0
684 905 893 0
345 -55 -541 0
987 -981 -196 0
-813 597 -267 0
125 742 495 0
190 385 -403 0
-195 743 -4 0
324 -501 -363 0
-739 -765 -275 0
455 -251 275 0
642 668 883 0
-999 -143 312 0
468 -838 -948 0
25 267 -270 0
-125 83 -379 0
774 -583 163 0
-516 -582 -706 0
997 -920 -671 0
343 450 -449 0
-433 613 605 0
-867 904 314 0
802 522 605 0
-611 26 -539 0
69 -8 -690 0
-280 -108 -413 0
925 -315 -169 0
-926 -604 -148 0
-129 910 -612 0
84 909 53 0
749 315 606 0
525 403 250 0
-556 883 207 0
-412 541 530 0
-538 299 60 0
756 516 559 0
305 31 -470 0
765 -963 -879 0
-964 244 624 0
213 58 -450 0
-73 879 789 0
835 -911 413 0
-948 -960 236 0
-777 497 -56 0
-538 382 730 0
-742 -898 -855 0
369 -335 63 0
-261 -418 39 0
-875 -375 -872 0
20 -507 719 0
-405 270 -960 0
626 110 773 0
755 -540 239 0
-768 461 932 0
-875 628 622 0
406 -13 647 0
530 344 394 0
894 379 231 0
81 -347 412 0
-173 163 646 0
841 -986 -274 0
318 -284 646 0
967 137 -733 0
-322 211 -151 0
914 -389 27 0
-832 -442 644 0
-221 971 80 0
647 -585 685 0
73 655 328 0
54 554 -759 0
830 4 413 0
733 -357 520 0
-511 827 632 0
469 933 539 0
-576 773 145 0
-358 137 -723 0
-864 -308 203 0
558 -806 169 0
-899 -825 641 0
-54 696 391 0
799 465 -861 0
-14 469 541 0
-745 -624 -827 0
-733 -545 -623 0
660 -451 688 0
-493 -638 -619 0
-284 -263 -883 0
466 664 555 0
547 -371 -904 0
810 -122 -956 0
885 127 154 0
610 -710 -309 0
110 -945 -710 0
-360 838 -332 0
389 -26 -478 0
-59 -768 -793 0
-436 -197 -836 0
929 -85 313 0
-593 -888 -789 0
557 366 898 0
848 -558 -498 0
-212 -235 -302 0
290 -647 -954 0
26 -849 -868 0
-754 623 200 0
-773 800 190 0
-422 -440 -280 0
-116 -709 -752 0
187 85 449 0
465 883 655 0
733 930 660 0
305 -226 -362 0
-830 971 924 0
140 -477 -68 0
411 -483 -38 0
-492 487 -823 0
-277 559 -262 0
-553 586 -296 0
-795 -533 -504 0
-613 -839 -632 0
241 542 -758 0
956 921 261 0
-165 -666 -872 0
-147 762 461 0
-412 -701 -770 0
-641 378 -119 0
-213 349 234 0
632 945 -500 0
-926 -154 505 0
-310 -650 4 0
-144 194 462 0
-18 -17 -99 0
-426 -454 806 0
-847 4 452 0
837 819 -921 0
3 769 -890 0
-899 371 -558 0
685 963 -745 0
559 393 832 0
-324 -522 849 0
152 602 -255 0
453 677 61 0
-86 435 -578 0
853 159 887 0
-470 534 202 0
191 358 -328 0
-581 175 -160 0
-412 154 -714 0
-795 -625 653 0
-786 733 807 0
941 527 -573 0
169 349 949 0
-717 -238 112 0
-516 -347 895 0
-571 -152 -885 0
-695 -886 662 0
-323 -481 -758 0
-294 986 -278 0
-122 404 856 0
-418 16 -823 0
836 940 -664 0
-477 -341 -724 0
783 360 -550 0
-18 777 -480 0
654 -846 303 0
-43 -96 -63 0
474 817 355 0
-217 -472 815 0
-351 708 -892 0
-138 -909 -1000 0
-650 -146 733 0
532 -482 -723 0
-26 -18 792 0
-767 902 -870 0
333 483 -285 0
146 889 -794 0
-896 750 768 0
-119 -109 916 0
350 -252 918 0
638 818 -444 0
-389 -898 471 0
225 -323 937 0
562 -681 570 0
536 601 952 0
559 -208 -407 0
-543 -354 -661 0
-13 965 -817 0
398 853 680 0
772 258 -155 0
285 379 533 0
-361 -304 803 0
625 -811 -523 0
-823 -760 433 0
137 -929 699 0
-246 23 -470 0
-187 784 -519 0
-218 -691 758 0
506 -442 500 0
-475 -526 999 0
953 -539 -487 0
891 752 -540 0
641 427 146 0
-506 881 776 0
277 -457 -943 0
-166 120 339 0
-456 -143 938 0
404 -788 -146 0
507 795 966 0
381 -288 846 0
-291 923 352 0
-64 -622 -76 0
-323 969 -303 0
-275 -740 -838 0
-201 -154 958 0
-229 480 -774 0
64 883 -866 0
-189 721 -407 0
-743 979 -44 0
181 458 878 0
491 -802 -997 0
783 -288 152 0
-56 715 -532 0
761 829 111 0
488 763 445 0
528 -80 -81 0
845 -430 -509 0
235 -226 -690 0
-62 334 -266 0
-190 -944 401 0
993 301 986 0
-820 818 -138 0
677 516 503 0
251 705 -833 0
972 -88 -138 0
624 643 447 0
-799 65 766 0
327 802 -89 0
860 125 954 0
-88 483 -116 0
-301 -850 281 0
-995 -191 -250 0
-486 126 -75 0
526 -968 911 0
662 -31 528 0
760 440 -897 0
17 285 -39 0
155 564 -297 0
64 216 47 0
838 -827 -44 0
394 -594 669 0
303 337 322 0
216 -59 54 0
-672 -187 508 0
937 -778 153 0
59 148 907 0
908 88 -294 0
685 -240 -84 0
-818 254 -281 0
603 335 -94 0
-128 -99 67 0
-843 -948 560 0
-819 -124 -912 0
290 -118 -833 0
-752 96 -668 0
-198 338 -576 0
-573 -394 359 0
-163 78 -638 0
-363 -88 750 0
507 -109 7 0
628 -632 331 0
936 -895 703 0
-690 -971 164 0
853 -439 -340 0
-441 600 986 0
753 -256 -759 0
529 -258 -31 0
-929 588 -661 0
291 -762 -851 0
-363 555 -508 0
747 -717 -203 0
-339 943 501 0
128 -994 649 0
617 -279 143 0
194 -687 468 0
12 -901 539 0
-580 -378 467 0
-158 74 911 0
-284 -859 977 0
-639 631 323 0
75 -558 -202 0
85 6 -331 0
336 -328 -552 0
-319 932 943 0
834 380 -715 0
-840 -771 -843 0
-362 801 -63 0
-999 135 24 0
461 -662 -74 0
-3 507 -888 0
-232 526 -27 0
875 -12 963 0
-292 166 804 0
-144 -215 294 0
-474 167 749 0
675 332 448 0
-304 84 61 0
-290 502 -284 0
331 -238 -523 0
995 939 229 0
324 964 436 0
300 318 -20 0
309 -164 444 0
-283 780 872 0
-233 -889 590 0
-427 422 -670 0
223 889 686 0
239 -410 350 0
401 275 -572 0
-524 -711 521 0
696 545 659 0
19 799 -402 0
413 525 -515 0
-236 -871 3 0
17 -537 277 0
259 341 806 0
815 84 602 0
-192 647 -517 0
142 -195 -112 0
-657 100 473 0
876 -539 -346 0
876 578 -42 0
65 643 -326 0
401 -482 522 0
-332 946 282 0
23 -118 -8 0
196 201 555 0
-264 252 503 0
-496 -901 -26 0
-116 12 -195 0
-855 -344 509 0
-615 627 922 0
963 494 438 0
115 404 123 0
-332 187 928 0
477 -521 -498 0
686 -960 -435 0
-123 -463 13 0
106 748 -730 0
20 -628 -972 0
-620 -276 -228 0
-251 111 940 0
152 253 -904 0
-232 -597 -744 0
-610 71 251 0
-793 -889 186 0
-14 144 -846 0
773 -749 355 0
-551 890 -958 0
242 953 -862 0
796 287 -427 0
290 203 829 0
768 304 -111 0
308 -370 -269 0
96 -821 404 0
-545 -397 -808 0
-875 -445 498 0
-685 -918 663 0
6 4 -214 0
331 -219 729 0
-821 -141 249 0
248 -962 -643 0
-401 -843 -48 0
-539 544 858 0
119 356 -392 0
619 -888 346 0
324 -184 873 0
953 -742 -40 0
386 738 -841 0
-468 -364 -491 0
26 69 564 0
-438 430 473 0
153 -958 -97 0
-796 -542 559 0
-659 -174 272 0
56 649 939 0
871 -216 130 0
-643 -591 338 0
-672 195 -522 0
3 -585 -198 0
192 126 19 0
-466 -955 769 0
-290 810 -151 0
-166 -670 -685 0
-139 -414 -342 0
-858 871 44 0
-298 187 -468 0
-998 -69 193 0
-197 317 471 0
732 -11 -683 0
-401 518 -850 0
-386 284 -424 0
-173 588 -141 0
824 -516 -76 0
-443 371 -884 0
-790 -476 -921 0
-504 553 -24 0
679 103 -998 0
-772 774 -521 0
-800 313 -761 0
371 -385 414 0
449 495 41 0
-717 282 -595 0
639 692 533 0
133 736 -165 0
535 -290 745 0
777 402 -107 0
554 975 183 0
291 -234 -782 0
158 211 840 0
-79 -339 -944 0
-513 -707 74 0
816 -126 979 0
-536 -737 959 0
950 -18 -392 0
825 -56 -881 0
-898 -270 -846 0
20 -284 -234 0
-851 -731 -197 0
-773 866 -58 0
507 392 914 0
635 124 335 0
89 -106 992 0
45 -461 -168 0
192 627 840 0
692 -491 370 0
829 -252 -373 0
395 56 354 0
-154 -108 838 0
-371 962 -104 0
571 -270 462 0
569 282 -403 0
-913 661 -526 0
-931 977 966 0
-428 -171 447 0
-437 935 751 0
642 355 448 0
943 -795 -780 0
712 -456 -497 0
-246 526 -9 0
-633 233 -729 0
-994 781 -524 0
922 670 -123 0
686 -144 596 0
-92 967 -303 0
773 -952 258 0
6 -575 -136 0
-266 -275 931 0
-932 150 165 0
-115 630 -237 0
680 560 -172 0
172 -211 560 0
-620 215 -865 0
-885 553 144 0
-871 853 985 0
10 -251 49 0
614 981 -520 0
427 381 -876 0
-279 -669 -704 0
-188 -606 508 0
310 -856 -85 0
93 -693 -419 0
-209 997 290 0
197 -842 -905 0
-186 918 375 0
-305 -396 -915 0
346 828 629 0
131 -453 -237 0
-206 435 -648 0
-735 815 401 0
-797 -890 -178 0
-473 -397 906 0
-745 -610 -583 0
-912 -374 124 0
-771 -621 277 0
108 162 554 0
-148 -123 -378 0
-917 -800 -843 0
809 942 31 0
739 -810 574 0
724 297 683 0
411 -6 93 0
942 146 779 0
-846 -950 -695 0
-264 -777 459 0
400 62 -61 0
359 225 -894 0
-642 -566 -635 0
415 150 -320 0
-225 545 940 0
-372 -211 52 0
-349 -953 289 0
-139 793 42 0
886 922 735 0
317 -609 -724 0
908 167 -320 0
218 -657 -396 0
-437 -102 459 0
-431 -977 -332 0
-241 348 547 0
-584 -50 -549 0
-653 520 641 0
-429 761 -690 0
-648 770 744 0
-103 841 -387 0
796 960 531 0
563 -544 -660 0
-579 896 -400 0
88 -355 -122 0
-315 -98 -800 0
415 -130 376 0
-42 730 -917 0
62 636 5 0
-372 -618 -103 0
-622 991 -561 0
420 -456 -698 0
-807 480 880 0
-387 -410 -850 0
392 -781 -125 0
-828 -108 -710 0
-596 658 146 0
263 987 857 0
653 136 569 0
-805 -495 -431 0
15 730 750 0
427 219 178 0
614 921 -44 0
-85 70 808 0
-604 442 -1 0
81 -913 -254 0
751 -32 599 0
-762 731 318 0
795 -377 815 0
-177 -406 10 0
153 776 -294 0
-742 899 658 0
-754 -857 -888 0
-181 -199 91 0
392 -667 -904 0
852 820 -821 0
-322 -605 -568 0
163 903 138 0
515 -752 832 0
83 -437 103 0
21 381 -610 0
989 552 -87 0
318 948 -475 0
-740 -631 590 0
152 852 -816 0
-455 322 -438 0
278 14 213 0
891 -95 -528 0
-423 -118 32 0
18 999 -874 0
815 57 477 0
669 107 94 0
150 453 -633 0
-320 -616 -896 0
1 441 -383 0
148 -375 -396 0
435 57 -505 0
-25 972 412 0
745 -986 173 0
434 -6 -847 0
-495 814 -56 0
586 -412 -782 0
-733 839 -189 0
764 -908 -236 0
-83 121 -515 0
-87 -602 783 0
-721 406 -71 0
446 -115 -497 0
993 280 -929 0
-63 -915 318 0
615 129 -212 0
-569 238 747 0
857 213 -722 0
-627 734 922 0
-524 -591 -777 0
368 282 -251 0
806 656 981 0
-365 -939 -646 0
-701 -65 -292 0
962 -460 875 0
-236 -45 -570 0
309 -194 -562 0
-10 -86 171 0
-636 -829 -142 0
404 544 -6 0
-235 -263 296 0
-199 -758 124 0
-388 480 -576 0
599 -223 801 0
542 529 710 0
-399 -718 -191 0
-867 -523 -711 0
248 980 -686 0
-239 -594 -124 0
-997 493 226 0
851 506 312 0
-550 94 -870 0
-770 -466 703 0
-468 -941 919 0
45 -43 245 0
-18 68 -883 0
-258 725 -216 0
561 -912 -577 0
1 390 -271 0
839 -835 -863 0
-177 -913 -169 0
887 143 -976 0
-771 629 -402 0
405 -169 776 0
-470 115 -537 0
439 725 -574 0
337 -384 -957 0
-425 -9 -503 0
670 279 -931 0
-650 -311 475 0
-710 -599 -89 0
-961 40 -647 0
-699 890 243 0
-453 -419 -882 0
315 401 -630 0
477 -812 -89 0
-970 -129 391 0
-816 -268 887 0
563 -142 -989 0
537 623 346 0
-358 -400 749 0
566 424 -716 0
-834 923 166 0
-94 637 -575 0
-983 -400 160 0
573 -251 490 0
833 914 -66 0
111 -357 894 0
-661 717 187 0
756 195 -427 0
-404 469 174 0
561 -680 -97 0
104 695 -303 0
-88 -706 391 0
-370 -705 -369 0
904 -2 192 0
-707 -621 -302 0
346 177 592 0
-766 834 385 0
-56 84 678 0
299 498 133 0
-778 -294 194 0
157 586 -391 0
909 -633 157 0
843 -904 -415 0
274 -47 -749 0
937 574 440 0
-311 -349 590 0
-757 -214 -364 0
-375 -541 -379 0
-561 -691 724 0
192 28 -291 0
-400 4 -241 0
-465 -244 -848 0
422 -162 -171 0
424 649 -877 0
965 84 -115 0
201 -748 -275 0
481 111 -26 0
-623 -862 991 0
-597 -688 -778 0
248 -857 482 0
-979 13 68 0
257 757 720 0
-914 -375 -369 0
928 949 858 0
441 524 -913 0
-109 403 -205 0
-784 -482 -284 0
743 -129 -971 0
-578 -83 801 0
747 -381 -739 0
403 -568 581 0
557 -679 -733 0
-415 -15 124 0
-735 80 -69 0
34 226 -491 0
496 60 -847 0
395 -893 -602 0
845 -428 199 0
-352 879 373 0
-806 206 766 0
-858 -856 -885 0
-534 584 -118 0
205 -769 960 0
814 -824 682 0
509 841 973 0
957 553 860 0
-509 -826 -277 0
261 -450 -994 0
271 221 870 0
58 -927 -66 0
-82 645 -212 0
-300 611 -75 0
-298 -718 597 0
692 -239 156 0
522 451 -394 0
709 -283 -307 0
-768 -677 610 0
-407 328 -343 0
-569 693 -529 0
318 -347 105 0
690 694 394 0
-504 -340 -212 0
114 12 -287 0
-323 483 -979 0
-903 443 -818 0
-864 -452 -792 0
-621 -754 -656 0
517 -515 749 0
-972 -954 -320 0
-962 410 -632 0
-511 -588 -49 0
-862 -172 800 0
-163 777 -410 0
32 475 -794 0
-697 -24 837 0
332 638 908 0
977 262 -757 0
801 -387 935 0
-516 450 -793 0
-581 -409 -212 0
729 -723 -240 0
886 -110 -691 0
-763 -849 -436 0
-537 -62 -273 0
155 466 -942 0
319 780 -640 0
197 -976 593 0
-938 -1000 214 0
260 898 630 0
-246 941 -786 0
-455 -924 -700 0
-878 515 -113 0
626 539 -353 0
763 499 -926 0
-676 -899 917 0
-141 728 825 0
-939 646 972 0
164 -415 433 0
993 203 429 0
-730 351 -757 0
916 112 -725 0
-514 -727 -617 0
-615 -907 -447 0
608 -644 131 0
-29 -463 787 0
-521 -798 67 0
177 -710 -556 0
883 -97 -972 0
318 -133 65 0
-413 -7 175 0
749 -372 51 0
512 -792 -273 0
-125 468 262 0
934 7 41 0
175 9 740 0
991 250 -950 0
990 561 144 0
255 -922 353 0
-585 -758 431 0
-561 -411 650 0
792 920 -657 0
954 1000 -372 0
-353 -662 -335 0
-179 -217 721 0
360 -932 -809 0
564 804 -757 0
867 193 417 0
440 760 839 0
994 -573 343 0
195 143 -669 0
256 -18 958 0
-733 742 82 0
297 -275 -777 0
774 856 918 0
-656 -771 -978 0
200 147 223 0
-234 727 507 0
-502 -498 101 0
192 -18 795 0
584 916 498 0
39 422 605 0
-603 -6 912 0
-507 201 153 0
-221 340 -409 0
-856 -7 -740 0
356 409 -660 0
563 -196 525 0
146 -745 320 0
-799 602 573 0
846 881 -637 0
-555 966 576 0
-429 882 -268 0
-636 497 -852 0
-63 100 -402 0
-913 -559 248 0
542 -396 654 0
618 -493 279 0
-638 249 286 0
772 -276 -528 0
593 604 -479 0
676 -958 421 0
97 295 -657 0
-756 -170 221 0
546 -861 -926 0
320 -654 -431 0
-134 468 56 0
119 -626 541 0
-543 -277 599 0
-620 -105 -592 0
450 870 -231 0
-980 620 772 0
307 -12 626 0
947 -793 -994 0
183 -980 -275 0
-86 -716 -241 0
-330 17 -293 0
-759 51 -730 0
-920 399 -68 0
-411 -835 226 0
341 -723 96 0
-615 -191 -285 0
-278 311 -477 0
-728 -647 -228 0
71 916 698 0
-16 423 893 0
-287 -696 -100 0
-728 330 553 0
-797 -233 -289 0
-462 634 -892 0
-23 589 -961 0
-367 -611 -496 0
231 -262 -146 0
101 -366 576 0
365 -869 -144 0
-491 967 982 0
-610 -239 324 0
778 -169 324 0
-842 108 784 0
-149 585 -88 0
-255 333 837 0
-583 -694 742 0
-251 321 -520 0
341 169 721 0
973 -773 -935 0
115 -807 146 0
-872 131 -153 0
-230 87 122 0
45 791 115 0
642 -468 -144 0
235 180 -231 0
709 -24 194 0
-707 4 234 0
-722 801 -723 0
-684 334 817 0
-874 -482 -427 0
-486 -353 -24 0
779 -47 65 0
-438 -865 713 0
-987 891 -31 0
851 -967 -236 0
72 -453 -723 0
-671 604 614 0
836 270 862 0
-283 -208 -1000 0
324 471 -315 0
556 31 965 0
734 -61 138 0
-889 12 -188 0
-305 745 434 0
824 -840 -182 0
-183 -8 -892 0
-690 -835 -783 0
986 -29 625 0
759 -452 686 0
-509 838 662 0
411 433 366 0
542 747 -964 0
-469 -516 421 0
-88 491 128 0
212 606 831 0
205 352 491 0
-824 792 -606 0
-535 70 -480 0
520 -450 -863 0
79 -307 177 0
-817 -20 923 0
-483 -1000 553 0
-742 -678 -492 0
32 833 -497 0
153 -606 268 0
209 631 131 0
-325 446 -933 0
-194 452 548 0
812 -194 -713 0
887 -514 634 0
-338 521 -191 0
737 730 550 0
477 -864 811 0
197 818 -378 0
-181 555 402 0
-946 796 -885 0
-560 895 -390 0
351 305 -77 0
772 865 274 0
144 -883 145 0
906 886 -252 0
664 -702 829 0
702 -363 -398 0
-642 489 102 0
194 930 924 0
259 -268 55 0
-197 -511 -693 0
-364 462 -482 0
525 49 810 0
810 124 -600 0
-183 290 701 0
498 -723 477 0
-129 -507 -15 0
-971 201 -436 0
402 494 789 0
665 -701 292 0
-148 34 -327 0
960 -48 -955 0
-129 -146 319 0
-69 -550 -450 0
-742 672 -945 0
682 -648 500 0
360 46 -475 0
720 -313 -845 0
581 42 908 0
-950 -244 -180 0
-276 -979 691 0
886 164 372 0
310 -847 881 0
52 829 -164 0
-568 -487 -461 0
979 34 256 0
-246 158 397 0
-343 838 153 0
225 619 646 0
104 38 -266 0
171 -852 789 0
784 495 -289 0
789 -787 -977 0
475 -390 882 0
-142 -17 -449 0
-747 -593 404 0
-511 476 -646 0
676 -30 509 0
-657 -120 -551 0
547 267 198 0
160 -233 -376 0
732 266 -842 0
233 -25 900 0
382 -928 39 0
-104 -710 214 0
617 -219 -448 0
231 -328 -523 0
295 -420 -539 0
-423 257 366 0
837 576 627 0
-428 387 346 0
113 -723 -277 0
-137 -371 767 0
-999 128 -860 0
70 -515 -261 0
292 170 -371 0
-729 574 -909 0
194 806 -601 0
-259 79 -715 0
-257 -766 610 0
-109 587 60 0
552 -895 107 0
513 374 528 0
85 -853 754 0
496 -699 616 0
141 638 -587 0
-474 450 -525 0
-92 234 427 0
-501 -81 -518 0
925 875 868 0
146 391 962 0
6 495 -561 0
-78 -928 983 0
-515 -25 -728 0
198 200 -147 0
301 104 727 0
829 -732 -174 0
200 711 -214 0
-948 -156 -141 0
166 -46 -462 0
669 4 862 0
363 938 -424 0
-305 -949 168 0
776 91 559 0
896 933 443 0
-208 840 146 0
163 827 -986 0
938 -476 84 0
-347 18 -575 0
987 -200 -542 0
764 -717 765 0
-353 -253 559 0
-157 605 934 0
311 375 505 0
876 -744 683 0
-981 212 206 0
-803 -840 -946 0
683 -135 855 0
-754 758 -304 0
-931 -602 279 0
549 330 211 0
192 561 706 0
795 -272 -605 0
-648 -278 -949 0
-33 204 -548 0
-651 -264 534 0
20 -657 962 0
947 504 -49 0
-441 854 -630 0
897 597 960 0
488 -305 -697 0
149 802 -364 0
51 875 -677 0
-103 -216 73 0
-685 -709 821 0
-643 -897 -726 0
7 -838 -334 0
-75 926 -3 0
-374 -54 -109 0
153 -840 930 0
-174 989 -907 0
-207 664 405 0
-833 52 -891 0
-96 486 967 0
293 777 -722 0
-886 376 784 0
681 -160 -939 0
-560 431 -398 0
-476 -510 796 0
-472 -407 118 0
339 368 183 0
308 149 -751 0
607 729 458 0
131 371 45 0
-922 191 -182 0
-852 372 875 0
-558 40 698 0
-843 -637 107 0
-793 45 995 0
-444 571 -310 0
974 -841 -176 0
558 603 261 0
-191 674 -416 0
578 -559 100 0
-522 484 -957 0
-742 -239 187 0
343 960 284 0
-691 -44 464 0
-57 -191 171 0
-364 948 -471 0
-624 -562 -142 0
-888 172 -923 0
360 627 -583 0
-606 -733 108 0
791 -957 -106 0
-508 725 -696 0
-503 97 225 0
92 748 103 0
231 850 169 0
-52 -809 55 0
492 107 -783 0
-678 881 330 0
-235 413 569 0
891 661 -941 0
-130 -836 -805 0
-481 -48 854 0
79 -889 -958 0
-934 -81 -387 0
376 -7 813 0
-960 -377 677 0
-270 799 -646 0
-670 -601 622 0
-629 -19 13 0
-309 273 752 0
878 382 974 0
746 -791 -613 0
696 215 -213 0
860 996 477 0
556 -905 851 0
243 297 -317 0
180 225 369 0
-884 -297 397 0
-803 392 50 0
-855 -888 -391 0
372 -507 -508 0
-834 712 667 0
-583 -43 993 0
-698 492 978 0
-860 232 -545 0
225 -768 212 0
-108 -766 281 0
457 -466 -954 0
940 -945 849 0
-551 -918 546 0
-14 158 -67 0
686 963 -982 0
995 -290 -563 0
-725 -269 864 0
364 -935 949 0
-184 610 780 0
905 843 561 0
772 -555 -60 0
486 -229 -434 0
-340 473 -741 0
395 -836 -372 0
-50 -598 -504 0
507 -70 344 0
992 908 841 0
833 227 446 0
-803 509 -514 0
430 -617 -114 0
-768 -626 -678 0
-827 517 176 0
795 -201 -528 0
406 -645 38 0
725 634 593 0
476 347 -152 0
98 -414 798 0
-456 762 -10 0
686 -601 -127 0
-301 589 887 0
800 -273 652 0
772 501 532 0
-80 845 931 0
-877 -864 -143 0
429 869 -991 0
972 756 452 0
-291 -828 710 0
-379 -897 -829 0
-688 -229 -493 0
731 -502 -282 0
-332 -99 -930 0
-335 648 -739 0
135 -100 -154 0
165 -186 493 0
-150 -79 929 0
722 525 -176 0
-546 508 -419 0
697 -917 -491 0
-812 -950 505 0
220 860 815 0
51 -424 228 0
-927 248 841 0
-920 -637 711 0
-147 479 -151 0
-609 -208 -750 0
-556 -478 -108 0
-609 58 -101 0
682 -613 -348 0
841 988 -663 0
-737 -255 315 0
-345 462 -667 0
-568 444 -41 0
-772 -873 837 0
566 972 -571 0
462 826 -227 0
-573 -30 199 0
215 5 293 0
223 750 129 0
964 -603 659 0
-34 293 524 0
-745 -678 -562 0
483 -369 453 0
304 223 -951 0
-942 -889 -199 0
-536 -137 198 0
511 579 -220 0
-414 -680 124 0
-524 -398 -574 0
-607 126 -885 0
363 -332 -613 0
30 -707 227 0
-532 -14 -525 0
-259 957 -692 0
-531 -949 -625 0
-689 220 -716 0
439 814 -319 0
-629 -731 256 0
576 129 932 0
531 310 908 0
516 -911 -104 0
480 -329 -356 0
-343 -781 -503 0
-259 -884 -996 0
-6 -505 -750 0
-47 -459 -144 0
-943 377 -323 0
-106 267 -625 0
-914 -53 235 0
815 -619 -240 0
366 -932 -304 0
-885 35 -759 0
-297 -267 -61 0
594 769 -331 0
764 141 -759 0
-357 -410 732 0
999 -347 674 0
688 -249 705 0
-546 831 778 0
-60 616 119 0
-327 184 -816 0
949 -882 345 0
-577 -452 -322 0
-398 -630 -774 0
-143 -873 315 0
292 712 -383 0
684 262 230 0
727 -389 -476 0
352 -677 453 0
-115 252 938 0
325 940 -781 0
410 -218 161 0
-142 -815 -915 0
-858 -618 839 0
-501 793 614 0
-596 -963 -884 0
-683 -743 34 0
341 -655 -566 0
59 -967 855 0
415 471 89 0
817 692 -142 0
-687 -530 -796 0
647 -365 -129 0
482 -574 -751 0
282 772 830 0
-564 981 -134 0
239 352 396 0
629 436 -975 0
-97 829 -692 0
153 -581 256 0
-469 91 -495 0
-734 -25 873 0
108 592 58 0
-358 113 -304 0
-418 -351 548 0
-321 -458 165 0
-349 -285 378 0
154 -877 -205 0
-792 -651 28 0
-116 -312 -398 0
615 414 -864 0
-994 -263 -391 0
948 960 401 0
826 -584 527 0
842 -39 -131 0
731 436 -431 0
-912 294 117 0
-69 501 -866 0
816 -386 636 0
-280 873 -359 0
-7 -949 547 0
-805 694 483 0
136 -540 98 0
-751 302 793 0
592 -529 663 0
-913 562 -157 0
-461 580 547 0
116 305 299 0
-845 -948 -242 0
-943 -436 46 0
237 96 324 0
-310 -642 228 0
-387 991 -499 0
689 -209 966 0
-430 277 -940 0
116 -111 547 0
-999 742 597 0
-945 -491 -630 0
-69 -770 -536 0
-670 985 -638 0
-354 771 -269 0
943 -737 581 0
865 -511 813 0
-849 -294 -743 0
-24 -175 -808 0
696 207 572 0
316 -960 -450 0
966 298 882 0
836 -833 327 0
355 -824 76 0
-859 612 929 0
59 109 -524 0
667 173 -514 0
626 487 57 0
-184 -696 483 0
358 794 -470 0
-515 860 -688 0
424 718 -786 0
-656 -701 144 0
603 77 322 0
376 -407 -670 0
-943 -251 -438 0
129 -706 112 0
92 -120 -567 0
558 -715 127 0
768 -304 70 0
-923 -15 -755 0
-252 705 868 0
900 759 -314 0
-340 269 4 0
722 156 213 0
347 -636 576 0
-661 -345 531 0
-345 402 686 0
481 306 -860 0
-718 -784 -81 0
424 919 548 0
402 -457 780 0
-613 585 -232 0
-45 -251 639 0
79 419 -288 0
4 -638 -934 0
-712 881 -156 0
60 761 -914 0
288 -149 -642 0
-871 494 -17 0
-529 299 328 0
-546 293 594 0
99 632 -958 0
-429 71 -873 0
276 488 -582 0
-978 444 -626 0
629 363 -312 0
-874 -241 267 0
448 98 -757 0
-469 -679 781 0
-578 804 967 0
-623 -603 -785 0
521 341 -635 0
95 774 -2 0
318 -782 -50 0
339 -357 -862 0
-912 -55 981 0
-989 -193 -661 0
-389 -443 -188 0
-732 -792 -408 0
-525 -217 -40 0
-792 975 -180 0
470 -115 -822 0
859 -817 932 0
-166 -626 120 0
224 194 -12 0
-815 -37 -136 0
-660 -594 534 0
171 -687 -918 0
908 -426 512 0
-473 465 -717 0
11 972 -993 0
-324 856 226 0
-481 458 909 0
-580 -322 -658 0
-671 718 919 0
-366 184 -623 0
811 -376 -523 0
-791 341 -839 0
319 -267 368 0
-107 -163 510 0
-710 -726 -402 0
616 44 681 0
-502 264 500 0
115 192 -911 0
-110 978 -314 0
959 221 715 0
-248 -665 723 0
528 243 388 0
902 -205 -654 0
-393 702 380 0
-887 -915 503 0
712 196 400 0
-637 158 -714 0
606 251 -133 0
413 45 427 0
661 51 -449 0
-972 871 769 0
-27 -881 63 0
881 346 817 0
-530 937 260 0
952 -855 -206 0
101 923 -895 0
908 844 -206 0
730 -782 264 0
34 -678 611 0
-204 181 399 0
890 -62 685 0
132 -776 943 0
-934 -7 502 0
-345 -205 623 0
202 -596 -470 0
-874 433 511 0
-182 -442 -806 0
-454 4 -859 0
-208 970 592 0
777 -768 981 0
572 298 518 0
-90 68 -213 0
352 -355 153 0
895 505 45 0
-54 -348 284 0
-753 171 500 0
-552 268 -784 0
-985 -79 25 0
-500 -719 991 0
-56 142 -112 0
198 -510 -763 0
433 235 -340 0
-44 760 835 0
125 507 881 0
-54 -798 684 0
27 970 -938 0
638 669 826 0
-121 -921 665 0
-815 -972 -946 0
-70 80 119 0
-248 560 334 0
308 104 -400 0
-120 822 897 0
944 -522 -580 0
538 720 461 0
-97 42 975 0
-334 -21 -654 0
135 -488 280 0
-426 -682 555 0
856 413 -915 0
-379 -17 851 0
44 -444 851 0
-774 -829 -946 0
100 924 -858 0
-448 749 255 0
-729 685 253 0
924 -765 -484 0
-190 907 782 0
-1 540 -896 0
-692 -919 908 0
-554 842 826 0
-303 640 453 0
-182 282 -544 0
-577 241 146 0
893 -897 736 0
-388 -412 -262 0
556 425 517 0
-94 -233 -172 0
-863 241 983 0
893 973 827 0
547 -258 -78 0
306 -331 631 0
939 789 357 0
630 975 633 0
164 348 441 0
666 184 355 0
-228 266 396 0
304 595 2 0
-408 -511 525 0
970 638 740 0
724 -477 -3 0
-711 35 -185 0
743 619 229 0
907 585 -988 0
-784 -962 -464 0
-908 691 -174 0
-972 -463 -424 0
367 -109 -19 0
-849 143 -788 0
-402 403 252 0
-386 -440 -662 0
-686 -175 520 0
490 -687 -148 0
-546 100 764 0
-843 -807 -959 0
-681 -949 885 0
-118 -819 780 0
113 -642 685 0
-37 -676 -977 0
255 -996 -714 0
157 444 -528 0
-575 -449 -140 0
957 531 161 0
657 -581 -405 0
-262 -601 518 0
380 952 -990 0
-495 111 -211 0
-63 410 -373 0
397 400 170 0
-381 591 -815 0
-99 -882 714 0
716 -664 -687 0
771 381 848 0
-162 318 -974 0
519 -989 -933 0
679 100 -977 0
347 814 115 0
725 658 744 0
-401 -493 -259 0
732 36 791 0
-506 -849 388 0
329 -730 807 0
-606 650 545 0
419 448 -788 0
-440 -315 -914 0
242 -436 705 0
424 -880 -687 0
-523 834 -938 0
602 756 768 0
652 -540 348 0
963 518 -21 0
92 -534 -206 0
238 24 452 0
-563 61 379 0
803 75 541 0
819 -205 -422 0
-278 -320 89 0
-762 -521 -485 0
-316 -833 712 0
-886 -991 95 0
926 82 -15 0
-146 -34 210 0
-638 -974 840 0
-863 -234 730 0
-911 406 -102 0
462 -381 686 0
203 816 -315 0
-686 -670 -601 0
-111 893 -75 0
-546 -530 507 0
660 849 995 0
836 -667 26 0
571 -105 837 0
-742 560 45 0
-310 459 253 0
-996 -44 866 0
-181 473 -618 0
-809 -424 397 0
328 -883 -661 0
444 878 458 0
4 2 -360 0
266 788 795 0
-840 -146 871 0
295 192 788 0
945 -95 577 0
-147 920 -171 0
836 -400 -979 0
-19 862 174 0
-310 -599 -784 0
675 529 -386 0
89 -323 -385 0
22 -445 81 0
-921 628 300 0
-74 232 923 0
-750 486 -662 0
-140 391 -563 0
155 -52 771 0
-532 -439 919 0
63 -13 -897 0
-807 -530 653 0
659 -197 926 0
-137 -621 506 0
-995 335 439 0
525 899 470 0
-317 -585 -807 0
-506 -970 -736 0
-448 88 -628 0
709 211 -278 0
-150 -125 -64 0
286 853 -524 0
-739 -276 682 0
921 432 -859 0
50 58 -276 0
485 178 722 0
28 -73 -363 0
-826 -267 521 0
-449 651 -350 0
776 -345 -240 0
570 -527 267 0
172 841 -946 0
823 401 338 0
-72 -565 155 0
-752 -323 -476 0
567 -310 -69 0
865 -945 741 0
632 -213 238 0
157 495 -792 0
-297 21 -141 0
41 -898 947 0
177 -386 -702 0
136 517 -748 0
-763 -224 -63 0
325 381 -613 0
336 32 -27 0
181 -923 -832 0
267 -883 888 0
-722 -49 243 0
333 464 -384 0
145 -915 875 0
727 -156 -844 0
-871 -547 -340 0
878 -512 -457 0
-660 -545 914 0
-541 -349 611 0
517 591 -967 0
-249 695 -509 0
650 -419 569 0
-46 987 886 0
-984 -295 840 0
-762 -862 -188 0
682 -817 -14 0
-394 -313 -853 0
-895 -126 560 0
972 -22 309 0
-779 847 -51 0
-593 -708 488 0
-92 73 -314 0
60 720 -956 0
-89 13 87 0
639 -72 959 0
491 358 -639 0
545 -140 -9 0
122 -279 -775 0
494 952 19 0
-172 19 -649 0
685 -879 -85 0
874 721 -933 0
656 -866 545 0
-798 974 -653 0
388 322 223 0
-44 699 -221 0
-491 815 -723 0
713 -651 28 0
521 -324 600 0
-43 456 845 0
-558 -223 744 0
-972 269 -202 0
882 413 -956 0
871 -851 794 0
623 383 -148 0
-31 454 90 0
507 -767 -139 0
190 -409 941 0
728 830 -562 0
667 -834 635 0
-870 916 -45 0
-812 -264 506 0
187 999 429 0
595 633 -212 0
-259 715 661 0
-537 445 -162 0
882 -251 -929 0
-900 -269 -316 0
572 -582 -579 0
-553 -762 -927 0
56 5 -541 0
430 -703 -488 0
-115 -939 492 0
221 -162 845 0
-200 216 285 0
931 -971 771 0
39 493 -332 0
45 347 736 0
970 -551 503 0
838 117 -837 0
20 -66 773 0
-174 986 -435 0
-618 -517 -869 0
-98 997 500 0
403 611 547 0
-628 799 146 0
-576 562 -465 0
-121 355 -281 0
861 -682 -38 0
-424 -699 -686 0
725 -547 -661 0
-483 513 691 0
-481 650 442 0
-392 -757 -473 0
185 -686 -179 0
-514 517 -63 0
722 -940 -915 0
-137 -440 44 0
-310 -571 461 0
514 -296 310 0
-616 504 -564 0
-917 716 777 0
609 259 617 0
-927 308 137 0
647 -725 -698 0
-226 -421 -221 0
186 365 -472 0
577 -236 -147 0
230 -587 -326 0
-787 -818 -755 0
623 608 453 0
-579 193 -348 0
841 -1 396 0
-843 580 244 0
611 511 760 0
107 377 -761 0
-681 -675 242 0
-154 -899 929 0
961 443 649 0
758 -250 -710 0
740 540 213 0
-228 -572 645 0
235 -367 22 0
170 729 -328 0
-405 18 38 0
-436 -770 -238 0
-371 661 -564 0
338 -105 6 0
61 -575 -612 0
717 39 937 0
367 -2 193 0
-768 -286 648 0
941 833 -63 0
635 -966 779 0
427 12 883 0
918 -141 -609 0
-868 -412 -223 0
744 -486 -484 0
-318 574 -155 0
-423 -514 540 0
-612 -303 -986 0
163 928 932 0
-549 630 -945 0
-168 -383 -253 0
391 -234 412 0
-186 -655 721 0
-675 177 -589 0
-498 82 397 0
357 -203 -351 0
-459 507 -13 0
-924 878 -42 0
727 854 -426 0
-940 135 557 0
-291 20 12 0
379 316 -91 0
735 -917 -973 0
-2 143 -926 0
-898 -409 -827 0
-881 -324 141 0
-657 895 -410 0
666 225 964 0
289 371 739 0
869 -285 696 0
-554 -334 -669 0
293 -606 -185 0
297 -243 -770 0
-487 -732 -437 0
416 -528 -434 0
435 310 -988 0
61 439 -904 0
791 -251 468 0
335 640 -908 0
-784 -720 -175 0
629 279 -960 0
-146 358 -557 0
-721 105 339 0
189 371 119 0
788 361 -871 0
-400 750 -843 0
187 -432 308 0
-782 986 -649 0
74 -760 -636 0
575 750 -39 0
85 488 -991 0
922 -140 514 0
-49 -845 788 0
971 -653 -479 0
-536 320 -522 0
-847 -37 167 0
934 962 175 0
384 176 125 0
306 -614 560 0
-844 701 23 0
987 -300 -669 0
-973 354 -514 0
-636 312 -771 0
439 -354 -939 0
144 -481 669 0
-42 -533 -919 0
-970 260 -735 0
156 761 33 0
617 321 860 0
455 296 931 0
469 84 568 0
86 103 239 0
991 509 -251 0
731 814 716 0
-904 -17 603 0
591 -122 -962 0
226 334 -255 0
407 -193 -701 0
570 589 305 0
-19 36 -672 0
607 -773 469 0
687 -33 74 0
202 441 -816 0
-336 167 -570 0
-341 -29 -827 0
112 501 417 0
906 418 -756 0
262 634 -543 0
-686 -662 -261 0
-629 -870 484 0
-817 -523 -289 0
-265 66 -859 0
-889 647 125 0
826 -169 117 0
769 -685 -943 0
275 896 159 0
515 -917 -175 0
-204 -952 211 0
778 137 -384 0
756 -97 -807 0
857 189 261 0
689 -53 -19 0
-144 135 -229 0
-749 623 423 0
933 235 38 0
-31 -662 727 0
-374 -271 60 0
399 -328 380 0
-207 -546 191 0
-481 -592 44 0
-174 304 -670 0
710 -394 114 0
-962 626 -584 0
939 365 854 0
-733 127 -438 0
-267 33 -449 0
-504 135 -920 0
-453 587 -823 0
772 159 -13 0
851 -146 -106 0
-758 162 89 0
-972 182 263 0
584 283 -350 0
-592 843 981 0
593 -559 633 0
345 -364 838 0
187 -729 991 0
-876 -87 924 0
-350 870 791 0
516 652 -714 0
-602 914 -871 0
-858 -223 682 0
901 807 -174 0
-838 455 331 0
825 -600 195 0
35 -743 424 0
227 -353 -554 0
-475 -850 -789 0
-867 -739 744 0
-648 -699 -98 0
-643 790 834 0
998 358 11 0
-319 -917 -405 0
455 -572 86 0
-407 -315 -749 0
981 362 247 0
-990 -867 -284 0
798 -601 129 0
1000 80 784 0
136 -117 991 0
-731 -841 -58 0
-521 -456 -636 0
670 285 -441 0
-685 449 -376 0
-800 -698 658 0
967 701 559 0
-357 -680 858 0
-982 -502 -489 0
-966 -155 -128 0
498 795 -367 0
925 -395 -554 0
-310 -589 352 0
-287 -219 -449 0
-104 -46 -234 0
-162 -171 920 0
-626 280 -360 0
-865 -102 983 0
-657 -61 734 0
-793 349 380 0
423 357 -463 0
-871 642 -142 0
485 -359 510 0
-895 -786 -663 0
591 -634 -374 0
846 -755 259 0
-79 -884 -752 0
-68 -307 327 0
-659 -58 -634 0
182 -490 756 0
-779 568 -616 0
927 133 746 0
143 131 -439 0
278 -781 -651 0
627 499 -972 0
-418 -534 557 0
-439 433 751 0
-34 387 85 0
386 162 810 0
-819 462 880 0
-235 -104 169 0
-830 975 -203 0
-271 465 864 0
-917 -18 -251 0
367 -8 -396 0
-287 497 789 0
671 -222 40 0
399 -706 -56 0
103 -639 -954 0
-477 -122 -981 0
-567 -617 -586 0
-18 227 -945 0
-959 -186 -492 0
98 351 -448 0
-512 -394 -45 0
823 -944 195 0
-711 -245 -588 0
468 699 -432 0
-107 113 -76 0
-167 -472 383 0
-787 -184 -577 0
-520 352 -308 0
255 -680 819 0
-16 604 -479 0
-719 590 753 0
857 8 359 0
-340 -545 -821 0
-479 456 -962 0
910 891 701 0
374 299 826 0
-221 -919 -334 0
-200 -170 -729 0
205 189 -845 0
43 576 714 0
966 -563 873 0
-838 400 -438 0
657 541 328 0
660 545 543 0
491 522 -13 0
800 -379 443 0
-459 895 330 0
-105 320 -323 0
-902 -159 291 0
370 -809 257 0
487 -489 -406 0
297 597 -487 0
-91 124 -651 0
-881 97 898 0
-377 -337 -124 0
-886 -974 192 0
826 48 621 0
56 499 796 0
817 -259 844 0
-972 785 -935 0
-714 -665 764 0
-776 -611 898 0
-401 447 -764 0
-31 -226 87 0
-552 -306 890 0
301 -798 -551 0
-749 728 -568 0
-820 -286 -805 0
819 761 -437 0
-961 -302 471 0
-953 -504 -930 0
-412 8 499 0
614 582 52 0
-20 -247 -743 0
-100 -771 32 0
409 296 -470 0
-846 -981 997 0
-499 -467 456 0
-479 -18 488 0
-53 361 -877 0
-852 -347 -8 0
-122 -182 -135 0
783 -841 328 0
446 748 474 0
169 -611 726 0
-252 41 805 0
142 -944 -570 0
-626 -756 -102 0
675 665 725 0
775 -970 -966 0
865 867 -766 0
-672 -618 814 0
412 -127 -882 0
616 -732 -233 0
727 801 196 0
-144 736 286 0
-768 174 -209 0
129 23 312 0
-644 -833 -506 0
881 132 910 0
-866 247 -600 0
-329 649 -322 0
802 610 -465 0
-596 -373 476 0
328 123 33 0
-334 -207 989 0
-455 -131 -47 0
-198 -410 -489 0
-145 -49 717 0
895 -306 108 0
-370 732 -507 0
415 964 -461 0
632 -611 282 0
365 720 -362 0
80 74 -280 0
-548 -214 -817 0
-289 196 -992 0
958 -9 777 0
-45 -761 -217 0
-806 729 460 0
-46 -64 -291 0
723 967 -917 0
531 353 705 0
104 133 -659 0
511 292 -166 0
-173 -809 -81 0
-947 503 451 0
340 -877 -67 0
930 -706 1 0
-60 -841 -806 0
-536 484 -777 0
492 -97 162 0
-498 -754 -537 0
912 413 -505 0
281 -50 -762 0
-497 -976 845 0
-791 999 -168 0
144 869 540 0
-563 -712 -370 0
822 356 795 0
-738 -226 50 0
998 -760 -507 0
880 -168 -559 0
-33 418 -445 0
710 -708 -200 0
-567 -232 398 0
-621 -17 607 0
-189 138 180 0
666 -899 14 0
2 213 473 0
443 -170 531 0
-98 299 -334 0
-220 -947 284 0
144 -347 -614 0
692 525 -63 0
-821 -175 6 0
427 -137 93 0
-694 446 -986 0
345 497 554 0
915 -714 34 0
223 672 -432 0
-495 -296 291 0
130 -514 -216 0
884 495 554 0
-441 768 342 0
-27 -744 -495 0
712 761 660 0
-971 -61 268 0
786 -912 803 0
-956 -896 -774 0
-656 -198 -603 0
944 618 -340 0
167 -290 161 0
35 330 -60 0
-151 -366 -45 0
-135 -761 -443 0
-707 -508 259 0
700 669 766 0
32 999 226 0
-462 748 -895 0
581 12 85 0
296 434 728 0
-291 21 181 0
509 -898 932 0
-581 828 484 0
-305 439 791 0
-273 -716 185 0
-813 -982 -282 0
946 -654 -421 0
-971 534 445 0
979 375 -957 0
307 -261 -351 0
-970 575 -760 0
-260 -112 -940 0
890 36 -321 0
-138 585 -703 0
-25 -100 773 0
-195 -270 534 0
-512 454 -753 0
340 957 -752 0
842 961 772 0
-66 -852 -667 0
-349 -479 -328 0
-892 -876 288 0
-331 622 -218 0
986 -379 113 0
812 -553 691 0
-333 -944 103 0
-624 161 -777 0
-443 1000 -845 0
-825 173 326 0
874 -940 -927 0
499 -784 -895 0
-46 4 102 0
-815 -37 80 0
113 87 155 0
-58 964 -108 0
-198 128 435 0
571 267 556 0
-12 -45 136 0
-241 851 -398 0
475 690 306 0
529 920 603 0
461 368 -130 0
-475 -236 440 0
-990 219 820 0
640 -779 -680 0
942 17 13 0
911 733 864 0
-359 896 -531 0
-808 -451 263 0
467 85 31 0
37 394 -301 0
-458 996 303 0
532 -896 -113 0
368 -51 323 0
345 -721 -725 0
881 -901 378 0
-519 -239 281 0
809 229 232 0
21 587 869 0
-844 -647 -416 0
-751 -464 -745 0
-661 169 600 0
-915 558 831 0
-567 -736 831 0
-239 716 -578 0
-31 -138 389 0
446 -952 650 0
-504 208 -842 0
32 192 85 0
427 -954 -878 0
-520 846 600 0
-623 893 -486 0
-607 -74 -980 0
-186 -55 -464 0
-209 4 -562 0
626 399 -41 0
340 390 798 0
924 284 422 0
-327 429 67 0
683 710 -79 0
821 220 290 0
-363 330 65 0
564 -878 701 0
276 483 633 0
-769 427 514 0
-609 2 -814 0
-455 -882 671 0
568 -690 -515 0
475 -848 64 0
-650 -737 -87 0
-454 370 850 0
-52 -32 605 0
143 845 339 0
-248 -120 -411 0
-447 -509 511 0
-353 297 -8 0
-450 415 538 0
620 115 185 0
391 972 -833 0
631 259 102 0
-471 527 654 0
50 886 -53 0
197 292 821 0
760 486 -42 0
557 942 -526 0
809 -581 16 0
181 -325 -448 0
-633 -201 288 0
552 -692 -802 0
-28 -11 -974 0
944 -436 -297 0
-17 621 -368 0
-791 162 680 0
-673 -909 735 0
252 201 -637 0
502 -465 515 0
618 856 -38 0
899 969 -100 0
-809 518 -490 0
-703 544 655 0
674 198 590 0
718 -369 -919 0
-998 -245 -573 0
-17 -244 -324 0
-879 -171 -477 0
-495 509 389 0
-745 847 694 0
165 274 -637 0
937 183 702 0
906 -74 -865 0
-936 -681 -724 0
898 149 979 0
235 -251 -752 0
977 523 -127 0
-369 -93 474 0
-994 -748 -465 0
-141 -265 -270 0
761 -904 -207 0
716 80 -780 0
490 -824 -514 0
-376 -769 -827 0
106 935 -969 0
663 -706 243 0
-857 748 949 0
43 -389 241 0
-721 -807 494 0
-277 -998 -466 0
-146 -594 -746 0
590 472 -516 0
-763 -707 -909 0
97 -728 -655 0
-676 -281 -1000 0
518 -585 752 0
618 718 846 0
921 -902 -526 0
77 944 -626 0
629 2 738 0
-768 449 -408 0
831 235 -649 0
-282 844 -352 0
-222 -663 859 0
900 -273 -635 0
-615 -67 -491 0
164 646 642 0
-96 -355 -697 0
-914 -588 -374 0
18 -776 893 0
-990 -859 384 0
32 487 -185 0
-17 897 -692 0
-778 -510 -513 0
340 55 -458 0
-21 541 487 0
936 531 -317 0
-801 477 -626 0
368 790 -190 0
-967 85 -125 0
-886 323 423 0
276 340 -951 0
884 700 -282 0
-348 -175 659 0
602 748 -682 0
561 -508 -118 0
-412 89 -771 0
-900 -89 -416 0
-814 -563 682 0
435 334 -617 0
195 792 -48 0
371 -235 -796 0
131 514 -777 0
-690 273 263 0
703 29 -745 0
412 -972 277 0
-33 738 -888 0
204 696 -666 0
426 -783 118 0
202 994 136 0
-882 754 559 0
264 -79 25 0
-123 588 -223 0
-723 -996 -203 0
463 529 -927 0
-314 886 -93 0
-868 -370 70 0
-169 208 792 0
-253 947 -31 0
-703 -601 661 0
88 433 -694 0
-661 -118 452 0
183 762 -992 0
-123 -311 -598 0
475 257 -240 0
-200 -868 -544 0
947 -82 -818 0
-565 -76 925 0
-713 516 -614 0
654 -7 169 0
-370 -887 475 0
-572 769 -974 0
-658 677 -780 0
-772 939 -801 0
403 760 796 0
689 -185 686 0
-809 -421 644 0
-648 -775 -726 0
-160 932 -801 0
49 -951 932 0
-708 -723 341 0
-975 7 295 0
606 986 555 0
350 -118 -366 0
-816 734 373 0
57 -351 -348 0
-947 -177 -387 0
-113 773 65 0
-763 -634 31 0
-826 -645 570 0
-225 -597 -223 0
-85 -346 551 0
113 -676 -831 0
-528 -917 762 0
537 366 21 0
995 264 -790 0
-148 257 -606 0
623 259 241 0
-360 663 -194 0
-862 895 821 0
-859 463 550 0
628 191 797 0
259 -840 -848 0
755 143 267 0
-722 255 327 0
936 -504 -789 0
68 559 -808 0
-99 -640 -181 0
602 -723 -522 0
664 797 -810 0
-986 327 287 0
-167 935 92 0
11 219 527 0
-764 402 234 0
-931 -441 -210 0
-644 455 954 0
-679 -677 -300 0
-808 -270 233 0
391 -836 490 0
-283 63 655 0
-747 891 792 0
743 -761 288 0
-506 191 -96 0
765 869 -949 0
-824 608 -267 0
-838 54 196 0
463 -563 -233 0
830 620 453 0
-913 115 585 0
-753 -110 -18 0
-934 751 413 0
894 206 879 0
273 -583 734 0
-175 -236 595 0
-499 -378 -392 0
591 -268 -787 0
71 -49 712 0
-301 -321 -441 0
955 -599 -301 0
282 -502 -574 0
-901 -253 419 0
73 -466 598 0
-50 578 -874 0
-655 67 -676 0
861 453 176 0
-552 -336 906 0
-934 -296 387 0
980 31 -388 0
-398 -372 -385 0
-448 -528 349 0
-595 314 -399 0
837 -162 696 0
-20 -159 -509 0
393 173 -812 0
613 -705 -834 0
-374 -255 -366 0
-37 263 806 0
-293 683 851 0
-201 -265 -808 0
-917 601 745 0
347 760 -889 0
-14 168 -480 0
634 282 435 0
-665 24 81 0
947 905 198 0
-15 33 141 0
729 535 883 0
147 -482 16 0
-102 981 816 0
-854 553 -638 0
496 -196 -154 0
-611 -681 -916 0
-613 386 -183 0
-451 -736 -582 0
383 131 881 0
317 -302 -993 0
133 558 891 0
-493 80 615 0
-252 -754 -589 0
-411 928 -161 0
-235 29 -999 0
601 655 436 0
-70 842 217 0
-388 347 -993 0
375 120 -380 0
370 531 593 0
149 -973 -959 0
921 750 -837 0
709 -563 419 0
-28 -136 -770 0
228 308 385 0
653 -205 697 0
-187 -873 453 0
-113 -743 -542 0
188 68 -525 0
-996 -75 680 0
970 913 -35 0
-311 870 95 0
-436 525 -194 0
-609 133 340 0
611 -129 358 0
-456 712 -75 0
-736 -746 -101 0
-712 260 477 0
-923 -861 218 0
-183 -450 -34 0
558 539 -842 0
471 -507 418 0
-403 959 436 0
-429 884 170 0
-264 38 672 0
107 -131 266 0
-594 -421 -107 0
-585 -932 466 0
324 -351 -355 0
-555 633 449 0
915 252 -359 0
249 -624 129 0
630 907 231 0
-86 -160 -264 0
528 -497 565 0
986 529 -54 0
828 -467 -288 0
-453 -455 175 0
-945 -917 -277 0
-222 685 495 0
582 681 -519 0
-212 -927 -868 0
-709 -669 883 0
388 -325 -202 0
74 -416 174 0
677 -618 883 0
139 602 948 0
-76 877 986 0
592 -899 -532 0
-96 -102 574 0
-231 -438 676 0
952 -803 -301 0
1 913 493 0
-317 -385 451 0
-413 -883 310 0
-214 -476 183 0
542 -163 -946 0
-454 -52 -439 0
961 372 -658 0
-112 292 -132 0
-708 794 -317 0
-508 243 809 0
-210 705 127 0
-842 -784 430 0
17 828 170 0
-581 20 899 0
-331 658 -937 0
-333 -780 -301 0
-235 -768 -749 0
482 -669 229 0
11 -592 -974 0
-354 209 -629 0
-407 676 316 0
-868 -605 117 0
32 -192 -471 0
484 -461 565 0
-224 -994 -364 0
975 -83 270 0
-572 528 764 0
-654 -103 -141 0
-791 -810 405 0
429 956 -347 0
-852 -526 460 0
791 995 -255 0
57 -602 26 0
977 -211 266 0
23 -652 526 0
831 -651 -62 0
-472 -445 -692 0
121 -101 -820 0
897 -140 -671 0
133 693 629 0
-725 94 -116 0
-627 -505 -562 0
-649 603 -826 0
-109 84 615 0
-404 181 958 0
-968 983 -800 0
294 -367 830 0
600 200 273 0
625 -348 -424 0
-246 -692 556 0
-79 685 -66 0
-125 -487 -624 0
209 -13 -131 0
-449 827 -582 0
910 -858 -164 0
-433 339 555 0
882 947 -193 0
-778 -583 -896 0
-283 -349 678 0
-489 838 471 0
-425 70 561 0
-603 715 628 0
21 -536 -944 0
240 -621 -91 0
255 -718 623 0
-418 -490 298 0
-589 550 735 0
484 137 852 0
391 184 860 0
971 445 -926 0
955 -58 237 0
-939 957 -42 0
-886 857 70 0
991 278 564 0
-166 42 -83 0
-500 -265 470 0
-701 446 480 0
513 682 139 0
-127 -323 -950 0
-166 15 559 0
-792 -55 436 0
-15 63 -131 0
464 343 -64 0
-238 -181 509 0
-731 982 -388 0
33 -95 -677 0
553 887 5 0
980 -320 108 0
195 -727 -607 0
273 456 -844 0
765 -23 -528 0
-468 -158 -825 0
931 103 913 0
1 -839 -442 0
621 -125 -118 0
-910 806 720 0
205 840 327 0
613 754 -466 0
645 -443 19 0
-320 123 311 0
-116 -259 625 0
742 -682 -850 0
-774 486 12 0
-394 -189 -448 0
711 268 219 0
304 884 748 0
627 373 -521 0
-938 -149 -531 0
-319 -179 920 0
764 -119 589 0
-925 523 895 0
577 707 360 0
-910 189 569 0
112 573 -790 0
-228 -964 -156 0
-503 299 218 0
-240 -482 -797 0
-774 608 161 0
-437 291 -129 0
159 -939 652 0
623 954 878 0
602 807 -660 0
199 348 254 0
110 708 -599 0
273 591 -223 0
43 -997 693 0
-133 -470 912 0
896 -48 -514 0
-916 -682 429 0
-876 928 206 0
37 -866 827 0
902 503 877 0
-592 -588 -29 0
981 544 -585 0
-34 759 806 0
963 434 76 0
-687 683 -667 0
934 35 168 0
-122 604 -651 0
-326 814 -673 0
-81 -964 849 0
760 -483 529 0
-450 459 97 0
858 -304 -935 0
477 31 426 0
308 -932 -345 0
964 -394 985 0
-652 -948 674 0
-450 -243 -895 0
-784 267 576 0
32 -172 530 0
-957 870 744 0
599 265 119 0
-142 -190 664 0
466 -882 171 0
72 29 -148 0
652 365 422 0
321 299 184 0
57 -228 506 0
546 869 -706 0
-232 -13 853 0
245 819 266 0
633 -100 929 0
850 954 478 0
-958 -2 102 0
823 -786 215 0
131 -730 -636 0
-415 584 -100 0
-402 -514 -666 0
85 -719 104 0
442 231 341 0
710 -138 -287 0
889 -23 -470 0
-741 930 854 0
-260 -664 -201 0
-441 -86 -893 0
482 838 -494 0
-894 180 279 0
-592 20 656 0
-779 -917 128 0
909 119 -675 0
618 -899 -117 0
893 831 -632 0
-632 12 -273 0
-718 -954 946 0
628 720 910 0
-219 967 310 0
98 394 558 0
129 -115 342 0
823 -520 -715 0
-188 136 -279 0
-643 264 870 0
535 -414 110 0
-164 467 887 0
-906 499 -553 0
-610 -177 474 0
-6 275 44 0
397 29 966 0
562 944 -127 0
399 506 927 0
864 -552 -394 0
796 -5 -616 0
-477 -761 758 0
-340 -444 168 0
419 -37 559 0
89 -209 156 0
1000 -53 283 0
427 993 -243 0
822 273 840 0
-995 238 916 0
590 -781 726 0
620 -887 -26 0
-486 -959 -530 0
-413 527 110 0
-915 697 698 0
852 -589 554 0
201 237 -402 0
-926 -768 -735 0
195 -254 510 0
-692 997 -253 0
262 -20 645 0
-591 -368 -584 0
713 905 -980 0
131 -170 -633 0
-821 -252 -951 0
-742 282 868 0
-105 -460 719 0
366 -437 -114 0
109 425 255 0
-920 670 767 0
76 223 92 0
-430 -804 -232 0
917 -104 155 0
623 -919 290 0
446 -311 -403 0
526 -13 860 0
-631 712 -378 0
194 -80 -313 0
-607 425 -803 0
339 -79 33 0
-371 365 -264 0
192 577 -6 0
-671 452 -827 0
301 19 -831 0
9 -444 274 0
-981 -217 452 0
153 -952 829 0
-523 990 308 0
-107 -832 452 0
-752 -102 843 0
488 872 998 0
285 678 -300 0
-772 240 -843 0
-931 -403 -20 0
-340 -920 -879 0
235 -495 38 0
671 739 -140 0
531 -158 95 0
889 -596 -347 0
-847 -820 -113 0
-751 -922 -893 0
38 -165 -934 0
-585 990 227 0
-997 639 486 0
590 321 -470 0
735 772 887 0
-424 856 159 0
-654 398 622 0
824 771 -117 0
610 742 -268 0
-197 951 -190 0
-507 -83 942 0
-917 458 281 0
-918 91 -801 0
-815 -439 629 0
933 -127 -553 0
599 -619 342 0
-314 823 -333 0
-988 -273 374 0
-582 813 241 0
-778 -478 -981 0
-268 352 -94 0
293 -412 86 0
124 -426 638 0
655 -403 -420 0
910 -210 537 0
-695 705 366 0
-420 833 203 0
-489 -815 738 0
-550 -147 -544 0
908 -233 -643 0
147 -188 59 0
791 11 411 0
799 -936 745 0
384 158 -128 0
287 -691 -492 0
986 840 966 0
-821 983 -812 0
-504 165 670 0
-361 -587 -183 0
733 -975 -929 0
175 830 -896 0
-497 285 -656 0
-899 -340 78 0
701 444 702 0
443 -50 304 0
193 312 818 0
735 920 980 0
629 448 400 0
-434 -835 261 0
162 -258 464 0
-474 -644 402 0
274 -809 134 0
-175 -968 957 0
898 -380 -40 0
-242 158 825 0
-537 801 -978 0
196 -100 -154 0
-899 -561 524 0
-814 -800 527 0
-511 -25 -94 0
-106 864 -98 0
-418 -54 -799 0
224 -191 -628 0
-79 -221 35 0
5 644 14 0
-27 -308 -344 0
474 133 -950 0
537 -454 250 0
69 801 -645 0
-785 -532 -630 0
-973 -156 -612 0
-596 -141 566 0
716 478 -137 0
178 -500 -815 0
-298 753 -830 0
49 582 685 0
349 170 -885 0
381 107 922 0
511 -345 -531 0
-244 -901 -751 0
-617 594 739 0
-603 -613 329 0
-504 -307 -66 0
-796 625 319 0
-948 -671 867 0
-524 369 564 0
-406 -809 -301 0
-250 752 80 0
537 -906 851 0
901 380 -108 0
927 3 753 0
883 -813 -791 0
-781 976 -39 0
-590 -877 45 0
-202 557 447 0
289 108 405 0
463 980 -147 0
426 414 679 0
975 -867 256 0
630 760 -182 0
-990 -500 -935 0
-660 -880 -209 0
-773 45 800 0
491 -975 788 0
824 410 -739 0
-898 -426 -938 0
890 -257 -743 0
955 -15 -935 0
509 -884 604 0
160 -882 710 0
-213 -299 -518 0
-500 -134 138 0
95 -428 -345 0
768 -868 601 0
-794 952 -517 0
-229 -263 870 0
720 -170 -95 0
179 -354 529 0
177 -450 1000 0
-526 -221 -368 0
-572 -398 -635 0
591 -30 301 0
-674 -649 -797 0
-40 411 150 0
220 -135 557 0
507 -483 778 0
-279 940 -121 0
-82 -20 999 0
449 -516 -286 0
895 -279 390 0
197 662 -670 0
65 519 16 0
-299 473 -124 0
380 72 -473 0
-112 -642 822 0
772 868 431 0
-23 969 -725 0
-969 927 227 0
-542 -79 -260 0
854 -484 -551 0
186 353 -787 0
850 -627 607 0
428 468 -84 0
465 -767 681 0
428 803 518 0
-138 851 -595 0
159 599 264 0
-67 -717 -994 0
930 935 593 0
-234 -179 -364 0
-214 -219 869 0
832 359 57 0
-772 -638 -701 0
799 -810 692 0
-340 853 -392 0
-164 69 820 0
750 -598 -826 0
628 985 -231 0
-898 -29 393 0
-485 -853 -968 0
-679 314 -521 0
337 113 393 0
281 -797 408 0
343 90 -618 0
947 71 254 0
347 -37 532 0
330 -712 -285 0
310 548 -972 0
-320 810 -229 0
-367 873 687 0
389 988 -971 0
145 916 -51 0
404 -658 216 0
-565 798 475 0
884 928 745 0
-140 661 950 0
-313 -160 -23 0
-89 -204 -597 0
-751 -161 389 0
132 754 886 0
-678 -382 14 0
-450 -860 889 0
719 633 3 0
966 654 571 0
9 -398 745 0
-824 -424 22 0
-949 606 -62 0
-40 935 117 0
-656 -842 -748 0
-754 -855 -647 0
-55 -773 -8 0
20 -246 -744 0
812 -230 -843 0
-765 536 -254 0
-112 -46 452 0
83 -739 -762 0
-372 -156 692 0
809 -804 -190 0
577 646 -803 0
417 513 957 0
95 -409 709 0
-669 -542 -811 0
846 650 -376 0
-793 556 -252 0
524 88 934 0
179 -953 -269 0
-930 93 352 0
4 177 375 0
951 -751 882 0
878 -200 794 0
571 807 -44 0
971 -292 -758 0
465 -933 -562 0
-322 -791 -764 0
23 302 822 0
-213 -691 487 0
-938 547 -737 0
176 961 -625 0
-780 -485 351 0
611 -828 720 0
-803 828 420 0
-57 -251 -277 0
403 -503 -153 0
362 -463 26 0
141 -123 -647 0
-860 -736 -865 0
323 -97 -716 0
352 -6 454 0
117 -198 128 0
240 690 -263 0
197 57 1 0
-970 -513 563 0
-887 228 375 0
620 501 -98 0
-885 365 -358 0
135 -773 759 0
-542 753 -716 0
-900 -181 -735 0
730 833 -648 0
980 -865 -646 0
763 -879 486 0
656 596 930 0
493 588 33 0
444 -243 758 0
660 -256 -124 0
406 -408 -483 0
-590 932 959 0
-91 230 -541 0
955 5 155 0
932 -309 358 0
470 -418 241 0
-114 -537 932 0
-478 123 -205 0
-695 550 304 0
357 773 275 0
332 441 -221 0
-90 870 -501 0
-414 -266 23 0
-889 476 -189 0
967 283 -454 0
787 -373 635 0
-552 -739 -538 0
219 595 -446 0
629 -657 -460 0
-96 705 -615 0
804 -85 -415 0
-941 391 904 0
540 559 433 0
-725 187 587 0
868 -898 -746 0
-772 173 -36 0
-844 -955 -613 0
-956 171 119 0
-755 813 -511 0
15 792 -540 0
802 855 355 0
-306 -958 694 0
-568 -710 390 0
-291 -106 462 0
32 886 -214 0
-757 -61 -282 0
509 -44 125 0
557 551 -202 0
431 -177 -121 0
962 -218 -148 0
-28 -167 402 0
270 866 563 0
254 -843 -573 0
235 -496 12 0
970 -85 -547 0
832 943 391 0
-583 359 -92 0
-583 -570 949 0
369 893 -646 0
-553 322 -667 0
-263 -404 -194 0
-206 -336 625 0
568 113 435 0
159 950 39 0
-645 641 -22 0
142 -57 133 0
957 -857 -910 0
-48 601 811 0
-736 172 152 0
834 546 -263 0
757 896 193 0
-436 666 -339 0
992 835 950 0
205 184 -738 0
-498 -566 841 0
1000 606 -242 0
-522 -910 290 0
-135 -47 124 0
-365 -424 -256 0
-847 479 177 0
-572 781 -458 0
837 852 30 0
-21 433 789 0
95 355 -327 0
98 -336 784 0
-730 240 -356 0
-718 -601 -33 0
-430 753 -945 0
-36 -427 -552 0
699 -961 136 0
-720 -876 36 0
-249 -1 815 0
-840 -504 634 0
-137 514 428 0
888 -937 233 0
456 -383 635 0
-609 -551 279 0
976 -213 955 0
802 -957 -116 0
274 -854 -641 0
-990 -81 -230 0
-180 -356 321 0
-407 -937 -81 0
-59 -1 -463 0
26 -211 -638 0
532 734 -910 0
-461 66 487 0
-216 -501 438 0
-171 882 946 0
-862 25 988 0
821 485 360 0
286 -819 568 0
789 -361 -777 0
-770 -916 777 0
-404 228 -919 0
821 -453 -408 0
502 468 -910 0
-243 -623 -911 0
-105 650 919 0
683 -653 743 0
-756 952 -791 0
-171 116 -744 0
723 415 -78 0
780 396 -296 0
768 -404 461 0
979 151 -133 0
-717 -16 -226 0
263 -399 682 0
327 602 -75 0
-422 -468 91 0
120 268 -39 0
-578 206 -400 0
-897 664 705 0
931 -14 644 0
620 -424 520 0
622 846 161 0
-313 464 137 0
853 -357 237 0
915 -807 -681 0
516 -76 -693 0
-233 -509 541 0
-510 655 -901 0
653 421 -947 0
228 -546 264 0
-148 -609 -885 0
-13 258 253 0
883 950 -734 0
765 -546 -111 0
-175 -242 31 0
-65 -541 34 0
897 -729 536 0
-534 784 700 0
690 251 -821 0
326 365 -261 0
570 -493 765 0
359 94 716 0
954 682 138 0
178 -135 823 0
-790 -70 -964 0
564 937 -414 0
930 -552 633 0
367 -544 -478 0
-522 390 -611 0
220 -496 -285 0
-142 -598 -149 0
-402 879 -380 0
-846 -34 472 0
512 -507 133 0
-914 453 -919 0
289 -960 -433 0
621 -355 -438 0
413 373 719 0
-927 454 -371 0
737 717 -942 0
-813 232 -93 0
24 360 549 0
-397 787 381 0
-979 -14 408 0
857 -539 392 0
908 -296 24 0
114 378 -171 0
959 -381 -862 0
-548 -315 -520 0
-98 179 443 0
3 757 -539 0
-467 779 -906 0
59 560 -339 0
989 6 -55 0
-521 90 -111 0
-140 935 29 0
980 -862 -819 0
-735 -673 -298 0
350 526 241 0
-366 657 -712 0
-268 -105 -296 0
-772 -299 895 0
-945 441 749 0
-835 420 757 0
223 711 698 0
29 -703 522 0
124 -422 -8 0
718 217 -624 0
599 -624 -460 0
-954 74 -161 0
-145 952 -525 0
-299 -958 826 0
-179 -56 317 0
-785 -155 -545 0
173 -454 -123 0
641 293 -400 0
-229 -779 476 0
754 863 565 0
-43 41 920 0
765 467 564 0
-289 -749 673 0
268 -18 -459 0
-737 -756 31 0
393 862 -95 0
-243 -689 676 0
-680 -691 -103 0
-258 35 808 0
168 -698 257 0
950 -788 -784 0
532 729 -943 0
-902 -709 22 0
909 -379 -651 0
-563 -121 -139 0
516 393 -531 0
436 -736 -416 0
653 -240 -341 0
-472 -657 -844 0
-306 56 -249 0
232 -611 869 0
-584 797 100 0
550 -397 915 0
995 487 445 0
327 751 797 0
624 -802 -100 0
-165 66 341 0
-807 682 585 0
-66 -736 873 0
423 608 -682 0
-695 -621 -107 0
-807 890 -208 0
-766 -225 666 0
119 426 786 0
-652 648 -108 0
-813 338 111 0
880 -756 -116 0
356 -283 -736 0
958 -641 198 0
-844 -739 211 0
-586 135 987 0
286 204 -920 0
469 -981 229 0
289 -18 146 0
-636 -965 161 0
-639 776 477 0
631 876 -379 0
-333 579 -459 0
-962 -626 -76 0
-872 -203 951 0
-127 -681 465 0
-262 -524 -143 0
-718 -347 -80 0
-564 104 731 0
640 -649 719 0
-791 633 832 0
596 42 517 0
-468 749 814 0
980 -147 -692 0
870 676 -668 0
260 930 -998 0
-666 -129 740 0
-743 -983 104 0
824 84 -678 0
332 699 109 0
284 232 699 0
256 253 421 0
444 970 -378 0
877 563 -684 0
234 -794 736 0
525 432 -93 0
43 -720 -291 0
-697 -980 434 0
705 441 -216 0
