p cnf 200 509
144 88 -192 0
134 -167 -144 0
161 40 155 0
72 73 128 0
-158 -36 -177 0
155 111 3 0
132 78 87 0
-43 -123 -162 0
-30 36 -178 0
92 -182 4 0
199 24 156 0
-125 89 -112 0
-47 197 -97 0
-46 108 170 0
-19 -167 131 0
-69 137 44 0
170 13 178 0
28 -130 8 0
-190 133 -188 0
40 119 -64 0
-198 -178 -96 0
152 -73 178 0
197 59 41 0
193 182 18 0
-156 -82 -89 0
-110 -141 142 0
52 29 -3 0
35 -191 41 0
-49 95 -164 0
-189 25 173 0
167 -27 132 0
-151 188 154 0
8 65 47 0
-42 185 -73 0
-135 -185 -82 0
23 112 3 0
159 64 -137 0
109 -187 147 0
20 74 -171 0
110 38 175 0
142 -58 14 0
93 13 -52 0
105 -177 -196 0
-39 111 49 0
189 -27 47 0
-69 -46 -195 0
-25 28 186 0
-46 -104 -85 0
127 -129 192 0
177 35 11 0
45 60 -135 0
-55 174 136 0
-140 -93 16 0
158 -51 137 0
-106 -47 191 0
62 144 30 0
-120 106 89 0
142 -198 -122 0
-98 -67 157 0
145 -73 69 0
2 109 175 0
4 -154 -34 0
-194 91 -149 0
84 -102 -124 0
48 -54 168 0
-44 -158 200 0
21 -50 -132 0
-41 195 136 0
-149 131 -74 0
121 -184 185 0
75 -172 49 0
-184 -141 -70 0
95 168 -158 0
125 124 27 0
142 198 148 0
11 -8 -188 0
18 23 164 0
140 132 1 0
-178 16 68 0
153 46 -186 0
60 -120 121 0
112 -179 132 0
44 -91 -132 0
111 28 -154 0
26 182 66 0
-161 166 137 0
-136 -180 -28 0
188 -27 -198 0
123 -80 -74 0
-144 -47 -155 0
195 63 107 0
-8 -46 -124 0
-69 -112 23 0
-69 -151 -6 0
-187 111 -163 0
97 -123 -11 0
-38 155 -102 0
-75 87 -57 0
39 16 146 0
-31 171 -132 0
-158 64 -171 0
121 103 -16 0
-112 -76 -167 0
-62 -8 122 0
-35 2 -134 0
193 12 43 0
-104 -87 82 0
-11 -30 -107 0
-102 -165 -20 0
-185 30 -37 0
158 73 27 0
-197 -82 101 0
-169 34 -93 0
-93 89 -74 0
179 -120 -56 0
74 25 153 0
8 52 21 0
140 152 176 0
-82 43 98 0
-143 -102 98 0
-197 86 -160 0
-22 -77 2 0
-48 -83 -134 0
1 -75 -27 0
-112 44 -99 0
-32 112 -100 0
155 25 -80 0
188 -106 -91 0
-140 126 180 0
-82 71 -112 0
188 -170 135 0
-189 -191 94 0
2 -100 -70 0
130 31 103 0
143 67 -116 0
159 -50 163 0
111 -139 -174 0
-190 21 103 0
20 -183 -75 0
60 -83 126 0
168 70 -111 0
-130 -22 105 0
-164 -28 -64 0
197 -5 24 0
-49 148 186 0
9 -134 -115 0
2 -94 150 0
121 47 182 0
-46 173 43 0
-53 -77 -52 0
-14 -152 -21 0
77 -58 70 0
58 177 -12 0
-74 116 -37 0
-27 -26 -118 0
-142 -168 39 0
66 113 132 0
-28 -53 141 0
-64 -145 82 0
135 -136 172 0
162 -47 110 0
7 -178 -23 0
25 87 24 0
165 179 -45 0
6 -181 199 0
130 34 -32 0
-18 184 -53 0
161 188 91 0
-188 85 65 0
-29 63 28 0
90 -126 -165 0
-30 158 -91 0
-5 84 68 0
107 -70 58 0
40 -58 -166 0
11 -23 100 0
-101 54 177 0
193 -113 45 0
62 -187 -184 0
88 -27 -44 0
102 200 -112 0
38 -13 92 0
-95 142 191 0
45 -157 -50 0
185 24 -62 0
-153 -188 -73 0
137 -98 -114 0
110 77 -90 0
175 -117 -4 0
-123 167 -60 0
-108 -84 200 0
-82 132 80 0
-147 52 -116 0
-122 -150 50 0
-66 25 18 0
-34 -127 193 0
162 31 -82 0
-41 179 -144 0
-145 -101 -63 0
15 167 155 0
-135 -27 -178 0
-79 -4 23 0
-24 -176 33 0
59 167 -14 0
-85 166 83 0
-152 -64 81 0
-196 -88 47 0
-158 -6 -71 0
-198 87 -181 0
-84 -88 -167 0
-115 -12 76 0
-161 -193 35 0
-147 62 -85 0
-32 157 -198 0
-14 -181 133 0
35 143 75 0
162 -8 118 0
3 29 -7 0
-116 -93 104 0
-168 -83 173 0
61 78 -187 0
-80 36 64 0
-41 -124 -10 0
-111 167 -135 0
126 -159 51 0
-15 10 154 0
87 54 34 0
16 -99 53 0
82 -164 184 0
139 173 18 0
-53 20 19 0
-172 -79 -100 0
-67 87 178 0
-153 151 28 0
-106 65 161 0
-68 194 33 0
-156 187 33 0
40 -175 181 0
112 -10 -51 0
198 37 -155 0
187 -137 -158 0
34 28 24 0
-38 8 -146 0
-3 -59 -15 0
135 164 -100 0
48 32 135 0
-167 -80 148 0
-140 1 -102 0
173 191 -80 0
-96 -120 -22 0
133 -119 -118 0
-7 -187 -158 0
83 193 92 0
-101 -157 -135 0
-69 40 -27 0
-156 153 71 0
99 51 -107 0
132 -170 196 0
-135 6 161 0
-107 -51 186 0
36 63 166 0
-160 -106 91 0
191 144 43 0
-28 -189 -178 0
-173 41 -32 0
-110 -141 -5 0
183 108 -193 0
57 -59 -60 0
127 -162 -4 0
-170 84 63 0
-186 -32 192 0
45 141 -65 0
-10 21 -151 0
-194 58 -169 0
117 -115 165 0
-79 111 53 0
-117 167 40 0
40 5 194 0
9 -154 -13 0
124 180 -146 0
-41 77 -42 0
-198 -97 -64 0
-147 101 -132 0
36 66 3 0
-124 8 -144 0
64 -135 55 0
178 62 -181 0
130 34 155 0
52 -61 56 0
-188 -31 70 0
-116 170 -80 0
-35 -164 91 0
-148 -20 -47 0
200 -116 169 0
183 -147 -56 0
19 53 -72 0
101 -59 -107 0
162 12 174 0
-29 144 4 0
-157 164 40 0
-156 63 6 0
35 70 -177 0
-48 -13 -172 0
-192 -182 199 0
-105 166 -58 0
188 30 -117 0
-152 189 -84 0
-54 -175 151 0
-19 -193 -170 0
-41 -51 -189 0
-169 115 73 0
7 -24 -150 0
-12 70 -135 0
77 43 141 0
186 -137 -122 0
148 91 -60 0
-168 -93 67 0
-20 -177 -45 0
-97 84 40 0
-122 -63 -8 0
-100 153 -8 0
-178 -147 13 0
174 -75 -184 0
-26 -38 -122 0
88 69 44 0
127 105 -128 0
-111 122 43 0
79 95 -5 0
101 14 139 0
139 44 -122 0
-141 -134 22 0
-11 -167 -179 0
116 -19 112 0
-180 -104 -195 0
196 65 -98 0
-53 67 40 0
51 120 -88 0
86 69 -129 0
-90 152 -81 0
152 -98 26 0
-137 -76 74 0
-32 137 171 0
-7 25 -194 0
86 108 132 0
104 -62 -22 0
90 137 107 0
43 83 -181 0
143 58 112 0
119 92 -182 0
46 -189 -108 0
-97 112 -154 0
57 135 -142 0
-21 164 117 0
191 -147 -47 0
28 -43 45 0
-124 95 64 0
61 42 -27 0
41 -23 180 0
81 -87 -194 0
-33 155 -148 0
107 -74 87 0
60 147 178 0
-2 85 157 0
-174 -84 -2 0
129 90 126 0
131 -135 62 0
-180 -105 81 0
20 42 -122 0
137 49 -190 0
97 167 156 0
-88 67 13 0
-11 -123 153 0
25 7 -67 0
-68 -171 -137 0
-189 95 -1 0
14 36 52 0
-81 -147 -182 0
-174 41 -182 0
-29 -31 115 0
122 -118 -9 0
-21 -185 -165 0
-160 -187 179 0
-13 -191 -121 0
-15 -188 -99 0
-95 -84 102 0
-116 -142 127 0
-167 107 191 0
-91 -64 -55 0
125 15 -108 0
-40 -62 -100 0
-37 -131 -110 0
-56 -9 -92 0
70 -182 -50 0
75 178 -65 0
-116 194 167 0
79 -4 -174 0
-112 82 116 0
73 -179 168 0
-103 -88 82 0
-23 -12 150 0
-169 55 186 0
-117 97 40 0
6 53 129 0
33 -160 105 0
-92 100 -61 0
168 -96 123 0
10 -135 -147 0
77 193 30 0
188 -73 -44 0
-122 137 -179 0
-18 -152 -113 0
40 96 -190 0
138 33 -60 0
-1 36 45 0
-159 -1 180 0
195 197 -188 0
146 -166 -179 0
-74 -185 103 0
-154 -22 52 0
-167 -39 92 0
140 -160 121 0
-82 175 -147 0
31 156 19 0
18 -200 -139 0
-168 -191 170 0
14 -107 136 0
62 -174 60 0
125 -87 -168 0
-96 -140 134 0
50 -196 45 0
93 23 -68 0
119 -142 -23 0
103 -13 -183 0
-110 175 120 0
124 123 149 0
91 -162 96 0
-55 110 94 0
-149 -85 161 0
-27 7 49 0
-156 -14 108 0
16 127 121 0
70 41 103 0
-132 171 25 0
-109 15 137 0
17 38 -164 0
-157 169 -96 0
144 196 -169 0
-139 79 -167 0
-121 -163 -159 0
132 196 170 0
36 -133 -104 0
55 -42 182 0
89 -17 -72 0
-13 -86 24 0
30 -128 9 0
-50 -154 13 0
-158 42 -156 0
-192 11 190 0
-34 -61 -182 0
187 98 35 0
-48 -52 -139 0
183 122 -148 0
-165 66 22 0
109 -47 -68 0
-165 -145 174 0
-110 67 -140 0
-51 187 98 0
-55 -121 -101 0
178 74 137 0
76 -150 -163 0
-143 11 -149 0
-116 -134 -9 0
-71 64 -126 0
-194 127 -51 0
176 44 -103 0
-9 -76 -192 0
136 158 92 0
-28 -74 61 0
-72 -169 -25 0
-91 -11 -85 0
-3 103 95 0
-58 -197 174 0
-70 -32 82 0
-189 -75 68 0
60 160 -132 0
-173 -24 100 0
58 150 -115 0
-30 119 133 0
72 -32 -17 0
3 21 -27 0
155 -192 168 0
-121 -3 88 0
188 -82 84 0
-35 145 109 0
37 18 -106 0
88 -119 17 0
-5 109 68 0
-53 157 -129 0
191 -117 -156 0
-10 49 148 0
-136 69 -187 0
-133 33 -109 0
180 -198 162 0
138 -149 162 0
-15 -200 71 0
-27 -146 -177 0
-74 39 147 0
-44 113 -125 0
-188 26 -139 0
