p cnf 200 509
-14 192 -163 0
187 177 -97 0
-47 51 166 0
179 59 100 0
-96 -172 45 0
140 14 -38 0
-31 70 168 0
-46 -71 -19 0
28 -86 -131 0
44 195 162 0
117 -82 -47 0
9 -85 12 0
-123 126 -142 0
144 -200 95 0
9 -56 86 0
87 -1 145 0
154 -54 38 0
-139 85 9 0
-190 -44 -117 0
13 -175 -105 0
-8 -164 192 0
-159 72 -111 0
2 -175 1 0
129 154 61 0
39 6 182 0
-180 -177 -193 0
175 -64 25 0
75 52 37 0
21 -198 -72 0
90 81 147 0
-40 104 -44 0
-20 -159 107 0
5 167 -108 0
-91 140 75 0
119 123 181 0
-190 -169 -151 0
177 155 14 0
179 -197 183 0
148 -92 -21 0
151 -74 -65 0
105 61 -120 0
-40 53 6 0
-110 -158 19 0
76 124 -88 0
97 -156 -65 0
-108 -106 189 0
-18 91 50 0
144 -88 78 0
183 81 164 0
-98 -56 163 0
185 9 45 0
-3 96 -75 0
55 -105 164 0
191 -37 70 0
96 139 -5 0
-19 112 -165 0
-112 17 16 0
-166 172 -135 0
110 147 41 0
117 -23 -134 0
-86 -72 26 0
-12 124 -54 0
33 -77 -123 0
155 -144 178 0
152 -46 20 0
-21 -41 -85 0
77 16 -67 0
-64 -78 179 0
98 -105 168 0
72 -188 158 0
17 82 174 0
-181 -57 -110 0
187 -46 93 0
104 156 -154 0
55 -178 -111 0
-7 -149 -138 0
15 28 -50 0
-24 -176 -19 0
-140 120 -61 0
-34 -106 12 0
77 18 -58 0
-26 -17 -92 0
46 -35 -79 0
-181 -107 120 0
73 161 -166 0
95 -7 129 0
-191 -103 -106 0
-137 132 -196 0
33 -139 -77 0
-7 -63 6 0
56 115 -118 0
-159 -186 -189 0
-153 -38 -141 0
-125 -13 -160 0
44 -156 -171 0
-6 -76 70 0
12 105 146 0
149 -29 96 0
80 -121 31 0
-35 68 -62 0
123 -197 -56 0
152 116 -78 0
-165 88 -198 0
17 -122 -182 0
-46 187 -54 0
-39 -182 -131 0
-195 -137 -57 0
-93 22 5 0
-57 -16 63 0
-113 189 -148 0
-165 117 -4 0
-141 114 -134 0
29 100 -129 0
-2 -129 161 0
155 -117 19 0
-156 -70 -136 0
-14 26 -17 0
-39 137 8 0
-187 -142 -37 0
131 -49 -127 0
-164 3 -26 0
-57 98 -19 0
-35 95 149 0
168 28 39 0
-45 50 151 0
-124 -17 7 0
-104 -192 -128 0
134 -41 36 0
-198 140 129 0
120 59 -132 0
12 173 -98 0
-122 -188 -43 0
-57 -170 86 0
-100 -95 -9 0
-77 72 135 0
-53 137 -121 0
171 198 -53 0
178 85 69 0
24 -39 -98 0
-31 18 -188 0
-33 -126 -31 0
-2 98 -183 0
166 -165 -21 0
52 14 -197 0
99 20 6 0
114 -189 158 0
161 -47 -23 0
-32 76 159 0
113 68 99 0
6 -135 87 0
-128 -9 109 0
-66 186 -16 0
-8 122 -114 0
200 83 14 0
-19 -175 157 0
-149 45 38 0
-42 159 124 0
126 33 -125 0
-63 121 53 0
157 -175 -65 0
-53 -48 -91 0
143 101 168 0
5 175 -50 0
-98 -182 6 0
32 -108 84 0
-17 -136 150 0
25 116 39 0
-76 -103 108 0
147 144 -18 0
-196 101 195 0
-32 -191 137 0
-171 -67 152 0
-124 -143 99 0
-63 -175 49 0
35 110 -114 0
79 34 199 0
-59 138 55 0
-150 -69 49 0
-81 105 -14 0
-112 -109 -115 0
3 26 152 0
10 -61 53 0
41 -162 -18 0
-32 -103 39 0
89 168 128 0
-47 121 23 0
-49 93 -166 0
101 -197 45 0
-168 -103 80 0
112 131 -145 0
194 2 23 0
172 46 -93 0
163 -84 14 0
112 -151 -104 0
180 -5 -62 0
118 -80 -113 0
126 21 60 0
-115 150 86 0
-183 148 193 0
-191 -105 70 0
-170 -59 -139 0
173 -189 44 0
53 138 181 0
36 -138 -131 0
92 128 156 0
-43 -89 -163 0
102 -128 172 0
26 30 33 0
129 -104 195 0
107 42 60 0
-135 131 98 0
-62 71 -154 0
-61 -164 -1 0
-183 -90 186 0
46 133 124 0
170 128 12 0
83 -193 -173 0
-33 -175 -130 0
183 -116 61 0
-116 14 -195 0
-160 90 22 0
-50 59 -195 0
-150 -156 -162 0
-117 -165 -156 0
-182 47 161 0
94 181 -60 0
-17 -122 76 0
166 55 -185 0
-97 -169 -93 0
152 -31 141 0
122 71 114 0
-38 -196 33 0
-99 -137 161 0
72 27 -106 0
-2 146 164 0
91 -40 -125 0
91 196 155 0
-111 47 86 0
149 -8 -15 0
31 155 -79 0
3 102 -123 0
-152 65 109 0
116 41 154 0
148 -93 41 0
190 148 -195 0
-36 131 -129 0
155 64 -146 0
-5 -168 -157 0
75 172 25 0
-153 172 -174 0
-184 -37 -22 0
-51 116 20 0
-56 -95 -178 0
190 -170 -13 0
132 -113 -80 0
67 -8 -179 0
51 -170 -121 0
138 46 151 0
-161 -78 -162 0
4 -154 -195 0
180 -193 -167 0
-148 158 79 0
-50 6 84 0
73 -177 -64 0
-188 53 31 0
-113 -137 -37 0
-81 -44 194 0
34 -180 112 0
-122 -71 147 0
89 -62 120 0
-62 114 -156 0
-122 -65 64 0
152 -72 -94 0
-125 -82 -108 0
-102 -62 89 0
99 186 -124 0
-167 77 -58 0
-162 -180 39 0
-189 91 140 0
112 -200 -95 0
140 -5 -150 0
-46 -25 136 0
18 43 -165 0
46 158 83 0
-191 74 -125 0
57 133 -62 0
104 -122 78 0
108 62 73 0
-136 -109 -60 0
44 -148 -43 0
-86 180 136 0
140 -29 -23 0
19 40 76 0
-137 -124 184 0
18 -6 175 0
-138 -88 198 0
-126 -75 30 0
147 97 -40 0
71 6 -33 0
-9 159 -122 0
-200 10 -20 0
133 164 157 0
190 37 13 0
-137 146 -51 0
165 146 -95 0
188 29 -23 0
36 -166 186 0
-176 -30 115 0
-35 59 85 0
154 71 169 0
31 -36 -190 0
97 -38 174 0
-25 -162 98 0
-38 -157 -26 0
-101 -39 89 0
121 -23 75 0
152 -145 -129 0
95 161 -59 0
126 45 23 0
134 -109 68 0
-147 67 -98 0
-132 -186 95 0
111 -46 59 0
28 -151 -169 0
12 -72 -151 0
-180 100 69 0
62 106 105 0
129 122 20 0
-143 11 -173 0
39 -81 -19 0
197 -93 -10 0
-178 -134 175 0
-90 -3 132 0
169 -130 -156 0
179 160 -191 0
-18 168 -88 0
-29 7 -92 0
180 -76 -123 0
-91 171 -33 0
-191 -76 -74 0
125 -79 96 0
-143 169 -10 0
-177 132 -44 0
-127 -51 -152 0
72 33 27 0
-16 -192 18 0
-15 34 51 0
-81 96 40 0
28 -62 -55 0
126 -107 -147 0
-14 167 -83 0
16 191 166 0
133 -94 -70 0
-101 40 63 0
-137 88 104 0
161 24 -196 0
185 -149 60 0
49 -116 32 0
200 188 -67 0
2 19 -89 0
170 138 10 0
143 107 81 0
-118 56 -126 0
-55 94 -166 0
-48 83 -104 0
-20 168 88 0
-134 -3 160 0
139 83 -24 0
10 -61 144 0
-59 -16 -104 0
-56 173 -194 0
-137 107 -14 0
-116 172 138 0
101 -160 174 0
98 70 -100 0
4 192 -154 0
-89 -192 -53 0
-28 -72 -165 0
63 116 135 0
-78 -53 -13 0
-97 -26 91 0
-131 141 -68 0
79 5 -2 0
108 -150 -121 0
37 73 -117 0
-27 -138 -3 0
23 4 -11 0
-109 119 -93 0
36 162 168 0
-157 42 -38 0
-117 -185 106 0
181 177 38 0
72 -110 -55 0
-95 -37 -198 0
188 43 -28 0
-142 168 -25 0
177 136 -159 0
-20 136 -19 0
-8 33 40 0
53 -134 -109 0
-78 171 122 0
-89 139 124 0
-104 -55 -62 0
-105 28 188 0
-135 -188 124 0
106 -137 -194 0
-128 -120 91 0
-25 -91 -172 0
-153 -194 23 0
34 60 -149 0
136 190 -36 0
153 -187 -174 0
75 174 -3 0
-142 -25 -138 0
60 108 -24 0
-177 90 -117 0
66 150 -124 0
59 -198 -112 0
-198 30 -45 0
-189 -79 71 0
-32 99 152 0
-179 96 168 0
-111 -53 -180 0
57 178 -38 0
15 -35 133 0
-62 167 -30 0
129 184 169 0
-173 -42 120 0
-81 -19 -152 0
-138 -93 -145 0
153 -98 -110 0
23 -197 81 0
43 172 -82 0
156 8 -17 0
-118 39 60 0
131 158 176 0
-43 -42 -115 0
45 -129 151 0
70 40 -13 0
85 -20 15 0
-35 165 -159 0
126 -27 129 0
-75 76 -102 0
-109 -173 110 0
131 116 98 0
29 -48 -147 0
-2 127 -178 0
3 25 -39 0
78 37 -97 0
24 28 99 0
-85 96 167 0
63 -178 -141 0
127 -135 -83 0
183 84 191 0
47 -119 95 0
-101 -29 163 0
-48 132 185 0
-65 53 -77 0
19 93 191 0
-143 -161 184 0
-89 -88 -125 0
157 -198 -11 0
-84 180 -56 0
-160 120 4 0
-48 -107 -103 0
110 -42 -16 0
80 -142 -119 0
147 -187 -79 0
130 171 -111 0
18 107 -30 0
-97 -22 161 0
-127 -182 -64 0
124 -121 129 0
55 197 -27 0
-189 39 59 0
154 30 156 0
-27 -155 193 0
-108 131 -142 0
-42 -85 163 0
199 54 -66 0
-141 34 120 0
-53 27 21 0
73 -6 -89 0
82 152 103 0
184 36 -72 0
-62 -13 -33 0
10 56 57 0
86 60 -197 0
-188 -148 180 0
48 59 -94 0
-141 168 -16 0
13 157 -56 0
200 -6 -108 0
125 3 -161 0
142 200 -28 0
180 -37 -26 0
16 -35 158 0
24 -86 -193 0
183 -149 -92 0
-166 137 -105 0
-125 -117 93 0
47 -188 -93 0
128 106 44 0
-196 -23 45 0
80 110 77 0
-61 187 -62 0
-70 153 -179 0
-103 51 28 0
43 105 -132 0
