p cnf 100 350
-60 66 53 0
-4 -27 -11 0
85 93 81 0
-66 96 -56 0
-29 -90 -41 0
-100 45 -5 0
-82 96 44 0
93 60 6 0
17 52 -5 0
-97 50 -67 0
30 -85 25 0
88 -8 -66 0
-57 -71 -84 0
97 64 -11 0
75 -64 -79 0
-12 80 22 0
-52 -75 -76 0
83 -5 100 0
59 -78 -81 0
-97 -88 66 0
-88 -22 25 0
-76 -57 -94 0
45 62 69 0
-53 -51 90 0
84 61 -97 0
-65 8 78 0
-28 17 -4 0
-93 -40 -7 0
79 -61 -100 0
-21 12 -4 0
30 -13 18 0
16 -51 -43 0
-83 -74 -48 0
-92 26 -89 0
-89 82 -39 0
-100 1 -9 0
-28 76 -79 0
36 -12 99 0
88 38 -80 0
97 -18 -38 0
13 -73 -80 0
53 -18 -50 0
57 96 -59 0
-14 -13 -3 0
-64 72 -47 0
66 5 88 0
-57 88 -53 0
-25 -6 41 0
-7 76 90 0
-39 100 56 0
-64 39 16 0
-89 -34 -14 0
30 -47 38 0
86 27 -44 0
-98 76 -52 0
56 9 -87 0
63 -6 -15 0
-15 54 -93 0
15 -24 -85 0
34 -8 -31 0
73 100 62 0
64 40 52 0
60 37 -77 0
90 -63 -32 0
-36 -2 28 0
-44 -4 5 0
-31 61 -70 0
36 -56 -89 0
-20 90 100 0
93 51 -40 0
-73 -47 62 0
-16 -71 -48 0
-80 -83 -10 0
10 -79 80 0
61 -64 -2 0
10 -86 16 0
99 -44 35 0
-46 -90 62 0
16 77 70 0
14 58 -5 0
15 -55 64 0
-53 -96 37 0
-26 31 -89 0
65 -3 -50 0
36 47 98 0
8 83 -47 0
23 -30 -18 0
59 -9 67 0
24 74 83 0
-64 97 -46 0
-49 -2 44 0
-62 -30 -97 0
82 71 11 0
-30 -29 96 0
-8 -98 15 0
34 42 77 0
74 68 -10 0
-19 -95 -60 0
55 -75 -79 0
66 23 -13 0
-19 20 -64 0
54 -24 -34 0
91 -98 84 0
41 64 -36 0
58 -49 98 0
-32 86 40 0
18 -13 -5 0
-97 -41 87 0
20 21 14 0
-44 5 -79 0
44 7 33 0
-1 -50 -93 0
-74 -13 -96 0
87 66 -54 0
-32 -81 -98 0
36 -91 -86 0
20 -52 -85 0
-8 -43 82 0
-76 64 -61 0
-24 48 -38 0
-18 -98 -63 0
-22 45 18 0
63 50 -79 0
-78 -88 -75 0
-36 78 82 0
38 -3 60 0
-41 -85 97 0
-96 62 -14 0
48 -76 82 0
-78 99 -18 0
-97 6 71 0
-21 73 -38 0
28 45 84 0
-46 -62 -23 0
-46 98 -78 0
-15 85 -54 0
-96 35 25 0
49 46 96 0
1 -74 -20 0
-36 -65 3 0
87 -21 3 0
81 8 95 0
-50 -85 76 0
-79 -30 61 0
27 -55 25 0
20 43 55 0
-57 65 -30 0
-76 17 32 0
55 -71 17 0
53 70 -94 0
-66 -58 -74 0
22 78 -77 0
-1 -66 41 0
-72 -53 77 0
-79 85 52 0
20 11 96 0
71 49 87 0
-85 44 -5 0
-43 76 -58 0
-61 36 -12 0
-78 34 -50 0
18 9 51 0
19 -82 98 0
80 47 18 0
45 -8 80 0
-91 10 64 0
93 -4 79 0
94 53 -63 0
1 -19 -81 0
-85 10 5 0
-69 25 -28 0
40 88 77 0
19 33 -15 0
87 -11 9 0
-96 -56 -54 0
25 -44 -83 0
51 52 55 0
-62 -25 -58 0
49 -9 45 0
83 33 -32 0
98 -71 -95 0
-47 67 -68 0
14 49 -30 0
72 -19 -29 0
-87 43 38 0
81 -62 9 0
-22 99 98 0
11 -48 -26 0
36 15 60 0
16 -5 92 0
31 -38 -100 0
-98 -65 -31 0
5 29 -92 0
-21 93 -88 0
-16 85 44 0
-38 33 -80 0
100 20 99 0
-46 43 -32 0
-6 83 20 0
52 -78 -22 0
-73 -12 58 0
60 97 65 0
77 80 67 0
-23 -63 24 0
-27 -56 19 0
90 73 72 0
-57 96 28 0
4 66 14 0
89 -44 27 0
38 66 -43 0
94 -2 -25 0
-16 22 45 0
67 49 -13 0
-69 31 24 0
-69 -25 -34 0
68 -49 -42 0
5 55 4 0
61 -23 -4 0
44 47 -31 0
65 1 -18 0
-73 -69 -8 0
71 -79 -92 0
-76 -15 14 0
77 76 41 0
-18 -3 -77 0
64 -53 -19 0
-99 23 89 0
88 35 -47 0
-63 12 31 0
45 94 -77 0
-64 19 -59 0
92 -32 -94 0
-56 -100 59 0
71 -77 69 0
35 -56 -22 0
42 -44 80 0
-69 -18 -62 0
57 -91 -53 0
98 6 62 0
-28 -57 -63 0
-37 39 25 0
-14 99 -75 0
89 85 -4 0
73 -72 87 0
-46 -35 -51 0
-62 82 92 0
74 51 -36 0
9 -45 55 0
56 11 12 0
-5 13 59 0
-2 77 -88 0
100 10 6 0
14 -79 -15 0
-99 40 22 0
-20 -24 -8 0
-2 78 39 0
50 -43 38 0
-68 33 -19 0
-6 99 -20 0
50 -87 -24 0
82 -12 -69 0
87 -66 -45 0
-23 54 7 0
35 -24 75 0
-84 94 -31 0
-7 -95 -74 0
45 4 17 0
-17 41 -26 0
47 -48 -68 0
12 -58 50 0
86 67 46 0
-43 -84 -4 0
11 -22 63 0
-76 -85 -17 0
-28 -70 -7 0
19 -44 20 0
-11 -95 37 0
69 -18 -56 0
-21 -40 -9 0
10 56 -24 0
-89 4 -44 0
-4 65 57 0
99 61 -76 0
97 -85 -22 0
-22 -21 83 0
-11 33 -42 0
15 72 5 0
-69 -98 -39 0
-90 -59 -83 0
-19 21 -88 0
-12 73 36 0
-27 -65 52 0
88 -19 4 0
-1 55 64 0
-13 7 -39 0
83 38 -95 0
-12 34 67 0
37 -97 84 0
-91 -78 26 0
35 -80 -65 0
51 -24 23 0
88 -14 -44 0
19 5 66 0
76 -97 86 0
-37 88 -58 0
19 -47 -89 0
-19 -42 70 0
10 74 -18 0
35 31 -16 0
59 74 -8 0
87 5 -52 0
-30 28 -81 0
53 100 -8 0
-100 26 96 0
-38 92 94 0
4 22 6 0
61 -83 -18 0
41 -13 -6 0
66 -52 -3 0
-96 36 -45 0
-96 98 20 0
-51 63 47 0
-48 16 70 0
-38 36 -42 0
-4 -36 40 0
64 72 32 0
-27 -44 17 0
88 95 17 0
-92 60 -28 0
51 -32 70 0
96 -14 12 0
-62 41 30 0
43 35 -92 0
-41 -82 -30 0
8 66 -24 0
-94 80 47 0
55 -4 -53 0
3 -70 73 0
66 81 3 0
-78 -26 -94 0
-17 88 62 0
-77 -21 -94 0
94 -38 72 0
-83 -15 -59 0
71 -16 -95 0
-58 62 -53 0
33 68 35 0
65 89 67 0
-50 -22 -34 0
13 -26 -64 0
