p cnf 200 760
170 -142 -73 0
198 171 43 0
-62 128 -183 0
-62 77 -186 0
161 84 188 0
-149 -158 182 0
-35 -71 178 0
186 181 121 0
-186 149 56 0
-7 6 -22 0
79 -180 58 0
-40 103 46 0
-60 35 87 0
43 121 -90 0
102 111 70 0
-141 194 -35 0
-193 -172 -83 0
-2 114 -51 0
187 -106 -101 0
97 55 -31 0
-8 -152 172 0
-65 -12 -84 0
-118 -119 26 0
-185 106 -198 0
-102 13 28 0
-79 -194 -101 0
-65 22 165 0
129 -131 150 0
154 -180 -36 0
181 196 188 0
-8 13 -186 0
-192 -188 119 0
-134 49 -23 0
-198 -189 139 0
-23 -155 141 0
113 31 -160 0
-108 14 181 0
161 21 163 0
-99 14 -120 0
57 38 181 0
46 73 -59 0
22 5 40 0
20 10 -1 0
163 -32 16 0
-167 154 -109 0
-56 -103 -119 0
51 -165 48 0
151 -81 145 0
97 -116 -36 0
181 -137 -92 0
-36 -126 -80 0
15 197 -74 0
124 -89 -193 0
111 -51 200 0
-195 -140 29 0
149 -33 116 0
-54 -198 122 0
46 -179 -134 0
-1 59 198 0
33 -32 1 0
-65 54 -8 0
-138 61 -110 0
-139 -171 56 0
-105 24 -22 0
114 -82 -163 0
-5 -95 -80 0
173 -174 75 0
115 182 -9 0
-138 -160 -14 0
-40 163 162 0
-163 40 56 0
161 89 76 0
173 82 74 0
-132 87 58 0
125 -155 -2 0
78 181 128 0
-20 6 62 0
112 94 -91 0
74 -163 -27 0
-130 -128 10 0
124 11 26 0
-35 -108 13 0
-41 -29 11 0
-65 -161 -132 0
-164 86 52 0
-100 -85 32 0
-193 -33 136 0
-14 115 -4 0
-85 -145 105 0
-34 196 99 0
27 -43 -191 0
-133 23 52 0
159 -124 -33 0
182 3 24 0
-14 148 98 0
7 -134 -53 0
163 -188 97 0
-18 -63 -126 0
6 196 181 0
-159 -27 -189 0
73 -128 -75 0
-108 180 -44 0
-60 142 7 0
165 58 -114 0
197 -6 199 0
-145 -144 -188 0
130 -164 31 0
-95 -73 -142 0
-77 -178 195 0
32 -69 -74 0
-87 173 35 0
35 187 27 0
-82 -109 194 0
-55 91 -51 0
-97 109 135 0
-146 -48 95 0
33 87 -43 0
-164 4 -139 0
125 -128 -72 0
-42 -34 -58 0
-59 142 -187 0
-98 -193 -24 0
-109 -182 198 0
16 -106 141 0
-127 -172 -87 0
-124 149 -147 0
-195 49 159 0
-199 -82 108 0
-138 39 85 0
-77 183 -5 0
-177 -156 -10 0
164 -142 140 0
28 -47 -25 0
-144 -25 82 0
147 -111 -113 0
43 158 -67 0
144 -130 79 0
121 6 -137 0
133 52 168 0
20 -195 143 0
24 -11 130 0
-7 -37 194 0
110 192 -131 0
76 83 59 0
-53 170 112 0
-27 -130 33 0
-35 -190 81 0
-113 49 -168 0
60 153 -121 0
72 -30 -118 0
-45 18 -15 0
81 115 -141 0
-112 154 82 0
129 -48 103 0
147 186 128 0
-97 106 -176 0
-149 181 -27 0
100 185 -82 0
45 102 14 0
135 108 191 0
-161 -74 32 0
200 -196 -86 0
60 -196 -14 0
185 191 -76 0
-1 -64 -16 0
-15 -54 92 0
-73 -110 -154 0
-81 25 59 0
-17 -95 158 0
-180 -184 53 0
145 81 9 0
-77 -167 27 0
63 78 21 0
-153 120 159 0
164 -61 16 0
86 76 109 0
175 29 159 0
62 16 -93 0
129 -181 -5 0
167 -29 69 0
-30 193 -87 0
-97 24 -96 0
13 -34 -170 0
-193 -138 -28 0
129 -109 47 0
-36 -35 -175 0
159 -91 -117 0
170 154 55 0
-34 -127 -50 0
-41 76 -199 0
65 -73 -80 0
78 16 -20 0
90 -86 130 0
49 140 189 0
112 -109 -125 0
49 -6 85 0
-17 -47 -99 0
189 100 -188 0
-138 8 -153 0
-193 34 45 0
-134 106 96 0
-66 -81 119 0
189 -132 145 0
-45 -170 141 0
127 57 5 0
181 -167 -130 0
168 -143 74 0
-162 -28 89 0
134 -137 -74 0
-155 158 -89 0
-106 -105 180 0
-139 -124 80 0
180 99 88 0
196 83 -173 0
-34 -125 16 0
65 -172 71 0
150 -177 160 0
80 -55 140 0
-45 -74 -123 0
78 -90 -45 0
30 8 -16 0
152 -162 153 0
-5 -110 47 0
125 -195 -13 0
-166 -75 161 0
-42 -64 -113 0
-174 -166 -197 0
122 -29 129 0
-198 -194 104 0
-60 196 107 0
45 32 -87 0
150 130 -157 0
-39 -85 65 0
-34 -147 -17 0
-124 -28 29 0
-69 -9 -81 0
61 188 60 0
135 -6 184 0
49 -130 -38 0
43 -99 -70 0
-100 132 181 0
-76 -59 -163 0
90 45 -112 0
96 112 197 0
195 159 39 0
81 -13 -77 0
66 15 78 0
155 -113 -136 0
154 78 88 0
162 -133 -25 0
-54 -29 -13 0
173 -85 97 0
-70 -194 146 0
172 75 200 0
164 51 62 0
116 -138 32 0
-172 -113 106 0
-157 -34 -30 0
-57 46 -92 0
-126 -183 102 0
-94 -105 -58 0
100 129 128 0
-82 108 -139 0
128 -33 -16 0
192 -119 -73 0
65 -85 -158 0
51 -127 76 0
-50 -67 158 0
64 -93 113 0
131 -59 111 0
15 -14 19 0
-39 -172 -168 0
-194 150 198 0
127 -42 79 0
-154 92 -129 0
16 -156 -157 0
127 178 -78 0
133 -128 -35 0
-180 -5 -71 0
-199 -53 144 0
-6 -124 158 0
13 146 153 0
-174 131 126 0
185 49 -109 0
137 -193 -182 0
-90 -20 182 0
34 -168 98 0
146 25 -127 0
125 10 -94 0
75 -26 43 0
-116 -137 -48 0
19 -12 125 0
-97 -30 -161 0
94 13 89 0
143 73 -115 0
36 -50 -80 0
86 162 -109 0
157 117 159 0
-166 -125 162 0
-76 -63 194 0
-3 79 156 0
152 -95 38 0
-164 -140 139 0
-77 122 34 0
149 -148 34 0
-127 -15 -135 0
-87 144 -28 0
-26 -175 20 0
-96 -147 -158 0
54 68 -42 0
106 132 -99 0
-82 176 -26 0
45 170 -12 0
-52 80 79 0
113 2 -20 0
-135 -166 34 0
-141 -157 162 0
143 -70 92 0
-93 85 52 0
-184 12 121 0
-181 198 -137 0
-80 -132 -35 0
-190 -104 -191 0
70 30 64 0
-101 -67 -126 0
145 -4 -174 0
74 -164 41 0
-32 73 -106 0
-27 -55 60 0
-191 -35 -56 0
-118 160 -123 0
63 101 -68 0
-105 -72 78 0
-104 -180 161 0
48 -182 -13 0
134 -35 -39 0
94 -157 -109 0
-187 -108 198 0
30 -94 -45 0
5 -33 100 0
-168 -194 -139 0
81 108 19 0
71 70 -106 0
-70 -114 106 0
-53 187 196 0
-6 1 -56 0
-117 -184 -20 0
-125 -116 196 0
-46 -178 58 0
-195 -157 -83 0
-95 58 -166 0
49 17 -52 0
76 71 25 0
-58 75 -161 0
-31 -58 27 0
-153 -128 136 0
17 -101 -83 0
25 162 200 0
98 -153 -163 0
175 81 158 0
167 -8 -129 0
6 -56 -52 0
45 33 -129 0
-118 88 -170 0
-186 -100 189 0
148 -66 106 0
49 154 -176 0
162 39 59 0
7 104 130 0
173 29 9 0
-41 63 -36 0
42 122 -59 0
155 85 24 0
-110 -177 115 0
-155 121 -48 0
-110 -130 176 0
106 -133 -19 0
-72 102 109 0
-104 139 -119 0
88 -41 -150 0
150 76 -80 0
-17 -5 -196 0
105 -101 12 0
-130 155 179 0
-69 12 144 0
-159 -83 -68 0
-186 -80 -6 0
-193 43 183 0
43 -41 -88 0
-38 49 13 0
180 -147 -198 0
15 142 -194 0
126 16 136 0
42 23 52 0
116 -134 190 0
-61 88 -100 0
-109 -91 -20 0
-75 161 -115 0
152 -30 72 0
19 -198 39 0
-195 14 172 0
-101 -5 -59 0
144 3 -40 0
87 -45 -38 0
-115 -134 -108 0
88 -116 -175 0
-99 122 -79 0
-87 65 191 0
150 79 -151 0
-50 -23 19 0
89 -79 -171 0
-64 -107 -116 0
169 -146 -98 0
96 -103 58 0
-44 -177 75 0
122 -99 -42 0
67 -145 42 0
200 158 -183 0
-164 30 99 0
-166 -20 155 0
-25 -109 22 0
-127 -82 102 0
-136 -82 18 0
36 -187 2 0
-60 -179 7 0
19 -88 -41 0
157 -139 81 0
165 117 -195 0
95 -63 -106 0
-144 -81 -157 0
102 -19 152 0
70 61 126 0
109 16 -58 0
56 127 63 0
-110 -73 66 0
82 -183 38 0
139 -69 -81 0
3 -112 82 0
128 -101 182 0
164 -147 -77 0
-27 -198 -135 0
107 -90 -3 0
-1 80 98 0
-61 -32 -83 0
103 89 -56 0
39 -105 -79 0
132 149 141 0
-13 18 -95 0
123 -39 -138 0
-121 -58 -96 0
-21 82 -19 0
142 -27 66 0
1 -189 64 0
190 140 -38 0
104 -148 -181 0
-31 -135 185 0
185 -24 -26 0
-41 121 7 0
-12 -139 51 0
-22 71 -108 0
-110 -163 -108 0
-64 -14 -42 0
131 -175 -69 0
-120 -16 -37 0
130 149 94 0
125 135 -42 0
-37 50 -11 0
92 -152 -91 0
171 177 -162 0
29 31 187 0
122 -176 -87 0
-99 -187 114 0
141 29 -50 0
-79 197 -50 0
-101 -74 -28 0
185 -119 5 0
67 5 53 0
-40 14 -134 0
81 170 -70 0
129 117 -181 0
46 -143 -22 0
-3 -175 -188 0
-140 -152 -143 0
-10 187 -3 0
186 -200 -38 0
-97 -80 175 0
-84 -72 -161 0
13 160 -175 0
-46 54 112 0
76 130 -129 0
175 -65 -70 0
-113 112 175 0
-112 -71 50 0
-184 177 140 0
88 -197 -193 0
139 112 -90 0
186 70 -14 0
-40 124 31 0
-164 39 -131 0
-96 59 90 0
8 -72 145 0
70 32 -1 0
-94 -110 -64 0
-58 -17 167 0
86 129 -59 0
-16 -33 140 0
-14 11 160 0
157 126 129 0
10 -107 -156 0
-166 176 -163 0
149 -175 -167 0
-142 62 -81 0
108 88 182 0
-59 -127 -175 0
-100 -42 -83 0
-84 63 197 0
-9 149 164 0
-32 148 -100 0
-180 -176 8 0
129 -191 139 0
-120 159 -9 0
-137 -117 -22 0
25 -73 -193 0
-150 6 101 0
-116 -10 -93 0
138 -19 -196 0
-33 -95 98 0
184 -14 -187 0
183 -114 31 0
-112 31 -178 0
129 54 84 0
35 79 133 0
34 -89 49 0
-170 -150 -86 0
-90 -131 12 0
99 200 178 0
154 2 106 0
182 -62 -172 0
-50 33 95 0
44 65 92 0
22 90 38 0
-43 -163 78 0
1 119 194 0
-55 -44 42 0
98 -67 26 0
48 -125 -52 0
117 -106 -45 0
-141 -111 -170 0
90 -125 -120 0
75 -167 -118 0
88 -74 150 0
15 174 -88 0
187 70 -12 0
100 -103 131 0
47 -51 -78 0
69 -159 -125 0
-90 -150 148 0
-163 38 3 0
-86 69 56 0
-97 -91 -15 0
-78 28 -123 0
-184 -9 -86 0
104 -38 -108 0
123 120 -156 0
-161 -39 146 0
-96 17 -98 0
199 -1 130 0
198 28 65 0
-78 -129 -191 0
-78 -109 -95 0
197 1 87 0
-172 161 -82 0
-1 -106 -47 0
-98 -7 78 0
-80 29 181 0
104 61 84 0
155 -108 33 0
16 176 -170 0
-34 -161 140 0
43 137 193 0
-23 195 -134 0
-121 -179 116 0
-171 -30 -40 0
53 -138 -72 0
144 90 35 0
101 88 -99 0
8 197 -179 0
143 -107 22 0
118 -58 78 0
30 159 24 0
41 16 60 0
-64 179 27 0
-38 -67 115 0
-147 117 -99 0
-172 -117 60 0
34 171 -191 0
105 192 -54 0
167 -91 -173 0
-78 127 -155 0
-44 200 -138 0
-190 -14 24 0
-185 -24 56 0
-77 -124 62 0
-165 -189 139 0
104 -154 -3 0
124 83 -35 0
-169 -102 42 0
161 3 -198 0
75 -15 9 0
84 3 -58 0
-43 39 127 0
-155 24 33 0
-36 76 133 0
-169 116 73 0
-28 -42 153 0
169 -72 91 0
198 -57 93 0
4 -176 -185 0
-62 -198 159 0
-22 -182 -97 0
11 -146 83 0
190 28 -58 0
-170 -195 -42 0
-192 -20 41 0
-116 -107 38 0
4 111 -183 0
74 -162 -182 0
-44 -190 -111 0
143 75 183 0
169 22 -41 0
-118 17 -156 0
-109 139 44 0
59 16 -114 0
6 100 126 0
85 -145 -107 0
-67 163 -81 0
130 -151 -179 0
117 -66 -79 0
120 100 -158 0
-102 -24 133 0
-112 163 -150 0
20 82 -5 0
-187 -151 -53 0
17 104 -161 0
-108 80 -159 0
84 -151 -52 0
-14 -168 72 0
126 -125 -178 0
12 -141 6 0
127 -26 -12 0
-101 169 -113 0
22 166 -113 0
8 -95 93 0
117 -62 -82 0
17 -56 -158 0
-72 -145 17 0
176 -7 53 0
55 127 -30 0
-28 -74 -108 0
-179 96 -97 0
6 181 150 0
-131 -91 -51 0
168 13 125 0
167 70 -143 0
139 103 2 0
-154 27 37 0
-77 -177 43 0
-105 106 -72 0
114 -154 -86 0
93 -196 9 0
-53 50 -148 0
-1 -172 -104 0
-140 -75 91 0
55 -183 38 0
-49 -157 -55 0
33 24 131 0
76 -64 44 0
142 -72 194 0
-98 -77 81 0
-97 98 -185 0
-93 -49 31 0
27 -45 103 0
97 43 -106 0
98 15 88 0
-147 193 -161 0
36 -155 5 0
-132 -113 148 0
-58 -107 -167 0
94 121 -55 0
179 161 -68 0
126 -27 -124 0
19 -111 -105 0
6 184 -176 0
4 39 33 0
40 72 -168 0
-40 192 38 0
159 4 -130 0
24 -52 -165 0
15 192 -165 0
-45 158 -118 0
84 45 -34 0
-177 -11 7 0
-76 173 -181 0
-164 41 146 0
186 196 -133 0
8 166 173 0
152 -138 -59 0
-23 3 113 0
-186 27 161 0
-69 180 142 0
70 138 -63 0
98 -198 37 0
-3 159 200 0
-119 -57 -16 0
11 -49 -70 0
40 120 -66 0
-42 -104 -54 0
90 136 -54 0
98 4 -28 0
-190 -49 -84 0
-51 123 -158 0
7 -130 164 0
166 165 -122 0
-123 -96 21 0
123 56 152 0
110 84 111 0
-10 49 24 0
114 39 135 0
-182 67 -188 0
115 -65 7 0
-112 -132 -48 0
-128 97 174 0
-13 2 -10 0
145 -85 164 0
116 -113 145 0
138 125 -107 0
-131 180 -67 0
-110 -116 175 0
-78 -176 -148 0
183 124 103 0
-92 31 -179 0
-129 7 -113 0
-167 -131 -8 0
-133 84 -160 0
-141 -126 20 0
-189 151 30 0
-137 179 112 0
69 158 79 0
191 132 14 0
-148 -29 32 0
-173 122 17 0
-199 -40 182 0
-34 -33 -45 0
114 -179 -196 0
168 -153 165 0
-193 -98 103 0
-133 41 173 0
-169 -57 -40 0
37 174 -131 0
-34 -15 -135 0
