p cnf 1000 4200
-67 804 -521 0
990 -616 257 0
-323 500 -946 0
-209 609 7 0
374 123 459 0
-60 334 257 0
-702 933 728 0
180 166 -167 0
278 95 411 0
-754 641 -489 0
994 991 953 0
-587 934 -548 0
-627 -24 319 0
171 -392 41 0
927 -166 -993 0
-613 714 860 0
761 -18 974 0
724 42 418 0
46 802 -375 0
-524 -714 136 0
124 488 -274 0
872 537 -762 0
339 -681 -533 0
584 -955 31 0
-952 -618 -735 0
-684 -507 -887 0
769 -649 795 0
-840 -479 -711 0
-26 -616 -587 0
-484 200 -880 0
364 107 -27 0
894 309 587 0
995 605 -277 0
719 80 -876 0
-1000 51 726 0
323 509 953 0
460 277 -582 0
-31 971 -761 0
529 867 -785 0
-573 -480 940 0
-30 935 964 0
-436 439 -239 0
-229 -462 -984 0
738 -920 -333 0
-932 804 903 0
-92 -467 310 0
486 -319 -521 0
-178 936 -693 0
-47 -295 168 0
-768 -233 -948 0
736 754 983 0
948 -678 -829 0
682 -510 -842 0
311 964 488 0
201 790 -423 0
869 -188 -801 0
-32 106 -351 0
364 576 -397 0
-831 612 252 0
835 -901 -820 0
-785 919 272 0
774 302 29 0
-739 77 298 0
-218 -694 308 0
-561 -964 -966 0
-266 697 -517 0
406 727 412 0
-372 -863 369 0
-346 -532 150 0
-188 595 -511 0
923 -563 631 0
942 445 674 0
442 -5 989 0
947 -859 -931 0
-68 408 -56 0
607 -920 -870 0
-620 61 955 0
-43 -301 93 0
244 -625 -891 0
-190 -932 -939 0
455 182 799 0
764 63 863 0
-879 247 -197 0
-409 -26 348 0
88 974 -55 0
759 261 -346 0
293 113 -207 0
-29 -951 -88 0
-691 1 -743 0
-953 -772 405 0
703 -117 -108 0
663 57 -260 0
489 913 -609 0
695 554 866 0
648 633 317 0
-998 -623 542 0
-323 904 -705 0
-325 388 -550 0
-692 645 982 0
717 -706 736 0
-557 800 368 0
264 90 -459 0
426 -578 -54 0
-932 -154 580 0
439 -726 -30 0
-536 -392 647 0
194 556 383 0
990 -793 -319 0
115 -909 106 0
-504 -460 4 0
-375 -971 140 0
-975 -383 329 0
938 -383 -115 0
130 -451 -271 0
-670 -105 -736 0
80 -55 665 0
152 164 -480 0
-577 -962 -273 0
499 -688 493 0
704 586 28 0
112 -235 483 0
309 -453 519 0
-376 56 710 0
286 305 -860 0
-274 -501 -32 0
882 374 777 0
-726 836 853 0
549 888 493 0
636 445 -34 0
-510 -852 737 0
-887 -328 -901 0
-128 -592 519 0
642 217 600 0
132 505 -243 0
-121 736 -351 0
-969 -811 975 0
-164 390 -871 0
-241 142 719 0
380 -551 -946 0
-626 263 658 0
655 600 -590 0
229 335 -35 0
893 -197 340 0
111 224 487 0
222 938 617 0
634 213 -557 0
217 260 572 0
149 -502 71 0
-546 -670 999 0
-319 54 394 0
-878 -332 445 0
-317 -395 -141 0
-934 616 -524 0
976 -222 956 0
-554 -994 -349 0
719 750 -639 0
-318 992 152 0
722 402 298 0
-341 -101 -189 0
-199 417 77 0
-394 967 -245 0
-578 -457 -354 0
168 784 -664 0
948 -957 819 0
177 -293 865 0
-557 589 -790 0
-365 20 524 0
-160 -29 -346 0
744 173 -805 0
-616 -878 856 0
-816 598 455 0
132 -910 -204 0
-908 -173 -6 0
-941 -277 -356 0
601 761 733 0
740 -523 64 0
-534 -651 -574 0
-495 664 928 0
984 -468 -122 0
-976 -631 716 0
-598 -576 -477 0
966 -329 -761 0
819 217 986 0
498 -820 565 0
-587 794 -689 0
139 -423 -721 0
-109 448 -525 0
40 -866 -819 0
115 -574 914 0
269 897 822 0
-264 -587 111 0
336 -422 -509 0
-845 -380 259 0
-213 -537 -908 0
468 914 -362 0
-198 -463 -376 0
221 -71 -916 0
-40 208 -705 0
-27 575 905 0
-88 -709 923 0
275 849 -315 0
735 382 -492 0
243 -34 299 0
-460 664 922 0
249 562 163 0
-885 91 -630 0
545 535 21 0
-333 304 290 0
300 -978 495 0
-681 237 149 0
-731 -985 92 0
790 175 -465 0
679 251 777 0
-976 626 -543 0
-628 846 263 0
501 430 320 0
-61 -904 -501 0
378 -560 -666 0
-890 -837 400 0
-641 548 226 0
-310 316 -413 0
784 -147 1000 0
-702 81 -382 0
-916 986 -866 0
128 37 -499 0
677 -71 -454 0
413 434 -780 0
-123 637 533 0
116 994 -163 0
-290 615 936 0
-513 795 715 0
5 637 -74 0
-216 -793 504 0
-566 474 -279 0
647 187 -376 0
733 219 689 0
130 979 136 0
-545 968 414 0
558 611 84 0
-35 -458 -803 0
-5 600 -517 0
-773 -62 -712 0
883 324 614 0
-855 -431 -987 0
-502 955 750 0
-734 -245 75 0
770 -288 -573 0
691 -981 937 0
472 -265 -850 0
-415 298 541 0
-546 -271 -305 0
955 86 925 0
-708 -69 -408 0
599 332 849 0
715 211 815 0
725 539 500 0
-320 -334 362 0
-162 67 364 0
859 390 638 0
494 124 246 0
-605 651 45 0
-124 60 -617 0
-644 -611 53 0
95 -864 500 0
-306 -939 -532 0
715 -442 -218 0
40 257 7 0
613 -333 -795 0
-949 -260 -360 0
799 930 765 0
-15 -4 -670 0
-875 260 -359 0
699 854 482 0
832 -829 -446 0
470 -36 148 0
-763 443 -617 0
185 -559 -152 0
-291 418 485 0
-272 -452 -168 0
-790 643 -859 0
-193 625 -998 0
-76 -79 8 0
678 902 840 0
-82 927 -559 0
656 -43 -239 0
918 650 -25 0
-962 -685 -371 0
769 938 -763 0
307 512 68 0
925 -158 -159 0
-176 -201 80 0
609 -372 -266 0
604 -969 -766 0
849 108 -836 0
-257 18 -754 0
350 164 -101 0
-894 711 977 0
-574 879 -140 0
-983 -216 900 0
-721 487 -554 0
-767 -545 903 0
859 443 -957 0
704 425 -63 0
-75 -935 210 0
-535 874 -545 0
-983 -643 -956 0
-331 1000 -652 0
418 559 -91 0
-113 783 -986 0
-105 585 -795 0
-412 -350 396 0
225 894 -372 0
-926 433 610 0
-583 508 -651 0
-390 262 69 0
-100 467 -819 0
660 473 160 0
-785 -871 -878 0
-513 600 916 0
-394 812 518 0
439 -210 -740 0
-327 83 958 0
-220 770 -141 0
287 -722 768 0
646 110 -389 0
357 -342 721 0
-897 651 262 0
-137 -724 122 0
541 -565 126 0
350 -848 47 0
-457 782 -455 0
-567 566 306 0
921 -568 615 0
-54 563 -81 0
-548 980 927 0
559 -386 777 0
777 702 -642 0
823 657 492 0
-750 -639 505 0
872 869 -644 0
195 487 -50 0
-406 562 -630 0
-380 -915 -901 0
-282 -421 165 0
112 -587 885 0
314 -502 -132 0
-459 -582 170 0
-917 -251 -780 0
951 -744 337 0
-588 -39 507 0
499 334 -274 0
-414 -182 49 0
497 -876 -330 0
479 656 966 0
-139 66 -843 0
944 162 314 0
-472 501 875 0
-423 -204 -327 0
-503 -987 -159 0
-709 -21 3 0
442 425 -119 0
384 -400 -417 0
-301 659 885 0
523 -445 948 0
37 -950 403 0
-193 265 571 0
971 -411 -329 0
-560 271 366 0
310 -389 -73 0
573 615 -339 0
825 463 63 0
-432 -811 2 0
-812 -271 -352 0
-639 582 622 0
524 -599 521 0
-270 -715 -451 0
-536 -686 -688 0
498 514 -291 0
-695 -731 142 0
-133 -478 -238 0
-240 -471 105 0
-827 -651 -508 0
386 -444 -486 0
-9 -11 106 0
-813 524 151 0
526 361 274 0
309 500 818 0
-830 228 204 0
480 -373 333 0
-23 971 336 0
-828 -252 72 0
964 418 -882 0
810 -372 -677 0
695 -328 948 0
999 -835 1000 0
358 104 863 0
-51 -287 673 0
-983 821 -540 0
205 -452 -870 0
-739 -586 183 0
-323 736 819 0
920 -309 -631 0
-222 564 -554 0
238 -936 -587 0
862 -972 707 0
-319 369 725 0
428 467 -522 0
-475 -714 70 0
34 185 587 0
414 -35 155 0
661 263 -478 0
368 721 729 0
-871 430 -694 0
-73 150 -363 0
-25 -191 32 0
267 531 814 0
988 -680 721 0
834 -88 933 0
-84 970 118 0
697 -893 -604 0
-819 -404 -279 0
-363 66 -453 0
-756 212 -923 0
538 964 -946 0
843 -280 956 0
-352 94 815 0
-973 -312 -726 0
-924 724 -922 0
-74 547 970 0
271 -904 983 0
792 -197 -501 0
735 969 -289 0
-327 143 -286 0
-784 82 571 0
583 -32 -887 0
2 243 800 0
-352 -403 552 0
747 -419 -513 0
268 -376 -328 0
422 -264 601 0
722 -963 297 0
543 699 850 0
-135 -35 -40 0
190 -818 903 0
5 -824 -889 0
379 -549 -281 0
891 426 -813 0
523 578 -635 0
124 -648 -335 0
610 -58 -216 0
184 -704 685 0
305 -302 264 0
-323 -967 86 0
957 -155 944 0
70 -856 -769 0
908 -173 954 0
-680 -837 -825 0
-943 -112 -188 0
977 -805 -843 0
778 -923 -45 0
743 535 838 0
-517 127 670 0
974 721 586 0
266 -765 759 0
977 -297 -3 0
-171 -928 -597 0
208 -291 45 0
968 -866 -915 0
-345 73 -819 0
152 264 -477 0
335 841 953 0
-510 -884 555 0
791 720 549 0
821 902 171 0
-256 833 516 0
-806 79 -842 0
129 180 453 0
374 255 53 0
438 775 -906 0
-664 191 399 0
-295 -763 234 0
-663 370 403 0
44 -725 -569 0
-441 930 479 0
317 -171 527 0
277 -278 -944 0
-934 -58 -872 0
493 -345 -464 0
902 777 58 0
693 585 832 0
-666 755 -490 0
366 791 793 0
-290 -525 64 0
412 -135 -925 0
345 296 609 0
-758 152 -875 0
400 -403 176 0
84 -131 517 0
553 -765 711 0
999 -479 -1 0
665 506 -663 0
-318 -217 489 0
-551 -581 -226 0
-355 782 -959 0
54 -338 -394 0
-175 -499 -93 0
-124 778 -33 0
-17 -2 -327 0
842 -256 953 0
187 310 252 0
-712 865 -542 0
-140 -783 -914 0
803 -836 143 0
62 732 96 0
-309 -2 -637 0
-42 961 590 0
-254 761 -190 0
-4 21 835 0
-513 533 948 0
-944 -104 -768 0
-155 880 939 0
282 877 -74 0
-119 -879 481 0
91 -307 577 0
-673 119 -923 0
-380 757 -157 0
369 976 -448 0
-65 -957 121 0
-265 -500 743 0
-334 -452 32 0
-948 -295 -3 0
-228 685 -102 0
-323 -376 48 0
-406 662 434 0
-954 792 458 0
615 -790 -857 0
-894 -130 -242 0
734 -466 -226 0
-583 -765 889 0
938 315 -554 0
-535 4 142 0
478 117 437 0
-259 -501 706 0
549 98 -116 0
688 644 -851 0
910 994 22 0
428 968 -46 0
-345 538 -226 0
-305 -216 915 0
171 189 -876 0
-331 430 791 0
171 31 -438 0
739 -929 372 0
184 -844 288 0
549 299 -83 0
-878 31 -301 0
253 496 -401 0
474 837 600 0
943 828 112 0
241 -264 662 0
-398 20 -377 0
-278 753 -866 0
815 -677 152 0
-15 621 334 0
822 -52 -863 0
-62 -949 -944 0
-586 -258 366 0
-251 -120 235 0
-165 -803 -556 0
-405 -237 339 0
562 -931 -736 0
-253 -843 589 0
200 -865 588 0
195 870 570 0
388 638 -544 0
-172 -445 -709 0
-576 331 429 0
-688 -53 654 0
300 -125 -237 0
327 -207 732 0
-78 -510 776 0
309 867 -486 0
-416 -807 109 0
157 -828 836 0
800 -295 -652 0
63 176 26 0
605 -43 -367 0
518 -540 95 0
115 -334 372 0
632 938 -531 0
-29 -554 445 0
785 -618 771 0
506 -533 -828 0
442 546 299 0
-639 -637 -18 0
-310 966 278 0
563 803 -652 0
113 -469 95 0
-857 -753 -462 0
-874 -184 591 0
780 -854 -869 0
636 390 -881 0
961 332 43 0
-927 698 669 0
-393 -765 137 0
-979 577 -918 0
-366 -580 395 0
-116 727 682 0
390 19 -607 0
482 -808 -697 0
125 711 411 0
-947 -671 -592 0
995 -73 756 0
123 -600 904 0
-351 -394 406 0
-962 522 721 0
-351 -214 260 0
132 -600 149 0
688 527 -988 0
-607 -2 844 0
-22 312 311 0
-191 332 -367 0
142 804 123 0
-878 60 839 0
-507 285 120 0
660 -733 -925 0
958 23 -59 0
-822 850 818 0
-663 -336 -529 0
-304 853 -153 0
-337 321 443 0
-463 441 613 0
574 -840 17 0
-692 -815 -123 0
419 -80 350 0
-676 47 -183 0
733 -654 696 0
749 -634 875 0
757 -267 876 0
-201 165 963 0
-512 -528 -903 0
-138 -38 -481 0
719 -624 650 0
374 853 665 0
516 251 35 0
912 774 -441 0
495 -831 -550 0
368 830 -335 0
-565 314 378 0
125 553 -867 0
-430 -14 -148 0
175 -420 803 0
585 -422 -930 0
-760 -394 -159 0
-43 -852 -510 0
718 -744 -595 0
-562 -757 109 0
-470 -758 157 0
-243 598 344 0
-240 53 -30 0
553 -389 547 0
-904 544 508 0
368 -413 48 0
-746 707 979 0
871 199 -516 0
898 301 521 0
378 143 -607 0
100 993 -705 0
108 679 -432 0
915 -43 -523 0
524 -649 681 0
-581 -807 -605 0
-943 -300 127 0
125 -314 -757 0
-586 244 -62 0
-218 982 608 0
582 -269 912 0
769 361 -94 0
87 44 85 0
-364 250 -305 0
807 333 277 0
-322 494 86 0
-261 25 -536 0
570 667 698 0
-75 432 -310 0
-867 -838 254 0
-129 -433 -990 0
-466 686 -870 0
-650 381 346 0
-268 782 -848 0
644 -77 -710 0
685 -432 906 0
-635 81 -479 0
-356 -380 -18 0
-823 -641 -718 0
978 -861 -328 0
80 685 499 0
-866 -747 -183 0
-374 -675 70 0
611 -219 54 0
27 -251 924 0
85 -600 -196 0
-580 -603 244 0
152 -821 170 0
-737 953 752 0
-628 -570 -412 0
-658 -892 284 0
586 -476 -909 0
-973 294 185 0
-340 676 -723 0
323 -414 -289 0
-531 347 901 0
-969 -492 -314 0
-952 -728 -228 0
-988 108 414 0
-404 -990 366 0
-273 496 914 0
132 -548 273 0
268 119 -52 0
32 -361 -998 0
944 725 -774 0
-601 -645 898 0
169 318 864 0
170 -180 831 0
731 -427 -920 0
786 -729 237 0
-614 213 -297 0
423 721 -96 0
-739 452 -79 0
-207 -766 55 0
876 840 -550 0
-894 -639 -582 0
-25 836 -158 0
-350 826 739 0
725 718 -497 0
-648 768 -80 0
110 449 -551 0
-264 -242 184 0
-628 535 -105 0
-890 -930 467 0
532 465 -985 0
266 -570 907 0
798 727 -805 0
108 -990 -472 0
3 -679 259 0
326 -886 460 0
-237 -537 -312 0
-325 -673 454 0
223 470 -64 0
688 240 -3 0
-922 -940 327 0
896 994 -680 0
404 -620 606 0
921 -528 -536 0
-707 569 560 0
-34 680 -15 0
-34 -477 -617 0
236 -866 -77 0
-604 -971 678 0
665 786 -986 0
472 951 -271 0
-243 489 927 0
-784 -586 -31 0
-731 -797 -904 0
47 -281 71 0
-209 694 95 0
43 164 -98 0
-496 58 575 0
-555 257 -6 0
-695 521 782 0
-726 773 -272 0
445 -348 246 0
-658 -456 -597 0
-793 -378 217 0
-833 758 255 0
30 813 -174 0
219 365 145 0
-511 -194 -999 0
575 176 -614 0
774 34 -439 0
547 677 -6 0
866 -542 754 0
-427 12 524 0
-219 111 -831 0
-242 345 126 0
222 565 -813 0
-18 503 886 0
-497 782 992 0
-223 -18 909 0
996 -581 -261 0
18 944 387 0
856 -327 -825 0
500 873 -639 0
-726 51 -857 0
246 270 -950 0
-553 -641 531 0
800 360 322 0
900 -108 398 0
-48 -579 854 0
-333 -132 730 0
-304 -623 316 0
-35 -705 -652 0
-939 974 538 0
-316 -152 -935 0
-566 -31 54 0
-200 -661 93 0
669 -596 -118 0
-147 -657 -493 0
820 665 -530 0
426 -911 941 0
-373 631 595 0
-928 92 -719 0
-171 614 722 0
-762 -823 -865 0
336 288 36 0
-887 35 922 0
512 263 -241 0
-873 -129 115 0
237 417 218 0
789 -335 -584 0
476 678 -370 0
935 732 831 0
35 -707 -216 0
-825 663 608 0
-297 333 594 0
302 -601 -652 0
790 949 -941 0
770 598 -421 0
-801 566 652 0
222 -828 -518 0
-974 544 414 0
813 616 -368 0
-314 -952 -849 0
-559 678 -695 0
159 -230 -87 0
-215 -399 531 0
-554 -321 356 0
743 -533 549 0
-318 21 -217 0
406 -353 -696 0
-831 400 969 0
726 -277 519 0
483 142 -826 0
826 60 -422 0
-933 -869 788 0
429 123 814 0
600 -669 -683 0
-503 257 830 0
-807 525 -113 0
758 -976 733 0
672 -208 899 0
-190 -193 468 0
-114 -479 -744 0
-950 1000 408 0
576 877 -819 0
-979 729 321 0
-595 742 808 0
938 226 578 0
-451 90 -101 0
-703 -547 -526 0
-864 45 64 0
-621 -83 -515 0
-95 -823 -598 0
225 596 776 0
-955 -953 771 0
-865 -768 -932 0
-506 434 -702 0
-982 -239 801 0
623 150 402 0
-478 232 -949 0
144 -518 854 0
420 -162 -143 0
335 133 917 0
453 -844 -349 0
-314 -267 718 0
-190 -478 492 0
4 134 659 0
-805 -221 83 0
382 -270 -600 0
413 -860 -139 0
-493 488 -868 0
191 -207 -974 0
-696 -227 50 0
-624 859 -391 0
448 494 -592 0
-109 720 208 0
139 -513 583 0
-989 283 -836 0
-563 -202 297 0
714 -584 474 0
223 -435 953 0
-993 677 -366 0
459 53 -354 0
-41 251 811 0
512 -559 -640 0
-697 996 -404 0
521 823 945 0
768 -205 -295 0
962 -498 343 0
-802 -280 -227 0
118 296 -813 0
-101 249 -487 0
422 -681 -657 0
-300 -529 26 0
993 -21 9 0
688 43 -382 0
-301 632 818 0
788 -991 671 0
-532 545 -309 0
260 567 951 0
-508 312 662 0
-513 -656 -287 0
-794 -467 968 0
-149 724 -165 0
-80 339 277 0
600 820 838 0
726 -749 -769 0
586 187 -593 0
-897 589 213 0
-486 -571 788 0
-395 498 364 0
-782 775 -146 0
197 156 -835 0
-304 -692 81 0
-84 612 -983 0
968 -510 728 0
-934 461 159 0
-54 -255 -294 0
-900 -546 -809 0
479 -137 -419 0
-367 94 730 0
-532 597 578 0
-170 -130 -833 0
-60 -447 527 0
-235 75 135 0
638 -842 -646 0
-425 708 115 0
-623 -267 -708 0
133 466 -837 0
-98 131 -405 0
-950 -622 782 0
-985 438 112 0
-280 262 490 0
-290 832 -810 0
-211 -303 -937 0
-881 -649 -445 0
968 744 -217 0
103 -822 -21 0
477 470 767 0
829 639 882 0
612 -226 -919 0
482 686 -696 0
981 438 -854 0
-736 -427 943 0
553 -668 -562 0
148 -690 -216 0
-686 314 465 0
-208 -534 224 0
439 354 -511 0
149 900 -188 0
539 749 -311 0
-951 320 44 0
410 428 -340 0
-19 -119 -867 0
-288 -618 -776 0
447 979 551 0
-785 881 473 0
976 189 -300 0
953 146 589 0
-267 997 -994 0
646 -140 -28 0
244 -45 961 0
767 -545 733 0
532 -603 15 0
-603 -468 -629 0
-898 -336 -931 0
-435 -106 -721 0
-370 905 618 0
223 864 322 0
-952 -709 -625 0
856 208 463 0
-399 -629 -101 0
231 511 -189 0
-95 -259 905 0
-274 -373 604 0
-389 -332 -299 0
-308 472 -239 0
-523 284 -768 0
-229 -21 -280 0
-367 -662 -495 0
650 -855 845 0
-599 -650 -471 0
-389 -643 439 0
163 -724 -487 0
219 787 -665 0
-282 185 -973 0
802 499 972 0
254 -387 352 0
-553 547 -52 0
-277 758 -506 0
891 5 -771 0
841 -644 -224 0
719 843 -956 0
194 -755 912 0
257 465 322 0
367 -211 -402 0
-347 964 -957 0
593 -235 201 0
-276 -496 799 0
-384 -575 -710 0
-910 -476 -841 0
583 -394 270 0
-235 -59 97 0
-456 673 839 0
-231 -643 -843 0
592 189 710 0
712 -19 572 0
662 685 -544 0
-449 812 824 0
-1000 -89 -989 0
-545 -263 -47 0
287 -621 624 0
-645 -962 246 0
99 162 392 0
-742 208 946 0
641 491 -175 0
785 -186 846 0
-852 -425 141 0
870 587 -439 0
756 -62 138 0
347 8 646 0
218 2 447 0
-293 679 -712 0
-66 400 102 0
-312 -48 -715 0
-20 244 -682 0
774 960 180 0
924 -126 -914 0
597 319 617 0
-730 868 262 0
-489 862 -340 0
999 -356 784 0
-251 168 -549 0
-321 -620 697 0
-354 -996 987 0
5 -290 -231 0
975 -41 -345 0
-297 525 206 0
-894 -554 -448 0
-707 -567 190 0
1 892 -627 0
-806 66 -626 0
-856 871 -518 0
402 164 -262 0
1 -262 3 0
337 -90 -645 0
725 -198 -20 0
-642 675 -654 0
558 423 -552 0
160 -79 210 0
-914 -345 -268 0
644 699 771 0
-483 -298 985 0
504 -798 300 0
-90 187 258 0
982 -751 -509 0
614 -853 -862 0
889 -328 138 0
-189 -859 717 0
-209 -582 -855 0
78 265 -127 0
662 564 163 0
954 -361 -349 0
-919 413 -459 0
343 -530 -205 0
83 -151 148 0
841 912 673 0
-796 575 -444 0
252 -866 -47 0
-81 348 748 0
948 114 132 0
478 -629 546 0
390 296 278 0
-675 -90 -384 0
-756 -860 -134 0
-630 857 381 0
670 454 -173 0
-143 -250 -208 0
100 -513 342 0
-193 -680 651 0
417 -406 572 0
-851 -225 704 0
709 915 -553 0
381 -35 611 0
-443 -198 -99 0
830 -599 -571 0
-374 -795 -514 0
-373 970 -7 0
738 -557 -275 0
-38 -59 880 0
-353 -765 -690 0
-956 -486 156 0
694 -532 76 0
-71 -584 122 0
-31 -419 -368 0
516 500 -907 0
-801 -753 235 0
403 349 -935 0
543 -807 -54 0
-297 995 -767 0
-264 -632 592 0
-553 -426 -407 0
-79 -760 153 0
-513 467 -948 0
965 842 -281 0
-679 -990 -344 0
-174 -8 -471 0
151 -817 -302 0
-66 446 -115 0
55 -327 514 0
47 -609 -368 0
78 611 439 0
-117 -207 -750 0
703 203 -513 0
-454 353 -551 0
-734 -333 351 0
-118 -990 -146 0
-735 -158 -932 0
33 -643 -464 0
-666 -517 -503 0
490 -555 -780 0
-160 379 -269 0
-951 -589 20 0
-973 535 -826 0
280 387 -693 0
-793 -48 -688 0
-192 -1000 -863 0
998 883 410 0
-420 100 671 0
-732 965 740 0
-504 -1000 870 0
5 430 793 0
507 -706 851 0
-722 578 861 0
458 -597 -787 0
-172 336 -3 0
472 -976 -243 0
-298 -945 1000 0
-428 -187 -34 0
566 -97 799 0
612 772 -190 0
388 -92 559 0
-537 -561 853 0
545 -821 -611 0
380 -165 867 0
-92 75 -840 0
543 -880 -326 0
-132 108 -998 0
832 312 -740 0
228 -867 442 0
66 556 370 0
-416 905 -989 0
-704 -994 -417 0
544 634 -777 0
96 213 -880 0
-102 -829 701 0
-70 3 -990 0
-132 703 -628 0
31 -575 -651 0
255 -134 336 0
-550 -249 -682 0
-152 -713 -179 0
748 415 -484 0
452 76 466 0
-101 -743 -318 0
-203 562 -246 0
-562 324 340 0
747 -287 497 0
-671 583 -132 0
-915 -234 -117 0
691 -951 -503 0
-512 103 -731 0
-253 976 865 0
-629 -22 909 0
-487 -966 -396 0
-651 -501 747 0
-534 176 -205 0
-500 -583 -919 0
-642 981 669 0
75 -108 -158 0
580 35 212 0
-994 110 -15 0
713 383 -467 0
700 123 930 0
584 -97 -105 0
563 42 -550 0
-239 -151 912 0
-678 -713 -653 0
-198 155 887 0
-307 413 -256 0
12 106 14 0
20 784 -548 0
150 966 -641 0
-285 971 817 0
277 867 11 0
24 -921 -715 0
-639 153 827 0
-777 -636 598 0
555 794 -15 0
-346 -922 -792 0
-283 -766 -122 0
28 736 -870 0
349 -124 540 0
-706 969 388 0
848 -15 999 0
381 -107 218 0
277 536 587 0
844 299 948 0
-958 93 852 0
-585 -650 357 0
-234 305 858 0
-6 279 254 0
-76 16 112 0
291 34 -439 0
259 -969 464 0
153 687 930 0
-883 145 -621 0
324 -811 -309 0
-45 -140 -678 0
599 -733 -604 0
798 -728 36 0
-766 316 897 0
722 -699 -564 0
-868 -213 -850 0
-337 107 -786 0
-353 323 -94 0
-6 25 -161 0
-567 -551 -432 0
-501 767 -790 0
205 -109 -595 0
155 -881 -527 0
-590 356 -771 0
552 316 46 0
635 -212 695 0
218 -785 -117 0
112 443 -185 0
524 255 -568 0
49 800 -652 0
-464 255 -787 0
-529 75 -879 0
868 837 -897 0
-757 674 -128 0
575 18 -443 0
-665 527 549 0
472 311 930 0
-170 -167 -31 0
-265 -640 -748 0
-544 -953 -247 0
66 -276 80 0
-379 -888 -763 0
931 -411 -504 0
364 519 -121 0
-409 539 -910 0
-587 -270 581 0
442 262 97 0
88 -443 330 0
881 -409 760 0
703 -244 -526 0
-364 -253 -569 0
-503 -46 425 0
9 -128 -708 0
677 -912 -178 0
76 -183 -151 0
-181 721 822 0
293 907 -97 0
-967 -155 320 0
-159 441 -510 0
463 898 -199 0
-990 -351 551 0
115 636 -463 0
264 -662 395 0
-365 -1000 28 0
-446 109 824 0
237 180 543 0
59 439 433 0
-366 -18 -836 0
-336 -142 -880 0
297 942 9 0
609 444 1000 0
-385 -101 118 0
-659 725 -239 0
-762 361 -469 0
760 194 -181 0
771 564 181 0
190 938 42 0
-730 -187 -451 0
248 -927 -967 0
-292 457 -943 0
-259 -571 -241 0
431 -855 790 0
-661 60 -71 0
-3 59 731 0
803 727 -22 0
12 -852 -407 0
-708 212 703 0
-595 -628 300 0
516 -876 162 0
-516 -363 -413 0
418 906 -381 0
811 -94 813 0
-436 332 -215 0
-808 -501 417 0
802 -512 299 0
-877 -624 -120 0
48 668 502 0
86 -794 177 0
-827 -382 -378 0
-911 887 -984 0
-83 513 -771 0
-683 -844 535 0
138 690 889 0
-429 -383 403 0
183 393 -698 0
-499 -61 377 0
990 -751 -766 0
176 158 -17 0
373 111 -347 0
195 -511 858 0
-653 -881 859 0
376 -185 33 0
328 -492 32 0
-208 -289 -989 0
325 691 231 0
950 -586 827 0
-755 667 966 0
-477 -126 -366 0
-304 -626 -502 0
125 -856 634 0
70 -973 -263 0
-911 703 33 0
332 204 429 0
959 -804 805 0
-980 144 250 0
-562 327 -535 0
913 433 969 0
643 -705 -984 0
501 626 718 0
-699 57 -331 0
18 460 -770 0
-210 980 850 0
119 565 258 0
-356 954 589 0
146 975 -315 0
-55 -64 -692 0
-857 -260 -830 0
-774 574 -326 0
-364 252 -789 0
104 785 414 0
984 -839 44 0
638 -114 560 0
216 414 336 0
681 -754 -920 0
426 542 178 0
-758 -756 -803 0
-932 -437 766 0
401 608 -537 0
-673 -978 -217 0
202 751 -957 0
876 971 745 0
-846 270 219 0
-623 24 787 0
204 692 787 0
92 987 249 0
-603 -787 -730 0
-613 -369 227 0
330 352 -172 0
915 -623 351 0
-277 -254 58 0
-127 600 183 0
-458 -18 485 0
-640 102 735 0
-303 970 343 0
-539 999 690 0
-590 -231 -271 0
-597 515 497 0
-92 948 18 0
302 299 628 0
282 -391 -278 0
-757 -591 -674 0
-629 677 499 0
733 899 -147 0
248 914 184 0
991 444 58 0
149 883 -655 0
247 -930 -97 0
358 633 -966 0
543 -431 753 0
-900 595 120 0
-995 54 -314 0
-773 615 367 0
313 -142 245 0
-386 22 -969 0
541 -412 -582 0
-191 941 -585 0
898 -71 -714 0
-735 -21 280 0
-806 -817 -392 0
-575 -821 -405 0
97 786 -821 0
988 -759 157 0
191 -145 -708 0
-598 732 638 0
385 -608 -638 0
594 -280 -26 0
77 205 -791 0
-699 -752 693 0
257 -640 -346 0
-754 -208 524 0
831 -929 -969 0
539 7 721 0
-449 -366 354 0
934 755 -727 0
483 -454 234 0
-75 -932 -544 0
969 246 550 0
372 -991 -557 0
518 95 795 0
-203 -613 -364 0
471 386 102 0
363 489 -333 0
19 -44 -654 0
134 697 620 0
272 340 -270 0
840 227 583 0
382 -1000 279 0
-614 -162 -56 0
830 684 -413 0
-902 113 864 0
-263 738 236 0
-846 -472 924 0
940 -779 -977 0
-54 -390 -341 0
-520 965 -470 0
393 764 838 0
-246 -77 -562 0
-710 71 443 0
-531 92 -57 0
627 980 444 0
921 -370 -12 0
697 151 407 0
-841 289 435 0
-811 -198 -507 0
-712 460 120 0
797 -211 -976 0
-765 -540 652 0
-581 639 -577 0
-80 351 218 0
-141 -291 472 0
-738 -355 -691 0
526 -425 274 0
-219 -971 -2 0
-626 693 511 0
-474 91 538 0
-692 -560 826 0
29 -279 -841 0
-836 851 -555 0
-205 588 471 0
305 -734 682 0
-179 -316 107 0
827 -883 408 0
714 86 -626 0
216 750 -817 0
25 -170 210 0
-934 -624 80 0
79 563 -745 0
860 708 -398 0
654 -429 -152 0
-390 182 -622 0
-240 436 -938 0
-963 -709 765 0
-426 -673 68 0
-50 608 18 0
-34 -121 198 0
278 -586 14 0
-999 679 880 0
-775 -256 -692 0
-82 -981 -170 0
-839 475 -305 0
-14 138 207 0
-710 627 -734 0
-677 -395 -734 0
-168 -205 640 0
-276 -546 387 0
139 -712 91 0
526 915 -309 0
279 885 -671 0
-235 604 870 0
742 288 644 0
-195 914 970 0
-61 287 284 0
524 529 -106 0
373 -638 -329 0
296 796 962 0
-546 -107 -834 0
990 -600 793 0
-43 258 35 0
841 -454 446 0
207 -764 -654 0
447 -835 -812 0
635 -209 -370 0
629 499 -704 0
-435 968 -50 0
-989 -735 -835 0
267 466 22 0
109 597 -947 0
589 934 -397 0
-862 475 209 0
821 -673 446 0
-902 683 -280 0
-473 -920 -637 0
-520 186 237 0
572 -274 312 0
306 -550 22 0
804 845 -158 0
97 -557 968 0
713 -792 -347 0
807 -717 796 0
581 384 107 0
-851 123 344 0
-217 604 634 0
-846 -593 329 0
-155 -572 -931 0
438 -288 -406 0
588 -896 -137 0
-769 -3 -774 0
642 -833 -831 0
-496 -832 65 0
858 -329 -747 0
-648 152 -905 0
-610 652 220 0
-355 -241 -101 0
-41 645 877 0
401 -577 -760 0
-361 -279 -393 0
-844 -585 -999 0
837 -912 -437 0
-815 421 -67 0
93 -980 525 0
-514 397 568 0
914 -845 -78 0
760 -926 -354 0
98 -776 -890 0
-687 379 467 0
128 -279 -238 0
-40 747 -119 0
-96 -829 -863 0
203 -224 -478 0
-867 637 663 0
-446 -667 -191 0
673 986 -51 0
578 -238 223 0
-851 -693 -162 0
-436 -530 -402 0
484 404 1000 0
97 -28 991 0
70 361 -305 0
-523 734 -573 0
-14 49 -540 0
-180 281 328 0
-134 123 -429 0
-414 764 131 0
464 348 496 0
809 -851 610 0
966 -212 596 0
-316 366 752 0
782 -119 -363 0
-383 -819 625 0
412 946 514 0
799 386 331 0
-841 647 394 0
203 -976 -5 0
-393 24 -605 0
708 520 -283 0
-957 774 -469 0
455 201 -804 0
-748 729 -968 0
366 709 -861 0
-641 26 -176 0
-214 108 669 0
100 253 260 0
814 -477 -269 0
-63 426 -785 0
807 -295 771 0
-159 399 -246 0
-646 -550 687 0
111 863 680 0
33 -740 -567 0
742 -521 -1000 0
7 -606 599 0
613 721 89 0
700 507 -465 0
-583 -806 -907 0
38 503 198 0
403 95 -900 0
-762 -22 264 0
-74 760 -32 0
553 -320 -584 0
767 -526 -664 0
-713 -731 539 0
632 731 -313 0
74 -396 713 0
-990 -873 -949 0
-301 949 678 0
525 -426 -412 0
-133 -951 -20 0
349 -729 -999 0
-87 184 -471 0
-340 -509 301 0
-913 -958 -227 0
864 364 -401 0
769 535 -998 0
477 -765 145 0
130 806 33 0
-123 965 -650 0
-67 -178 494 0
851 -45 472 0
-99 705 -412 0
-975 67 -310 0
960 397 -536 0
-752 -852 -94 0
83 749 277 0
-864 884 161 0
210 -877 -305 0
-646 652 -669 0
767 695 -975 0
918 -71 -526 0
-877 684 -557 0
288 665 736 0
-240 -830 780 0
173 101 243 0
-502 883 419 0
-277 -122 -863 0
581 -153 667 0
679 -949 -148 0
887 101 -187 0
854 -428 774 0
-656 -296 659 0
840 525 661 0
-567 -157 -981 0
232 -801 517 0
-923 627 -198 0
386 -95 -337 0
-505 -947 848 0
-777 791 -610 0
136 -17 -117 0
919 -582 720 0
454 -91 -307 0
-523 -820 -260 0
150 -937 -219 0
-298 332 -457 0
-172 -561 -398 0
-321 146 -907 0
-895 127 -970 0
854 388 268 0
723 -458 875 0
851 -366 -19 0
760 -947 -189 0
573 860 -786 0
64 -625 -727 0
-293 351 23 0
-775 -63 997 0
914 -357 -378 0
-797 122 610 0
-244 -778 902 0
-69 -914 -846 0
-847 -279 590 0
700 -81 -311 0
-999 540 -437 0
343 -467 679 0
-593 584 370 0
-504 -603 929 0
61 -876 -958 0
168 -717 -295 0
798 -263 -776 0
446 -51 -747 0
773 693 262 0
-212 748 -296 0
356 32 -370 0
266 94 49 0
163 856 669 0
-696 730 -764 0
-586 641 265 0
919 -173 -673 0
235 161 -177 0
286 -198 631 0
507 -79 81 0
222 885 391 0
882 204 -142 0
660 -1000 -111 0
95 993 -265 0
-302 272 -606 0
-964 394 775 0
403 481 781 0
484 530 -290 0
692 816 797 0
52 -95 558 0
-662 -178 -921 0
-747 342 -36 0
230 -617 -367 0
107 -323 362 0
-397 736 911 0
-896 739 109 0
497 88 -891 0
-345 971 662 0
-350 997 -804 0
-206 987 -997 0
354 394 860 0
-745 903 36 0
-66 -546 139 0
-171 -995 -343 0
-154 378 76 0
-497 -778 859 0
-624 -856 -904 0
-694 277 -499 0
164 991 -452 0
760 -150 -805 0
-965 -315 -539 0
-64 170 -38 0
502 983 -303 0
-476 324 257 0
-111 -168 -620 0
482 466 -544 0
880 902 332 0
255 770 -765 0
561 -332 -235 0
825 794 -655 0
-887 -166 -628 0
899 23 758 0
-137 -60 -382 0
894 171 -443 0
-593 -903 -223 0
580 -948 991 0
-454 -833 280 0
976 -209 -238 0
530 667 -118 0
-254 -747 234 0
-279 767 -265 0
748 -937 -225 0
209 -421 -664 0
-272 -753 772 0
365 153 253 0
-520 -516 -770 0
-644 -311 -643 0
441 621 282 0
471 300 158 0
635 -615 -840 0
372 -340 -585 0
578 -590 -748 0
-397 -790 897 0
312 642 653 0
634 576 24 0
163 -560 297 0
-705 -788 -105 0
-901 490 -719 0
400 204 994 0
-16 996 -262 0
-469 -328 -324 0
938 -114 -744 0
647 951 963 0
274 -446 -785 0
-328 -79 -325 0
-802 -512 792 0
-475 -626 950 0
-322 55 138 0
-968 -231 410 0
-747 -14 88 0
-12 -2 236 0
915 742 -185 0
59 -493 613 0
790 109 -947 0
-658 -253 -788 0
831 -265 -967 0
489 -806 -913 0
-617 -204 -292 0
991 -383 -191 0
-438 196 338 0
-598 406 591 0
-454 267 21 0
83 848 267 0
827 405 -490 0
-441 759 -79 0
-960 385 106 0
358 -788 -702 0
886 955 649 0
34 -283 806 0
-161 737 -297 0
740 -480 -384 0
-662 152 355 0
788 610 -662 0
287 789 968 0
-794 -637 -327 0
-211 -390 -289 0
-979 -171 428 0
140 -672 661 0
280 370 761 0
-725 -878 5 0
125 -833 298 0
-904 -484 -852 0
-932 -113 357 0
616 871 520 0
243 59 983 0
678 785 -939 0
-181 795 65 0
-159 -905 -273 0
-659 221 -784 0
-846 443 -304 0
887 -534 -71 0
-63 -644 530 0
-840 819 882 0
430 30 539 0
744 284 -729 0
-347 -499 681 0
-57 -735 491 0
688 638 644 0
-296 766 -698 0
74 -565 241 0
495 -263 -240 0
-258 870 877 0
897 193 -403 0
831 971 -70 0
193 -755 -323 0
-968 335 622 0
-482 -477 440 0
478 -553 -957 0
-239 775 517 0
695 770 -870 0
-968 307 -940 0
-815 -623 -849 0
-193 749 -131 0
-775 -898 -484 0
482 77 -491 0
-809 -506 -65 0
-527 -764 -569 0
757 -568 303 0
-148 694 664 0
925 -932 -423 0
115 -280 -401 0
645 -714 -173 0
528 -988 739 0
170 972 -143 0
974 97 13 0
-29 -374 -959 0
399 -795 -48 0
614 -477 -600 0
-447 -584 -679 0
507 718 850 0
571 -577 -31 0
-814 -665 -26 0
-575 -514 992 0
991 319 35 0
-11 -536 -838 0
875 -805 -222 0
938 -26 376 0
444 445 -673 0
-511 337 927 0
-509 12 -872 0
710 509 627 0
280 -325 -608 0
87 462 -230 0
991 47 148 0
-701 906 866 0
-365 -845 213 0
30 -115 -190 0
406 511 -954 0
465 529 -197 0
197 940 -273 0
649 542 -15 0
778 -490 213 0
842 922 -149 0
446 -840 -451 0
887 -508 -643 0
-471 -440 441 0
-143 49 -326 0
173 -839 -688 0
-130 653 230 0
809 909 599 0
540 382 -671 0
229 193 -466 0
694 849 188 0
-58 772 -786 0
-505 906 -880 0
-561 -454 -10 0
756 -516 -425 0
108 -451 -692 0
-512 799 556 0
-83 -125 -891 0
377 933 -845 0
-727 340 -411 0
-829 652 -62 0
-948 311 912 0
518 55 -348 0
-797 -520 -16 0
583 -943 -2 0
-39 -917 -474 0
92 -303 142 0
-194 684 -277 0
-116 -835 528 0
175 -382 -998 0
757 -77 -868 0
112 379 -363 0
164 -72 -160 0
-996 902 -639 0
242 762 -832 0
178 -517 221 0
333 428 -665 0
18 -155 -526 0
-605 765 -972 0
-4 -401 -560 0
194 -576 -732 0
969 -595 243 0
-321 131 1 0
300 -330 719 0
-300 115 -512 0
245 -964 -788 0
-637 -524 662 0
224 -68 511 0
119 -556 278 0
-622 -648 85 0
-638 990 42 0
680 -417 -408 0
-792 791 454 0
-550 -528 73 0
-238 -234 62 0
-518 828 -724 0
-977 698 -494 0
-406 -773 -714 0
597 -352 -329 0
666 -380 196 0
-698 247 -507 0
840 -522 -56 0
-505 943 -265 0
437 -493 -213 0
-982 -858 -142 0
646 834 642 0
434 -47 224 0
964 -783 857 0
704 -952 163 0
-485 -291 149 0
-993 4 -23 0
550 518 -440 0
-780 -863 605 0
-189 -498 46 0
-195 -75 -536 0
670 302 -996 0
-840 225 -36 0
150 -291 -248 0
-547 242 743 0
-822 341 -562 0
590 -354 -580 0
906 -116 619 0
-319 313 822 0
345 -54 -138 0
-528 595 -565 0
158 -326 -664 0
96 904 -794 0
327 801 757 0
699 247 -577 0
-285 791 -715 0
577 -12 140 0
341 -913 -17 0
-48 935 519 0
924 -992 -681 0
-771 -494 -180 0
-768 479 -14 0
168 919 -179 0
-979 -487 -235 0
418 -401 501 0
-679 791 -52 0
-420 337 -960 0
-621 -866 -464 0
-610 -365 -745 0
-997 -11 -206 0
933 740 733 0
-6 123 525 0
-864 222 -890 0
217 857 480 0
811 259 296 0
-481 845 363 0
-939 -418 231 0
-388 448 665 0
815 700 356 0
-804 -214 -694 0
824 -126 -161 0
752 -897 -814 0
-980 -235 -520 0
-56 -352 -681 0
-645 -670 512 0
-726 366 -739 0
523 114 -518 0
-478 265 226 0
-161 -157 33 0
-566 582 89 0
61 -782 8 0
915 206 460 0
712 -681 -999 0
-789 786 891 0
-558 -679 -530 0
360 -447 -125 0
-14 130 -795 0
-709 131 310 0
-287 -935 767 0
635 563 231 0
-208 494 -185 0
-868 -707 -958 0
824 952 966 0
542 -983 693 0
-251 960 256 0
-473 -496 -199 0
741 -676 847 0
-20 544 -833 0
-621 208 -99 0
43 -64 -288 0
-110 -394 -683 0
210 427 -615 0
977 -152 610 0
-712 906 295 0
761 -540 -140 0
-959 -433 294 0
852 764 -858 0
-76 742 -800 0
-670 -85 55 0
-567 -310 110 0
74 245 950 0
799 520 -188 0
878 106 -162 0
-763 865 -685 0
-283 -801 -507 0
-566 679 -537 0
-35 624 146 0
344 518 77 0
683 387 -170 0
123 81 928 0
323 -843 619 0
390 -375 -172 0
138 -740 -386 0
868 746 -986 0
-131 771 -736 0
577 -999 -471 0
536 419 716 0
413 792 -893 0
-225 24 -659 0
-623 -26 -902 0
537 -252 315 0
620 -35 241 0
-552 -811 419 0
850 745 100 0
-862 248 -398 0
-708 930 -929 0
-661 -467 907 0
-444 845 -563 0
449 -601 -889 0
787 -811 -149 0
-385 581 -392 0
-284 367 -59 0
535 465 -56 0
-300 261 2 0
888 740 -793 0
-538 763 966 0
-291 -66 739 0
181 -942 -767 0
59 10 136 0
-586 806 -159 0
436 184 -739 0
-717 -868 771 0
-101 -608 -341 0
519 -321 -47 0
-490 -115 -843 0
-117 -49 -661 0
-383 800 -940 0
115 586 -440 0
455 -226 -161 0
-679 409 98 0
-192 -743 -842 0
99 787 598 0
915 -847 452 0
-799 -256 -618 0
220 866 827 0
-761 -410 826 0
-162 854 462 0
-779 -325 -855 0
-911 247 998 0
-158 192 639 0
439 -317 -622 0
-121 -450 -217 0
793 -747 376 0
-10 529 -296 0
512 -963 -455 0
211 -237 622 0
-240 531 376 0
-36 961 782 0
-284 658 789 0
330 -798 -5 0
142 160 145 0
-450 -320 551 0
-255 -799 535 0
-863 986 601 0
260 -306 994 0
683 326 769 0
-575 -215 691 0
814 -471 -272 0
-969 235 116 0
-722 823 -5 0
-27 499 453 0
-755 -908 595 0
74 431 -300 0
-763 455 -36 0
-327 631 473 0
944 172 -218 0
821 461 -640 0
-683 -762 -812 0
-507 -586 -924 0
102 -445 -626 0
-736 -420 -42 0
130 334 -759 0
893 -852 254 0
-784 178 -25 0
392 509 227 0
-777 -217 -290 0
-809 -404 466 0
-554 700 -182 0
-197 -299 132 0
-157 -619 -437 0
527 -489 -923 0
915 -357 80 0
-767 -16 397 0
-263 209 926 0
222 752 453 0
175 113 896 0
-487 -183 132 0
-12 -558 -677 0
121 -396 -507 0
491 834 28 0
-27 922 870 0
419 -107 -894 0
-322 179 160 0
667 914 -729 0
919 965 -690 0
5 -377 445 0
730 -942 188 0
-74 -586 172 0
897 413 382 0
-593 813 -607 0
76 -698 -674 0
-761 212 329 0
988 506 58 0
-348 673 -544 0
882 -899 605 0
464 -422 411 0
949 -141 52 0
-826 854 -78 0
-588 421 -725 0
524 79 326 0
-194 -131 863 0
248 -304 -109 0
7 389 -74 0
143 -983 -897 0
468 -289 -537 0
-323 -313 -879 0
-772 -712 588 0
263 55 -433 0
-646 498 -549 0
858 343 56 0
-164 51 942 0
457 -763 58 0
-163 -784 472 0
-670 826 572 0
171 -596 909 0
-789 901 630 0
293 -818 977 0
-554 353 -813 0
-554 -637 568 0
149 593 -525 0
558 504 835 0
-372 118 -755 0
391 -210 754 0
-518 297 -133 0
432 910 458 0
512 -106 -773 0
-407 -615 814 0
98 -701 -864 0
-77 687 -106 0
973 145 -833 0
-78 -865 214 0
952 -889 -97 0
-255 454 -554 0
998 -606 517 0
729 989 -855 0
748 880 -188 0
789 515 -1 0
-762 -833 -708 0
-887 144 252 0
41 -663 1 0
935 501 271 0
934 -265 -23 0
-94 -899 534 0
305 -643 -918 0
411 -457 551 0
781 -606 740 0
-991 -961 579 0
1 32 922 0
-674 923 -114 0
787 742 238 0
251 -367 -221 0
18 830 -922 0
-403 754 620 0
474 377 390 0
-696 -496 -959 0
-510 875 582 0
-209 746 410 0
-142 -499 768 0
-345 744 -774 0
-2 426 499 0
-219 -844 -115 0
708 -574 -233 0
665 982 995 0
206 443 860 0
18 720 914 0
-731 85 -560 0
-966 -275 -819 0
-243 946 839 0
-316 -642 168 0
470 -813 -239 0
827 650 -594 0
286 -383 462 0
-985 -920 81 0
-319 182 -532 0
-832 490 -778 0
-70 -504 -927 0
139 219 554 0
378 273 -744 0
-631 -573 -483 0
-246 683 77 0
370 -889 -736 0
686 748 126 0
-969 747 1000 0
806 -773 719 0
-554 242 -437 0
393 -267 -656 0
340 446 25 0
244 439 420 0
-213 32 -172 0
-776 -852 -596 0
684 -320 -548 0
-783 -844 -758 0
856 907 -941 0
372 463 521 0
920 -968 157 0
-933 -148 140 0
-214 -673 270 0
-29 -551 902 0
-581 185 -955 0
-46 971 -185 0
117 -782 -242 0
-316 722 -92 0
-756 814 439 0
610 -829 14 0
-947 282 -683 0
431 827 -89 0
791 -57 91 0
783 338 146 0
475 527 -883 0
596 -936 -940 0
867 295 817 0
-299 499 -567 0
550 297 356 0
-201 937 267 0
576 -494 -581 0
-440 32 458 0
576 -935 342 0
-442 -569 -593 0
-434 -448 352 0
-168 406 627 0
500 -764 -981 0
-82 197 936 0
-496 -796 -658 0
-777 832 313 0
-237 -756 -125 0
280 -88 -494 0
469 804 927 0
28 553 -884 0
-464 207 470 0
424 473 584 0
914 171 502 0
731 -125 862 0
60 -197 700 0
-323 25 -255 0
318 -298 -157 0
-251 967 -678 0
202 -991 -87 0
811 862 837 0
954 -613 -840 0
868 -209 -996 0
976 192 338 0
-698 801 -903 0
-701 216 727 0
-694 -215 -725 0
-424 -639 -515 0
-128 -866 -744 0
720 923 -873 0
-969 750 -546 0
-1 -354 100 0
-150 617 749 0
-773 966 807 0
-67 -86 26 0
-277 -821 127 0
622 296 -525 0
-816 433 -972 0
322 -658 -755 0
-820 -659 -542 0
-786 -552 -461 0
-915 100 63 0
514 -413 639 0
773 -137 -61 0
-807 111 421 0
-346 171 -837 0
-623 862 -475 0
966 520 -220 0
-768 136 49 0
905 579 -419 0
-83 740 -661 0
873 -279 308 0
-458 224 -451 0
789 -644 -612 0
-542 394 967 0
839 970 -875 0
680 470 355 0
-302 728 599 0
-942 71 -132 0
-854 -758 974 0
707 425 -768 0
-117 -153 794 0
-109 629 986 0
-624 -156 660 0
-930 -46 -826 0
-423 -484 565 0
27 -695 -590 0
-106 -425 -393 0
-231 810 189 0
-134 -551 418 0
467 416 836 0
353 -738 -472 0
988 618 503 0
229 568 173 0
-331 87 618 0
252 -904 -487 0
-887 668 472 0
826 376 198 0
-823 686 315 0
389 921 803 0
866 724 784 0
10 -111 494 0
962 855 -279 0
-555 -103 -351 0
451 265 542 0
83 -707 261 0
-836 449 -322 0
-202 481 -333 0
-479 754 545 0
-472 -976 559 0
-790 20 343 0
-458 -610 20 0
866 289 372 0
-610 -52 -267 0
-679 -213 -44 0
802 -562 345 0
-431 159 -549 0
939 -824 -435 0
-957 -981 828 0
-695 -74 -365 0
638 222 -104 0
-168 293 -421 0
1000 167 818 0
46 522 -109 0
-471 -794 -645 0
-682 -324 711 0
-891 526 -410 0
641 -230 -256 0
-487 -627 461 0
495 -719 206 0
993 585 813 0
-527 -350 -467 0
-603 225 470 0
609 874 882 0
-716 -912 66 0
-247 -100 94 0
-273 793 -296 0
-939 -237 -782 0
-443 235 555 0
-454 -132 502 0
-385 383 106 0
-274 507 -530 0
225 596 685 0
-413 606 -162 0
-122 -934 -811 0
-668 369 382 0
149 -273 240 0
578 -474 -533 0
-932 -205 -626 0
-517 -823 -238 0
-334 -458 -486 0
727 694 343 0
-812 -228 731 0
-749 113 508 0
59 343 827 0
163 255 -110 0
309 -996 -498 0
-464 776 -788 0
198 -291 -261 0
-124 296 147 0
523 -587 -716 0
484 -622 913 0
650 -922 982 0
482 -122 -35 0
884 622 283 0
-302 -573 4 0
-169 -335 488 0
-542 105 796 0
-320 -301 -45 0
695 -976 703 0
-114 -740 842 0
-220 -965 -852 0
561 32 -163 0
382 -182 -169 0
562 777 781 0
-678 130 680 0
291 -729 -95 0
53 -815 781 0
-333 984 -346 0
-357 -727 -998 0
430 -113 -993 0
-88 -39 -135 0
60 946 -158 0
-555 707 -696 0
-125 -254 -178 0
-592 33 -794 0
-505 -692 -80 0
841 -656 803 0
148 120 451 0
547 759 699 0
-295 -778 900 0
308 -247 -561 0
-562 297 905 0
794 -797 -905 0
-663 -518 618 0
-412 96 -503 0
184 98 304 0
381 351 -695 0
-140 -448 580 0
-372 -118 -932 0
393 -615 -301 0
737 633 -67 0
358 179 -65 0
-841 101 -719 0
704 -110 -682 0
878 -846 -570 0
930 247 57 0
996 850 -946 0
353 251 -656 0
122 917 822 0
-366 86 792 0
-529 235 636 0
197 66 -177 0
-440 431 711 0
118 -385 -593 0
-916 -339 15 0
-696 -528 -396 0
-857 -550 634 0
-174 161 -496 0
382 709 -260 0
-646 146 -100 0
-345 -628 -416 0
88 279 433 0
31 972 238 0
323 -90 958 0
549 306 529 0
752 117 672 0
410 517 -871 0
-405 -831 782 0
415 205 199 0
424 -969 853 0
-897 222 -220 0
865 398 -94 0
351 795 441 0
362 -481 -194 0
-824 614 793 0
275 980 -5 0
466 837 551 0
-439 -63 -597 0
649 -175 -52 0
-250 552 867 0
-375 62 -964 0
10 826 527 0
-215 -268 -542 0
-564 -218 -648 0
421 28 972 0
624 175 -430 0
735 919 863 0
269 158 -576 0
995 210 376 0
-878 669 738 0
939 -144 -153 0
399 445 -904 0
393 722 994 0
231 -918 -126 0
851 -641 -29 0
-209 -602 851 0
-284 -636 -892 0
-567 366 -985 0
-659 -78 -482 0
274 283 265 0
-395 860 353 0
-132 -620 -772 0
-186 622 -909 0
-873 -21 391 0
-189 236 -671 0
975 615 -116 0
848 -642 515 0
-628 503 122 0
-931 892 -674 0
-668 684 -504 0
371 -166 -922 0
-372 934 155 0
428 778 591 0
-400 -808 584 0
-956 1 691 0
638 -296 -764 0
920 557 -646 0
459 -513 -816 0
-550 965 568 0
993 -133 80 0
932 -316 94 0
506 -246 -224 0
299 -447 120 0
-791 549 303 0
-474 205 99 0
-861 -5 969 0
-361 -182 876 0
-75 -362 -944 0
792 519 -685 0
-526 102 701 0
-303 -744 -442 0
684 -849 -899 0
620 63 73 0
460 803 168 0
553 -358 258 0
38 765 -978 0
408 528 412 0
118 -881 -926 0
-247 144 366 0
408 -907 -291 0
-202 -125 -476 0
459 213 -786 0
-920 208 -234 0
-408 -787 992 0
263 -557 -979 0
-230 -528 214 0
238 736 719 0
-429 -265 -804 0
658 711 811 0
811 -412 -214 0
376 690 308 0
-368 -757 -146 0
243 -961 84 0
-709 -71 -724 0
-16 -325 388 0
417 49 873 0
-558 526 750 0
999 -405 64 0
-848 -906 556 0
-291 522 -229 0
-43 -690 -733 0
808 -368 846 0
111 -688 -341 0
-789 824 621 0
457 -251 -399 0
256 -611 -224 0
-153 -347 -534 0
-590 -311 -995 0
-758 -897 -372 0
-367 -880 885 0
-752 -481 -173 0
138 91 -262 0
257 669 -423 0
820 645 999 0
-631 272 403 0
-456 818 932 0
-331 -136 867 0
854 767 -487 0
580 -165 -971 0
967 -640 -336 0
-304 511 853 0
-360 -809 -875 0
-656 255 -340 0
-70 -85 -432 0
-908 -804 617 0
371 492 114 0
-28 -535 395 0
-921 -371 244 0
102 208 -46 0
-200 305 -689 0
-565 -754 -887 0
-949 -283 552 0
320 737 -583 0
616 -534 972 0
-609 -757 329 0
106 -659 110 0
-633 -391 -708 0
176 -498 -987 0
471 563 422 0
-839 -723 -924 0
-604 -627 979 0
-320 -610 567 0
-434 414 224 0
-964 235 267 0
909 -621 -442 0
388 295 237 0
494 -834 -660 0
-382 419 -664 0
313 -455 589 0
-737 -85 -144 0
-34 -774 545 0
-646 993 -619 0
258 719 -434 0
665 613 236 0
-941 25 -908 0
-162 -772 -148 0
76 -992 137 0
-110 335 -793 0
-686 929 86 0
109 540 571 0
184 -983 -364 0
180 108 -486 0
-77 919 849 0
-739 311 382 0
170 786 -721 0
517 -611 929 0
-221 401 809 0
910 -158 266 0
-156 -101 -898 0
199 228 480 0
-523 -970 710 0
-853 549 -743 0
960 -528 788 0
-964 516 -383 0
606 615 842 0
745 -32 851 0
-106 126 -957 0
-588 284 544 0
124 89 760 0
510 -334 -885 0
-810 259 551 0
836 79 844 0
-382 428 -911 0
846 546 -863 0
-49 -257 209 0
-894 -674 -294 0
941 -274 -560 0
-885 -287 75 0
950 640 -554 0
892 882 108 0
-132 -832 -658 0
755 -535 301 0
-405 -845 59 0
-363 528 -806 0
322 330 717 0
553 79 -362 0
-805 575 796 0
573 -68 -430 0
63 -661 -681 0
-745 279 -126 0
706 701 -466 0
-826 483 -73 0
207 -261 483 0
-38 30 -437 0
486 650 24 0
-131 -363 969 0
-285 512 -505 0
58 76 -981 0
408 987 -578 0
641 404 307 0
-405 868 -453 0
643 230 413 0
-12 469 279 0
405 -832 67 0
-274 721 -476 0
224 174 205 0
-860 506 813 0
53 -288 336 0
877 663 867 0
394 602 516 0
30 -668 404 0
300 189 563 0
-805 104 309 0
667 -738 -778 0
2 -549 -260 0
222 -473 109 0
-741 -331 426 0
-120 438 -462 0
55 883 -52 0
682 -144 946 0
35 -231 879 0
-237 637 317 0
-828 -242 -382 0
385 394 -354 0
-435 -116 -366 0
-373 435 10 0
834 622 -429 0
46 787 -525 0
434 97 -814 0
521 -776 -824 0
142 745 675 0
646 -592 -125 0
-955 -760 -994 0
276 153 239 0
-86 419 748 0
-886 730 -541 0
297 448 -267 0
-369 -171 -501 0
-965 -384 -186 0
-420 814 -984 0
913 -667 811 0
-524 -309 -863 0
-311 636 564 0
113 -833 241 0
-662 -295 -201 0
826 511 190 0
194 377 421 0
47 258 842 0
-209 -468 -509 0
905 -210 -415 0
675 124 -37 0
507 381 253 0
348 43 -563 0
-916 738 -304 0
-37 23 192 0
-337 456 -527 0
908 554 -452 0
-62 919 848 0
-503 -977 371 0
705 290 324 0
268 -263 -934 0
-842 -461 -873 0
-929 7 362 0
474 636 599 0
897 -915 -333 0
481 -331 337 0
419 -884 288 0
262 913 -729 0
786 -876 -31 0
49 -966 -18 0
432 -20 559 0
-393 26 821 0
-848 121 726 0
-908 248 -117 0
-97 188 -839 0
-577 -873 -259 0
873 14 -196 0
-764 678 662 0
-913 -526 -513 0
246 -787 664 0
948 -417 -723 0
-489 484 -38 0
-339 768 654 0
799 -389 -729 0
-475 524 -504 0
-601 67 624 0
-478 301 -86 0
561 -645 -988 0
650 692 536 0
907 696 -317 0
927 431 -143 0
851 782 947 0
108 370 174 0
296 57 -241 0
-314 372 571 0
-695 -581 299 0
130 332 -810 0
411 -846 -513 0
-330 731 916 0
684 533 -737 0
-197 517 791 0
833 187 387 0
887 403 -655 0
-40 22 523 0
51 651 -612 0
-861 730 -104 0
13 909 941 0
756 -479 -617 0
841 -961 -728 0
419 -489 -495 0
421 374 154 0
-234 -273 -779 0
532 -383 -485 0
276 -845 264 0
574 222 794 0
-535 219 411 0
-232 -66 -530 0
786 100 232 0
486 -175 918 0
993 52 -867 0
911 102 -692 0
605 560 -155 0
-632 10 772 0
154 -685 876 0
409 -582 -488 0
767 899 -253 0
-47 914 180 0
-247 694 388 0
407 -803 -306 0
-580 -582 672 0
398 965 -901 0
995 597 864 0
-276 148 154 0
-92 627 272 0
-691 -400 -554 0
-917 652 602 0
237 810 801 0
-307 866 131 0
619 -982 417 0
-522 69 -521 0
618 -530 401 0
-14 67 596 0
396 -422 75 0
-114 -830 445 0
315 408 766 0
968 -602 624 0
810 -877 -37 0
-501 480 946 0
544 -700 620 0
-792 751 273 0
-402 584 -987 0
-174 295 -296 0
-753 598 -377 0
-631 865 -498 0
-634 934 -636 0
-133 -95 785 0
164 843 611 0
-156 292 521 0
-814 296 381 0
312 -726 77 0
498 61 -663 0
-424 -635 -165 0
65 -929 539 0
59 509 -215 0
-794 508 -245 0
545 -222 971 0
-575 634 -998 0
952 -156 -412 0
543 -402 241 0
349 984 919 0
683 791 518 0
396 -941 610 0
645 246 -387 0
350 -430 -945 0
-381 -164 -982 0
773 -929 626 0
213 497 -68 0
-385 40 -259 0
562 29 -588 0
487 568 -839 0
259 -737 173 0
-61 224 389 0
402 423 943 0
203 232 511 0
-879 403 -837 0
442 305 31 0
83 -502 -78 0
708 578 -707 0
873 -481 -960 0
943 435 731 0
-460 566 -803 0
224 931 815 0
-313 525 575 0
-320 190 12 0
600 623 -16 0
-21 -210 -913 0
-69 -459 934 0
-406 943 230 0
517 976 148 0
-665 -22 -926 0
-259 -789 716 0
-523 -213 -884 0
-486 -848 -322 0
82 -861 -408 0
570 812 597 0
894 880 14 0
771 786 576 0
254 -303 -53 0
-446 673 944 0
771 -769 -120 0
346 578 -947 0
441 -874 704 0
268 683 819 0
-255 727 -408 0
-270 -684 -9 0
-608 224 -784 0
868 929 910 0
164 -729 853 0
652 -509 597 0
-814 296 882 0
-258 -572 602 0
486 -428 625 0
491 92 49 0
-22 196 161 0
596 -179 759 0
-355 48 97 0
474 877 967 0
-705 452 66 0
552 -345 140 0
614 -694 -788 0
-920 -19 -183 0
697 843 -563 0
-976 -278 -981 0
-492 -960 -337 0
921 122 -30 0
129 270 -972 0
-110 423 717 0
-552 667 -47 0
-7 397 -82 0
-560 725 -19 0
577 -345 759 0
-616 -502 -40 0
-948 -939 163 0
472 -38 997 0
52 949 -13 0
-266 -877 -550 0
760 -930 -359 0
-812 90 -274 0
-197 176 83 0
-389 -78 371 0
980 -940 -615 0
222 909 -831 0
764 945 251 0
-392 -126 21 0
-265 -895 549 0
-324 237 -444 0
-748 371 6 0
407 -203 -36 0
-480 565 929 0
989 -917 584 0
263 216 519 0
747 -506 26 0
-330 -889 -991 0
-115 -143 643 0
59 203 754 0
404 546 348 0
865 -505 -587 0
590 851 -434 0
-609 970 -106 0
-813 48 -566 0
-820 -81 50 0
-761 -294 -944 0
220 -575 223 0
-633 -561 214 0
-824 -744 683 0
-87 -502 -769 0
-234 510 212 0
797 169 -653 0
56 -831 973 0
-400 -234 -76 0
-48 164 -582 0
380 -651 106 0
84 -18 584 0
-803 -279 473 0
448 695 -676 0
539 -144 -425 0
539 147 250 0
49 872 746 0
645 897 560 0
-295 -663 662 0
477 -600 -979 0
-685 647 -263 0
-752 -237 273 0
-621 -908 143 0
-653 434 -442 0
-22 154 628 0
860 -128 -303 0
-427 -46 320 0
-755 108 -872 0
-586 855 -259 0
228 -749 857 0
733 708 560 0
85 285 9 0
-414 -97 339 0
7 -930 -868 0
138 619 -618 0
-723 50 -144 0
-444 -848 668 0
961 853 -71 0
-454 300 573 0
-550 733 -727 0
499 992 284 0
134 -398 533 0
263 -482 -548 0
-602 502 338 0
-360 -317 -143 0
-480 -158 719 0
-495 285 -785 0
-536 -710 260 0
934 -456 -257 0
987 306 -791 0
372 -547 -932 0
-662 172 563 0
-178 393 202 0
109 -166 -297 0
-631 357 -539 0
-423 653 -993 0
-821 655 80 0
751 -485 -449 0
422 -193 695 0
-686 -293 373 0
538 258 194 0
-512 140 681 0
-42 710 580 0
-958 386 -820 0
184 203 -128 0
641 558 599 0
596 -528 937 0
237 -731 -34 0
21 978 585 0
-340 -649 586 0
838 986 989 0
870 354 -754 0
298 3 -599 0
300 734 -988 0
-814 -58 950 0
-493 -306 111 0
-556 577 587 0
-800 130 -677 0
-602 909 410 0
-608 88 -128 0
-296 874 -896 0
505 -816 26 0
-181 771 33 0
473 681 -331 0
315 180 796 0
496 -35 901 0
-9 249 -304 0
526 -284 694 0
353 622 783 0
-397 888 240 0
-518 -818 804 0
223 103 -260 0
428 119 -247 0
427 -768 -761 0
629 820 769 0
602 -711 -432 0
859 756 -129 0
72 584 694 0
674 173 293 0
769 496 -268 0
584 -6 -485 0
4 -656 411 0
395 -512 778 0
492 -819 -790 0
631 99 68 0
-864 83 -452 0
-516 -505 781 0
-991 -461 -580 0
794 -946 -240 0
-22 120 -666 0
790 917 -727 0
-452 -122 826 0
-382 -142 230 0
226 -984 438 0
-967 152 -93 0
-722 -348 -657 0
680 303 -335 0
-686 420 846 0
-300 100 -690 0
-581 797 363 0
-990 -377 -33 0
-881 12 -415 0
-836 -503 838 0
218 -555 25 0
463 -159 451 0
790 -232 -567 0
-113 625 940 0
756 945 703 0
-498 -836 487 0
53 -403 284 0
644 -241 950 0
192 459 -807 0
-177 -869 891 0
-778 762 567 0
964 969 -129 0
906 999 -134 0
920 946 -98 0
56 625 220 0
-958 -861 470 0
-355 932 -881 0
629 -341 -230 0
-849 -741 275 0
545 -541 -216 0
-186 194 311 0
-206 615 -97 0
306 -486 320 0
-111 -393 86 0
-941 469 -982 0
161 -879 -208 0
-110 215 478 0
-501 -663 117 0
-808 -578 313 0
657 133 190 0
-905 949 -709 0
681 841 -974 0
-184 -607 105 0
2 117 390 0
723 -753 -555 0
612 492 -443 0
771 -516 479 0
-472 528 -998 0
-281 744 425 0
558 68 541 0
682 -383 741 0
-971 -15 -483 0
-26 752 272 0
-19 493 500 0
851 -669 -322 0
33 -816 756 0
-724 -462 641 0
-42 -489 825 0
-771 810 622 0
-530 -305 51 0
221 -666 425 0
-699 762 35 0
590 114 -913 0
-221 152 -589 0
-330 -260 -953 0
170 578 580 0
-125 191 -737 0
409 -221 666 0
-507 -654 551 0
8 -156 235 0
-610 584 218 0
20 -712 834 0
-378 -351 914 0
393 397 -985 0
-558 -164 246 0
7 957 -887 0
-80 -89 340 0
720 350 908 0
-392 799 436 0
973 -906 -912 0
-36 782 -3 0
904 879 -205 0
885 -326 78 0
418 -941 38 0
917 -998 783 0
554 321 700 0
-64 -452 -490 0
-738 -548 424 0
122 294 409 0
-430 -938 -717 0
-931 -719 -369 0
-477 885 -227 0
-94 732 103 0
271 966 -687 0
938 -666 255 0
-43 78 -948 0
-225 144 -295 0
603 656 -530 0
653 -812 -136 0
-107 873 -558 0
-452 727 354 0
-748 851 620 0
-715 899 165 0
-582 -762 -750 0
161 -129 153 0
576 -983 118 0
368 557 432 0
919 -281 -525 0
-437 556 627 0
-407 405 -907 0
-651 620 -358 0
136 -946 879 0
438 -358 -508 0
318 926 -477 0
-231 957 -22 0
694 -300 722 0
-411 616 642 0
754 -176 -237 0
-546 -245 275 0
706 704 -231 0
168 -350 688 0
353 820 838 0
540 877 -464 0
281 495 -193 0
-485 -343 695 0
541 960 544 0
-334 960 -401 0
-147 -636 -366 0
28 243 526 0
59 940 -810 0
-341 -844 -252 0
839 163 -164 0
-119 605 389 0
260 911 -823 0
-578 396 574 0
-151 429 -870 0
-739 -446 433 0
767 592 340 0
-188 -225 -422 0
-13 -588 995 0
843 722 190 0
-684 315 -438 0
-707 261 -47 0
-319 197 -688 0
-706 -909 -277 0
430 -119 561 0
616 -583 -621 0
-275 -821 -945 0
688 -618 708 0
734 690 -14 0
66 817 -295 0
728 319 -873 0
-629 527 -190 0
-817 -742 178 0
546 -193 393 0
-189 649 867 0
-945 451 208 0
-119 192 386 0
-695 -790 -994 0
827 -186 933 0
598 789 862 0
207 703 -569 0
-67 -109 267 0
-97 271 899 0
610 -648 480 0
509 -61 596 0
-677 390 -257 0
-318 456 -146 0
891 -862 -709 0
400 376 292 0
564 120 587 0
22 -540 -346 0
530 -888 325 0
76 567 164 0
613 -619 514 0
926 -590 -447 0
893 -226 -467 0
123 -878 396 0
-192 342 -170 0
11 320 448 0
957 395 -330 0
800 -687 556 0
997 186 -171 0
129 215 -44 0
179 -560 -885 0
927 754 968 0
-649 -117 383 0
15 143 -775 0
61 -489 827 0
-418 -433 95 0
-808 -991 295 0
-132 193 584 0
-453 -279 400 0
-779 -198 342 0
430 -641 147 0
824 385 787 0
-987 545 -499 0
-929 527 541 0
-930 -388 -334 0
470 -791 -903 0
-963 717 217 0
918 -385 307 0
-142 -581 572 0
509 884 997 0
-723 -596 280 0
774 -269 390 0
191 -77 -461 0
-638 -938 -604 0
115 -64 170 0
523 -506 207 0
861 310 -919 0
-107 331 708 0
555 895 -420 0
-201 -713 -920 0
-332 -380 304 0
-930 -277 -21 0
7 535 -905 0
-307 765 554 0
583 783 -250 0
776 -19 78 0
-961 -244 193 0
-352 328 -717 0
-681 545 -91 0
-692 -995 -580 0
449 849 214 0
348 -870 432 0
-967 -546 -330 0
-412 544 214 0
39 -475 -876 0
-781 43 -52 0
-723 -990 -777 0
-993 868 -830 0
-977 -805 -692 0
156 469 -170 0
-636 -451 928 0
711 -103 577 0
-577 524 155 0
-607 824 -954 0
810 704 134 0
193 -896 200 0
218 891 679 0
-239 632 -504 0
-603 -316 -673 0
532 -395 316 0
692 -668 -858 0
707 938 685 0
-430 333 -60 0
-402 -946 829 0
745 120 -620 0
-706 -338 154 0
-575 -304 81 0
-254 824 72 0
713 975 -237 0
819 247 -98 0
710 495 286 0
-454 -62 -497 0
-876 -594 -288 0
580 -721 -544 0
557 -51 -930 0
-707 669 -285 0
615 -606 732 0
347 764 59 0
976 332 720 0
-150 -392 -333 0
-318 -915 -294 0
-229 -175 -769 0
893 -847 -469 0
666 969 583 0
479 -147 96 0
-677 530 808 0
-111 -587 71 0
-898 737 -287 0
802 824 337 0
-642 -45 -180 0
164 -657 -23 0
351 394 -494 0
-660 -291 407 0
751 -677 -145 0
84 -259 981 0
598 -231 138 0
136 -851 -914 0
-531 -471 -779 0
-294 963 -819 0
-432 423 -605 0
-598 190 -974 0
-85 353 -596 0
-631 578 -354 0
-496 311 -693 0
-364 -18 734 0
384 136 -780 0
980 -558 777 0
601 766 775 0
-304 628 75 0
-165 148 454 0
826 146 -396 0
179 -267 -671 0
748 996 -678 0
-498 409 -419 0
95 991 -432 0
-565 891 -71 0
-906 -171 -368 0
87 599 -891 0
390 -190 223 0
-584 461 414 0
989 -256 914 0
803 -313 -595 0
686 -142 521 0
590 -219 -324 0
-319 360 -394 0
-738 -457 -93 0
643 -399 -622 0
519 -754 -743 0
-333 31 -487 0
-327 -452 -286 0
-725 980 217 0
888 954 524 0
-778 -454 919 0
390 487 942 0
390 -720 -225 0
972 331 -185 0
-926 -842 -689 0
128 661 -155 0
-265 84 293 0
-813 -456 -697 0
-744 530 -170 0
-484 -27 -591 0
800 -469 -202 0
-487 -440 -756 0
-860 555 935 0
469 913 -710 0
975 677 726 0
-302 581 -123 0
-626 -966 -508 0
594 196 280 0
92 -121 -259 0
-590 894 753 0
365 92 812 0
-527 -234 152 0
-91 688 -305 0
-426 -287 346 0
-614 -390 180 0
-60 577 814 0
-496 -834 -428 0
146 -416 335 0
386 379 28 0
-470 525 596 0
-25 522 200 0
654 61 115 0
-470 -302 628 0
615 -734 -707 0
-497 -752 -740 0
192 501 -909 0
-962 537 -82 0
494 789 368 0
634 700 682 0
512 -961 39 0
581 914 -572 0
-553 -275 507 0
-921 893 -129 0
-465 -798 489 0
482 914 -896 0
-863 398 -526 0
654 293 326 0
-572 -967 764 0
-794 928 672 0
875 814 135 0
308 -952 495 0
523 -866 -879 0
759 -121 553 0
98 -645 -608 0
722 205 121 0
323 -832 -140 0
903 515 374 0
-83 51 74 0
624 328 -948 0
-558 526 882 0
-729 32 450 0
-937 803 -197 0
-62 332 -974 0
126 285 -562 0
16 682 -820 0
325 429 -119 0
-891 -799 425 0
455 49 523 0
-419 714 466 0
740 -214 -891 0
212 901 489 0
-257 -14 642 0
-125 -896 -351 0
681 38 -948 0
-108 709 -672 0
-640 -267 832 0
-457 -309 429 0
523 333 -759 0
-205 849 651 0
606 950 943 0
-438 577 425 0
-867 -962 -142 0
-547 -850 -787 0
385 -36 -627 0
590 -533 636 0
981 -620 -37 0
830 836 689 0
-409 -273 645 0
768 -797 -262 0
-88 -235 -572 0
-729 -706 -213 0
-221 -355 -807 0
305 -560 -184 0
227 338 -152 0
-448 -442 -846 0
204 214 -158 0
-447 809 412 0
668 -381 -769 0
207 304 721 0
336 -894 910 0
-31 -592 -87 0
-149 -442 91 0
524 371 377 0
240 -735 -342 0
-716 21 -329 0
960 587 465 0
-782 955 655 0
512 576 389 0
236 -365 821 0
-674 488 -758 0
-722 -312 252 0
-561 945 826 0
294 -133 -916 0
-846 -680 -816 0
886 253 -937 0
178 558 499 0
-244 170 25 0
748 247 227 0
-304 -548 -27 0
862 291 956 0
660 550 -542 0
-327 -192 -766 0
-211 -207 588 0
-603 138 -319 0
-385 -141 739 0
206 -622 579 0
-759 -800 -574 0
-876 838 -267 0
-848 577 676 0
749 -619 962 0
187 368 72 0
581 -827 885 0
-382 667 -590 0
-209 -817 -150 0
-603 160 1000 0
550 -738 -359 0
-292 -854 -782 0
695 -506 -266 0
-7 105 569 0
263 -500 217 0
-70 58 374 0
-663 -672 -915 0
883 620 -816 0
-660 162 -558 0
283 973 -82 0
225 853 326 0
114 -14 -52 0
-621 -244 653 0
-826 482 663 0
35 -538 975 0
867 -49 889 0
-36 -942 -659 0
-645 -484 613 0
76 -818 883 0
537 574 -504 0
-654 -64 -265 0
661 59 -843 0
-466 -502 325 0
202 587 -3 0
604 691 -314 0
136 242 -94 0
-869 136 980 0
759 -482 38 0
226 -622 -147 0
900 733 -271 0
-605 -308 -609 0
41 42 669 0
-906 -225 409 0
-778 916 261 0
838 -958 979 0
609 957 552 0
939 -862 452 0
-835 468 187 0
719 -163 -155 0
-998 404 438 0
-240 26 -846 0
63 406 -769 0
-150 -212 598 0
82 -764 -557 0
-915 959 276 0
-688 162 990 0
849 447 -649 0
256 -75 -745 0
796 144 -469 0
-30 -923 -286 0
112 531 -700 0
62 -61 -162 0
-282 581 997 0
-358 -186 -398 0
650 330 -673 0
-750 772 889 0
466 743 463 0
-495 -806 846 0
117 -859 518 0
285 15 -650 0
950 -936 949 0
552 727 -872 0
605 473 25 0
-838 -932 -606 0
-326 658 -802 0
-726 627 636 0
-259 -484 134 0
261 -762 142 0
-169 150 -232 0
-492 164 -572 0
-507 -951 -31 0
-192 345 688 0
-127 -606 837 0
237 -595 370 0
659 -877 583 0
-528 -1 8 0
-309 -375 977 0
-715 604 -86 0
982 769 -878 0
115 -960 600 0
-956 762 178 0
22 642 -195 0
84 34 751 0
-304 165 -354 0
253 432 830 0
-926 -204 438 0
-541 -186 866 0
909 436 918 0
-384 198 979 0
894 -923 974 0
-229 947 138 0
246 30 -988 0
946 918 53 0
753 -464 -353 0
39 -553 -986 0
749 450 -999 0
-927 -61 68 0
-37 -283 -934 0
-572 -71 139 0
-679 -193 451 0
354 70 -533 0
-600 -26 720 0
-372 814 279 0
-201 356 676 0
617 14 833 0
-113 -457 18 0
255 -739 -836 0
162 -351 -29 0
308 -335 -430 0
714 -311 -163 0
272 31 81 0
-143 -364 321 0
579 -887 -581 0
-724 -1000 110 0
116 298 -354 0
1000 938 -961 0
777 -509 -461 0
171 -667 -460 0
-736 -924 -195 0
-335 -843 -297 0
-320 390 -636 0
358 588 620 0
-688 -231 997 0
796 270 -746 0
762 382 -184 0
-314 447 605 0
45 8 -223 0
-714 410 -897 0
306 420 709 0
375 28 20 0
-503 -336 -22 0
825 498 315 0
-500 942 -547 0
337 355 423 0
-1000 -414 442 0
-953 415 -248 0
884 653 774 0
664 -131 -629 0
-854 -863 -109 0
901 695 784 0
-363 466 -490 0
-42 -294 -988 0
818 525 631 0
-361 -838 215 0
-742 -146 582 0
9 370 257 0
478 -715 243 0
-411 299 322 0
-470 -327 -716 0
-655 109 -468 0
-225 -456 779 0
-57 -768 143 0
-513 -538 -852 0
-299 -728 703 0
-76 -628 -506 0
-260 -51 850 0
959 -891 -137 0
789 -612 -937 0
356 24 -837 0
-93 799 75 0
-544 739 -561 0
-542 -716 719 0
-979 621 -631 0
-136 -722 -93 0
-774 -695 -273 0
599 847 271 0
755 -99 -980 0
621 31 -561 0
-295 -910 -319 0
814 -456 583 0
441 977 236 0
780 205 393 0
-771 -679 995 0
163 -969 270 0
-966 -541 623 0
937 -323 -18 0
695 116 465 0
798 -367 961 0
-523 -769 500 0
-220 -449 -831 0
439 826 493 0
-781 -261 -891 0
610 -162 -878 0
151 -756 31 0
-883 611 -960 0
454 -721 -653 0
641 849 -366 0
-587 616 -223 0
512 135 -414 0
-569 -700 424 0
-89 -164 -64 0
-647 -806 789 0
274 156 238 0
209 971 -414 0
299 859 155 0
108 -125 496 0
125 -689 410 0
-150 -787 344 0
-543 333 -450 0
-965 490 -144 0
-311 33 857 0
-248 379 496 0
749 185 -832 0
-875 -625 907 0
-38 -945 -828 0
-420 303 -356 0
-546 -818 -122 0
130 622 390 0
690 517 -782 0
-133 714 448 0
-390 -191 -194 0
-377 -609 352 0
-763 406 -60 0
-716 -797 -155 0
-334 466 644 0
191 -79 -874 0
688 927 -439 0
31 -545 -489 0
-979 -715 910 0
844 890 860 0
170 -939 -583 0
37 -196 216 0
-619 -271 -18 0
-858 834 -5 0
-863 369 675 0
982 -76 -698 0
864 -212 78 0
29 -309 -596 0
208 -571 -930 0
-460 3 -688 0
-479 678 -919 0
188 712 -396 0
-896 781 105 0
102 -937 163 0
247 168 558 0
171 142 -767 0
622 -714 970 0
-430 -389 -847 0
494 130 897 0
346 -963 -581 0
-580 -953 -746 0
776 -304 857 0
100 331 603 0
-243 -155 -539 0
-230 -405 -574 0
811 -705 -296 0
-363 -902 202 0
611 -36 578 0
568 395 -963 0
705 -706 711 0
-708 61 400 0
-239 -989 175 0
207 -569 -181 0
-243 -174 318 0
-741 -275 -714 0
377 -88 -960 0
-482 -664 794 0
-557 2 -71 0
672 -900 -957 0
239 180 825 0
-365 -514 729 0
761 -49 -118 0
-195 952 -409 0
766 550 -745 0
-833 -831 930 0
-229 -653 898 0
47 -48 9 0
-386 398 -197 0
706 163 -540 0
-75 420 335 0
37 300 -669 0
880 62 -13 0
559 -425 -873 0
-425 -105 -422 0
-702 548 623 0
-540 -398 -157 0
226 581 -346 0
-369 603 650 0
-214 593 -71 0
323 445 -261 0
854 283 753 0
837 312 620 0
-887 -241 511 0
909 188 445 0
274 377 976 0
-229 -544 634 0
-793 -437 -794 0
-281 867 269 0
971 478 554 0
-502 178 -742 0
408 -481 265 0
-813 235 -823 0
-528 -889 832 0
726 -581 249 0
-990 927 -152 0
525 -694 -304 0
419 902 92 0
892 626 67 0
136 976 -726 0
407 -781 534 0
-647 -330 52 0
-6 443 -582 0
625 395 -535 0
-883 -623 321 0
556 -584 181 0
779 -782 -770 0
-659 609 -909 0
-889 -202 495 0
925 -258 -961 0
-344 265 224 0
-360 924 880 0
511 -719 -83 0
-860 -710 725 0
-281 178 -74 0
-365 -775 500 0
892 -937 771 0
-293 570 -986 0
30 730 718 0
-763 646 139 0
-418 -10 -610 0
-357 987 725 0
931 -702 -488 0
282 -532 -806 0
224 428 -545 0
385 -834 240 0
-356 -481 838 0
-942 -400 688 0
369 -518 -738 0
-410 -580 753 0
-653 -228 973 0
80 -901 165 0
294 650 -1 0
-213 392 -626 0
99 310 -340 0
625 109 539 0
147 346 -56 0
-424 -885 31 0
-593 -637 -468 0
404 -367 -90 0
353 562 -67 0
-486 -983 514 0
974 20 467 0
-187 410 751 0
-295 -29 -973 0
-297 62 -461 0
-471 -167 -196 0
58 -105 616 0
452 -666 -378 0
272 208 905 0
-645 377 590 0
-535 -720 -916 0
324 -604 135 0
652 697 148 0
800 -856 -129 0
599 968 -592 0
-969 538 591 0
777 557 983 0
-432 676 572 0
378 -910 680 0
317 -8 -465 0
528 878 983 0
61 -593 168 0
331 355 735 0
568 510 694 0
735 796 -368 0
-611 722 105 0
-668 -907 -706 0
378 -606 733 0
445 399 983 0
-650 -639 981 0
-494 330 -362 0
26 899 36 0
545 25 -147 0
-660 805 645 0
-965 235 -929 0
769 561 285 0
-767 416 343 0
-520 -126 -139 0
723 177 917 0
741 60 -843 0
25 -666 -47 0
-529 75 527 0
181 -477 -970 0
534 598 -6 0
411 476 -978 0
-537 276 762 0
252 -141 -402 0
-468 571 940 0
637 -913 230 0
-73 958 -258 0
304 -33 -867 0
935 -876 591 0
-370 475 -694 0
-974 -20 -896 0
-843 588 498 0
-179 527 695 0
777 -632 47 0
-746 -115 -832 0
54 375 -387 0
-35 -486 -272 0
-342 328 -476 0
-219 -698 33 0
645 517 -76 0
-703 -251 72 0
339 949 -697 0
880 77 847 0
-214 313 -236 0
551 738 883 0
-400 637 -330 0
-80 354 -484 0
583 -882 -689 0
360 284 -464 0
-966 962 -26 0
-895 -370 563 0
-687 -641 820 0
14 -187 -936 0
59 -848 407 0
722 -609 -40 0
-561 -230 454 0
-371 815 158 0
-50 461 292 0
-37 -403 955 0
619 -508 -176 0
-201 -192 -142 0
518 354 551 0
800 -401 404 0
320 -713 759 0
182 -703 -175 0
494 435 110 0
151 -379 264 0
-43 -264 -746 0
166 -358 -648 0
-914 549 -256 0
438 197 -716 0
102 -911 -708 0
975 145 -996 0
27 77 -361 0
-533 668 306 0
-319 -14 -421 0
84 -717 684 0
60 383 -594 0
-54 809 785 0
683 -407 741 0
201 -901 402 0
-628 -934 875 0
989 288 297 0
-704 681 371 0
673 208 -967 0
-572 787 969 0
-514 531 414 0
-723 10 169 0
675 516 670 0
-505 341 840 0
-935 -512 844 0
-194 54 609 0
-223 684 475 0
-980 469 217 0
215 735 146 0
-362 181 -539 0
23 51 656 0
-422 -338 614 0
-340 -910 -585 0
-986 -862 618 0
-937 579 -183 0
-927 -583 747 0
-400 -604 999 0
-933 -530 -441 0
746 812 -816 0
-557 -984 -675 0
-377 443 214 0
-226 -78 -827 0
992 692 -976 0
737 -907 850 0
-700 77 140 0
566 234 -933 0
-149 675 219 0
-943 -222 158 0
-24 910 -668 0
877 -760 974 0
332 715 -348 0
-808 60 105 0
829 -282 -240 0
742 -523 -91 0
701 -28 -467 0
-761 583 -999 0
-584 -679 -225 0
733 -987 508 0
394 -998 -779 0
960 612 -883 0
-512 -236 474 0
-114 632 705 0
-729 434 824 0
-288 -642 -525 0
-352 931 -368 0
114 -327 676 0
723 -895 -993 0
-712 -125 431 0
-822 393 -391 0
-817 484 981 0
-699 -79 -437 0
-372 311 -737 0
-607 -967 -890 0
72 -175 -152 0
-107 -980 -937 0
-368 49 -846 0
-856 -627 290 0
-728 918 196 0
962 -136 268 0
-183 -498 444 0
715 539 -482 0
660 778 171 0
-766 -721 -730 0
186 157 -690 0
-960 -619 618 0
589 770 281 0
-344 343 464 0
586 447 -442 0
886 -629 593 0
79 -616 911 0
-195 614 -316 0
-979 -907 -435 0
103 12 -751 0
838 -136 -379 0
-612 873 -577 0
714 -672 -179 0
-43 -980 -175 0
-121 818 -343 0
-727 -562 -982 0
-691 83 568 0
-231 716 -865 0
701 243 -516 0
-714 -288 -761 0
-240 -80 -772 0
35 70 984 0
-760 12 940 0
234 -64 759 0
-280 621 -193 0
-209 -635 -611 0
709 284 -587 0
-610 714 -756 0
-998 663 52 0
478 -217 646 0
-758 351 -206 0
828 -7 -908 0
439 878 -207 0
-639 296 660 0
800 -52 -921 0
3 905 294 0
-363 373 591 0
-576 -564 799 0
882 573 -78 0
-444 208 -681 0
-804 385 832 0
5 508 -624 0
462 -924 -428 0
915 420 550 0
-576 -590 946 0
-396 774 -249 0
-810 341 -75 0
-937 402 162 0
607 -189 359 0
-426 17 -680 0
491 -313 -255 0
353 -528 851 0
962 -340 217 0
-140 226 -694 0
-524 -123 737 0
51 -482 -776 0
-490 923 644 0
-855 -84 -744 0
-489 137 -63 0
-690 -656 682 0
-705 168 -683 0
-858 359 -73 0
388 -331 -586 0
-470 61 907 0
581 -284 962 0
198 877 -269 0
-169 433 -499 0
-812 509 -250 0
-867 460 223 0
-848 -777 -217 0
-988 -200 -576 0
-16 403 17 0
-173 -878 93 0
540 -892 231 0
216 -662 -427 0
176 -359 100 0
-937 192 667 0
-848 -798 263 0
-804 946 -604 0
886 237 -286 0
-621 864 960 0
-766 400 351 0
466 -603 -230 0
136 831 -291 0
-310 -59 -325 0
821 774 -29 0
-219 700 74 0
604 -839 -691 0
708 98 -408 0
212 967 657 0
-729 636 10 0
-411 -726 -612 0
-67 389 -288 0
-650 228 -899 0
460 -229 285 0
275 331 166 0
659 311 -417 0
312 -479 -450 0
75 617 -164 0
3 775 177 0
267 -252 -896 0
-277 460 293 0
-530 -153 -725 0
-495 962 -56 0
565 -491 -613 0
-392 -130 65 0
380 -824 820 0
-434 396 908 0
-410 413 801 0
-93 -763 608 0
796 963 -922 0
-642 816 310 0
-976 834 792 0
5 796 992 0
544 746 -582 0
603 163 173 0
-48 -130 -369 0
973 302 -460 0
-706 -963 488 0
-299 -783 -585 0
-504 283 807 0
-820 315 636 0
-182 -825 -634 0
469 525 -758 0
650 161 618 0
169 -290 800 0
814 747 -434 0
779 -685 -596 0
-634 -94 878 0
766 911 819 0
-657 520 493 0
-607 -939 265 0
188 612 875 0
862 -738 767 0
-456 949 -825 0
-662 -748 -33 0
433 -24 2 0
-23 467 -694 0
803 787 204 0
-666 -291 312 0
865 -822 889 0
714 503 -836 0
318 -731 -17 0
-275 -211 -532 0
-137 -998 -717 0
-12 101 -310 0
-866 820 -363 0
-743 642 -526 0
-799 37 -841 0
-299 276 471 0
748 505 -947 0
-565 -508 709 0
-685 -93 411 0
909 139 -577 0
430 -593 415 0
-964 704 -647 0
282 693 808 0
-877 -448 -736 0
48 -42 267 0
-133 -623 674 0
501 27 -585 0
398 -79 -723 0
362 -592 -693 0
