p cnf 100 390
53 31 -9 0
-79 18 96 0
-10 93 4 0
-10 -31 83 0
37 98 -1 0
-63 -43 67 0
20 18 -59 0
-24 -33 -81 0
-97 -79 49 0
-12 -99 -2 0
8 -24 76 0
-67 82 98 0
33 25 -36 0
-4 9 52 0
51 -21 66 0
25 9 -50 0
44 -14 74 0
6 -66 8 0
-82 -17 73 0
-42 39 5 0
93 56 -14 0
17 53 -88 0
-82 91 -43 0
-14 -20 -94 0
25 -71 -95 0
97 26 -25 0
-97 91 -56 0
-37 -38 -42 0
56 16 91 0
8 18 64 0
40 -45 28 0
61 -71 -14 0
-54 -52 -91 0
67 91 -79 0
47 4 20 0
22 -65 71 0
-49 79 70 0
24 81 -94 0
-58 23 61 0
3 68 27 0
19 35 29 0
90 8 18 0
45 -23 -58 0
-37 -59 -50 0
83 80 -53 0
-76 -88 -73 0
-37 6 -1 0
20 39 -73 0
-75 -47 -38 0
-92 -7 10 0
73 70 4 0
60 80 -17 0
-60 -19 -13 0
-8 -52 41 0
-75 -95 -97 0
38 32 -73 0
-87 -82 51 0
18 -54 -91 0
-74 51 -58 0
33 15 14 0
-11 -62 31 0
86 92 -55 0
-47 65 44 0
-86 25 74 0
-76 -10 36 0
8 -19 -25 0
-63 36 38 0
61 -25 86 0
25 -92 27 0
58 79 -7 0
64 -11 75 0
19 -96 -94 0
-9 8 84 0
-7 88 92 0
34 86 -50 0
-12 -85 -50 0
53 20 -13 0
40 29 -32 0
-23 -10 -43 0
39 76 47 0
-8 -72 6 0
8 79 19 0
91 90 47 0
-95 -24 -27 0
48 12 -45 0
-83 -44 14 0
99 -65 -26 0
-5 -7 -98 0
-70 -64 16 0
20 77 59 0
-6 31 56 0
-77 32 -66 0
9 -21 6 0
18 65 -23 0
-86 79 -50 0
98 64 -55 0
-11 39 -31 0
80 -66 62 0
-27 92 75 0
-92 52 4 0
33 29 -92 0
-42 -67 -13 0
64 -41 -80 0
97 -57 -23 0
71 -6 -77 0
7 95 63 0
25 36 65 0
-9 -80 -72 0
90 -42 80 0
17 -98 82 0
-32 16 -56 0
88 33 -3 0
-77 -92 -13 0
35 -39 -82 0
-34 -74 84 0
-73 86 -77 0
61 -1 40 0
43 -39 -69 0
-30 87 57 0
60 -83 -98 0
-78 44 61 0
-19 83 17 0
-33 -18 35 0
-72 98 55 0
-85 -35 74 0
-52 56 18 0
38 -88 -29 0
28 -50 84 0
14 54 -65 0
-8 41 -37 0
-95 -5 43 0
50 17 40 0
-75 -95 96 0
25 -52 62 0
-17 45 -11 0
68 -48 69 0
56 30 -4 0
47 20 -99 0
59 -29 31 0
-74 68 -9 0
42 23 -13 0
-24 -30 54 0
-65 32 -9 0
-36 22 47 0
-30 9 -44 0
20 -96 32 0
-96 -15 27 0
-29 -37 -54 0
-98 -16 87 0
-75 -83 81 0
78 93 -4 0
17 -8 96 0
-82 72 -9 0
-92 66 26 0
30 -7 57 0
45 -9 33 0
-61 -43 -33 0
-49 2 61 0
79 -42 99 0
-36 74 63 0
-36 57 82 0
12 6 78 0
97 -9 -57 0
-55 87 58 0
-50 -47 -5 0
69 -84 55 0
17 20 61 0
-3 34 17 0
47 86 65 0
25 76 30 0
-54 -2 -91 0
72 87 -99 0
-83 -97 -56 0
-69 -66 84 0
37 -72 95 0
86 99 60 0
5 77 12 0
42 -97 93 0
99 5 -60 0
-57 62 -1 0
59 -76 26 0
-1 -43 -16 0
-85 89 -27 0
36 -35 -62 0
39 -73 14 0
-14 70 88 0
82 -27 -9 0
-37 44 75 0
98 -47 -53 0
-65 -16 77 0
9 -53 47 0
-49 67 -83 0
-13 32 -1 0
-20 -48 -93 0
-89 59 51 0
-66 -2 -87 0
-86 -32 9 0
-65 49 -46 0
10 -86 67 0
48 -20 -44 0
86 -67 15 0
-91 50 49 0
63 54 58 0
69 -65 -7 0
23 40 46 0
-81 69 -45 0
-51 9 28 0
35 52 16 0
-17 -7 -45 0
92 -13 -81 0
-87 -24 22 0
-32 64 -94 0
26 -63 22 0
-44 64 69 0
-11 94 95 0
98 4 -39 0
-80 -67 33 0
54 51 66 0
-68 46 63 0
100 74 -63 0
-52 46 33 0
-38 100 97 0
36 21 2 0
-9 -62 -79 0
-50 -75 5 0
-54 -57 64 0
76 48 40 0
11 -79 -34 0
-37 -31 -23 0
32 -55 -95 0
-44 -30 1 0
69 -14 -80 0
17 54 -98 0
21 58 -17 0
59 19 40 0
-63 26 -98 0
-33 -26 -34 0
-55 31 73 0
-20 -60 -48 0
-73 51 -39 0
-53 -30 89 0
68 10 -1 0
-3 -71 50 0
-17 -7 99 0
-40 -91 41 0
-81 95 -69 0
-94 95 40 0
7 44 69 0
43 5 49 0
-77 89 78 0
-51 -38 -70 0
40 26 43 0
89 -90 11 0
62 89 75 0
46 3 55 0
-51 90 -89 0
94 -37 -61 0
-94 24 -3 0
-26 51 6 0
21 -28 24 0
7 -38 79 0
39 64 -53 0
2 54 44 0
-51 -46 74 0
19 54 39 0
-10 -70 -64 0
-40 -88 39 0
-12 81 82 0
10 -23 50 0
-3 -42 -53 0
91 -76 -50 0
-89 -55 -80 0
-11 -97 21 0
-62 55 -97 0
18 -67 -78 0
95 65 93 0
-4 -1 5 0
91 31 48 0
10 -6 -83 0
50 26 99 0
33 -86 -43 0
89 -42 -84 0
-85 -53 56 0
29 42 -93 0
54 -47 23 0
-16 75 68 0
-72 -75 -53 0
-66 -5 -53 0
-64 78 -87 0
65 61 23 0
9 -99 23 0
8 82 72 0
29 34 42 0
-39 83 -31 0
-62 -53 -32 0
-56 -92 24 0
-52 71 -65 0
-17 -96 47 0
-27 78 -7 0
-70 -1 -44 0
-64 41 -99 0
-96 74 42 0
92 62 35 0
75 -42 -67 0
-45 -73 36 0
97 58 -19 0
-49 37 73 0
-57 71 -58 0
-88 -3 1 0
-28 10 -56 0
98 57 44 0
-86 -53 -95 0
30 -89 -82 0
-90 85 -51 0
43 -99 -11 0
-92 70 -6 0
56 68 4 0
93 36 -80 0
81 -1 -9 0
-74 -30 62 0
77 -16 -57 0
-99 -97 38 0
-42 59 -32 0
-2 57 -14 0
41 49 52 0
-71 13 -35 0
34 -23 17 0
-72 -79 46 0
32 33 -64 0
67 -39 94 0
-61 14 80 0
63 29 23 0
33 -50 -66 0
75 43 44 0
-63 -8 81 0
-46 -55 22 0
15 -87 -53 0
94 37 62 0
40 56 -31 0
-89 -45 41 0
53 82 71 0
-73 21 -55 0
-71 58 9 0
-68 -17 6 0
42 -16 5 0
-81 -39 -16 0
-59 36 -41 0
-49 -11 -56 0
17 31 -86 0
-9 -33 -51 0
-38 -74 -84 0
39 15 -40 0
48 35 12 0
-91 80 -8 0
57 24 -33 0
-97 89 -86 0
6 -77 -84 0
45 80 62 0
35 -8 55 0
-95 -12 -36 0
59 -48 3 0
-83 73 -66 0
-86 51 -94 0
-53 88 -7 0
13 -60 -41 0
11 1 -97 0
-32 -58 -30 0
63 -95 13 0
13 -41 -63 0
-44 6 -5 0
23 -21 -63 0
78 90 94 0
6 74 65 0
-74 -32 -24 0
69 84 -5 0
34 -8 -65 0
-19 78 -90 0
-70 94 73 0
-31 60 70 0
12 -51 -81 0
57 67 -48 0
-87 42 -39 0
-41 -15 98 0
13 53 -30 0
-77 86 -68 0
62 40 22 0
79 -26 44 0
-40 35 4 0
-24 -14 73 0
75 -78 3 0
