p cnf 100 390
72 84 -34 0
34 -76 -22 0
35 -50 19 0
-63 82 13 0
94 -18 95 0
-24 -86 -44 0
-42 -78 -51 0
-83 -100 41 0
66 -97 -90 0
46 -1 -25 0
-95 -35 -81 0
78 -93 98 0
-62 45 37 0
-43 51 -6 0
-90 -16 92 0
2 9 25 0
25 64 39 0
-58 100 68 0
-83 88 98 0
34 73 -94 0
-69 -84 -85 0
-51 56 -22 0
84 -90 -97 0
-63 -3 -8 0
10 97 -12 0
3 88 59 0
-37 67 -65 0
-15 52 -17 0
86 -30 38 0
-42 -38 44 0
-76 -7 49 0
-12 41 15 0
-62 52 -95 0
-21 48 91 0
-17 33 57 0
-64 -84 -11 0
-71 -2 10 0
-14 4 76 0
-86 3 48 0
-77 75 -3 0
-26 -11 24 0
-94 5 82 0
7 45 88 0
73 -63 24 0
-64 43 24 0
72 -4 93 0
66 -5 21 0
68 -42 67 0
74 82 60 0
79 27 36 0
38 -78 -89 0
-56 -16 5 0
-82 -33 15 0
-81 19 -3 0
6 -39 -77 0
-73 13 -26 0
-83 -97 -30 0
-50 -100 45 0
29 -34 33 0
82 -4 -83 0
-50 -67 -52 0
28 -42 -38 0
-1 96 -45 0
6 51 -77 0
20 22 90 0
-99 -3 -78 0
66 -1 -51 0
36 19 82 0
-13 74 -70 0
87 54 -30 0
-46 40 -64 0
1 93 -18 0
-93 29 -74 0
94 -89 -6 0
45 37 -70 0
54 -94 66 0
90 14 -42 0
51 -40 -92 0
85 84 -10 0
-90 75 -30 0
-54 24 38 0
5 43 -37 0
43 -7 -73 0
-10 -5 87 0
-28 62 -98 0
58 -8 48 0
17 -14 -28 0
17 37 67 0
13 -19 31 0
29 21 84 0
-6 52 85 0
-58 -17 -23 0
-11 31 10 0
84 -94 55 0
26 96 87 0
92 -52 -83 0
95 76 20 0
-20 -61 48 0
-62 97 10 0
-14 79 58 0
57 -62 -91 0
-34 58 20 0
3 77 66 0
32 -4 -46 0
13 67 65 0
-47 -23 22 0
100 77 37 0
-70 -30 77 0
58 71 -76 0
-51 4 41 0
-51 -14 6 0
-63 24 -43 0
40 72 -65 0
27 94 -81 0
83 65 28 0
50 -32 63 0
92 -70 86 0
79 -50 43 0
40 -98 -38 0
-11 29 -34 0
-80 52 83 0
81 17 -20 0
-78 -45 -32 0
51 -90 12 0
-3 -50 -58 0
-13 -70 18 0
92 99 81 0
15 -81 -75 0
50 70 33 0
-79 -36 -47 0
-12 -48 78 0
100 -16 -41 0
94 12 -39 0
15 26 25 0
57 -22 -83 0
-33 52 -1 0
77 14 22 0
-94 -32 -41 0
97 22 -18 0
-19 50 83 0
-82 57 20 0
-12 -71 -82 0
80 -8 73 0
-49 -47 77 0
29 31 -54 0
60 53 88 0
39 97 63 0
-53 95 -41 0
-83 -26 -51 0
9 -96 -89 0
20 30 98 0
-95 40 -3 0
-87 41 -49 0
98 93 -89 0
40 -83 -28 0
50 -17 42 0
-84 58 50 0
30 -20 -48 0
28 -75 61 0
-98 -74 -62 0
-69 -86 5 0
-61 85 -53 0
88 -58 31 0
-95 80 25 0
94 1 -60 0
88 -59 91 0
-54 -12 83 0
-28 97 -33 0
38 -62 37 0
-85 47 -78 0
56 16 -93 0
-54 -30 -12 0
-60 1 -57 0
85 -18 -59 0
18 8 69 0
-22 -69 57 0
1 -16 40 0
-21 -47 -18 0
21 71 58 0
42 -46 -97 0
-19 98 21 0
37 -78 41 0
68 -8 19 0
-31 81 -50 0
78 -30 91 0
16 -31 -48 0
71 12 -77 0
-44 -100 55 0
-41 21 -51 0
-63 22 -62 0
60 -75 -50 0
-77 31 46 0
-60 16 -36 0
-77 -32 -22 0
-58 84 38 0
86 -61 1 0
-56 -82 34 0
-2 -35 41 0
-6 94 -55 0
65 -2 -91 0
-62 99 -91 0
-36 -22 19 0
39 82 -10 0
-84 -83 -53 0
65 -38 60 0
10 35 28 0
-23 81 -41 0
-46 94 -43 0
68 55 -79 0
62 75 -19 0
-54 64 -45 0
-98 1 -89 0
21 -81 2 0
-6 17 -74 0
65 -89 -70 0
53 -59 -4 0
-66 -96 -33 0
56 27 -95 0
25 -82 86 0
92 -62 66 0
-27 -3 -23 0
-100 69 -43 0
-81 -77 27 0
20 76 32 0
46 -43 -17 0
39 -63 30 0
68 70 84 0
-44 40 -79 0
19 -22 -94 0
57 -73 -96 0
12 51 -63 0
-62 -63 98 0
74 -16 -28 0
95 80 -8 0
31 25 41 0
51 2 3 0
-39 74 73 0
-1 14 -73 0
9 -97 -96 0
22 25 -71 0
24 58 87 0
59 -96 95 0
-79 72 -98 0
85 13 -42 0
-11 -28 4 0
35 -50 -59 0
-87 46 -34 0
31 -83 -80 0
-87 -2 60 0
-6 23 -94 0
-25 49 96 0
36 -75 90 0
-25 -16 -100 0
39 -88 -27 0
-56 97 -49 0
84 30 70 0
-26 -58 10 0
72 -35 -58 0
-89 86 57 0
61 36 -19 0
-96 -46 45 0
-14 33 16 0
-19 13 90 0
-30 41 84 0
-48 17 -68 0
-59 -88 -10 0
-11 40 52 0
55 44 81 0
-84 56 -75 0
-91 -49 -43 0
-57 -2 36 0
77 -42 44 0
-89 -57 12 0
64 14 1 0
59 96 95 0
-1 -76 21 0
42 -14 -64 0
28 85 -55 0
56 39 71 0
-62 -31 3 0
-38 -60 -43 0
44 55 66 0
-46 -11 23 0
-78 24 -38 0
-22 76 -88 0
3 -33 -11 0
42 -21 -100 0
3 -72 -64 0
27 1 35 0
-54 79 50 0
43 18 -39 0
79 56 10 0
-71 7 -12 0
-33 5 -10 0
27 -96 26 0
-8 -62 -15 0
-43 -8 91 0
39 81 32 0
100 66 -42 0
-48 -40 88 0
77 -1 -62 0
-59 -55 68 0
-34 -57 -93 0
82 2 -69 0
46 93 36 0
-92 -68 75 0
-100 56 93 0
87 -31 57 0
18 -20 81 0
-51 -63 67 0
-51 7 -17 0
-53 -37 91 0
-54 68 51 0
-46 -56 40 0
-52 -10 -21 0
97 68 51 0
-54 -14 -30 0
-89 55 6 0
2 11 30 0
-63 -96 40 0
-22 29 -76 0
-39 -66 -43 0
-20 -12 -58 0
-46 -73 94 0
75 15 81 0
-53 -13 -16 0
-80 58 -94 0
-7 86 -29 0
70 -59 -66 0
40 39 11 0
7 -84 -61 0
-22 -21 77 0
16 72 19 0
73 -54 -24 0
31 67 38 0
-34 -73 58 0
-66 -57 -53 0
-96 -7 24 0
12 -21 -7 0
-80 -14 59 0
-6 35 10 0
-84 -89 95 0
87 -32 91 0
-25 92 -5 0
83 30 -8 0
7 -9 -28 0
-37 -86 83 0
26 39 -6 0
28 37 36 0
-72 2 67 0
-37 -54 94 0
29 -53 -9 0
69 -39 32 0
83 77 -44 0
94 -8 31 0
-59 -48 1 0
-12 -20 65 0
-1 5 100 0
-86 -80 -95 0
17 58 47 0
-88 -50 21 0
35 -42 4 0
-7 -29 -95 0
-48 99 -28 0
17 -2 -75 0
33 -86 -62 0
72 76 74 0
-21 -87 1 0
-44 -28 9 0
-77 -17 -94 0
29 -22 98 0
80 13 -54 0
73 -83 69 0
-56 -7 53 0
16 -33 -37 0
-49 24 15 0
66 -29 -11 0
-42 -93 -10 0
13 26 -22 0
53 36 7 0
-94 -38 -18 0
18 -12 -25 0
-80 89 82 0
-37 -36 93 0
57 30 -63 0
15 34 66 0
74 4 -46 0
-86 -56 77 0
61 76 -50 0
40 -17 -10 0
