p cnf 200 570
5 179 -154 0
-109 -138 -110 0
105 67 -193 0
35 177 75 0
-129 48 -71 0
200 35 87 0
42 -168 -51 0
125 3 173 0
56 -49 -79 0
65 -150 -124 0
-171 46 -139 0
127 -162 115 0
48 124 18 0
163 -194 -40 0
-21 -48 77 0
-158 40 -62 0
32 12 57 0
132 -120 135 0
-125 85 8 0
83 107 92 0
192 169 116 0
102 70 147 0
-1 30 138 0
45 -56 -114 0
81 45 103 0
123 153 -82 0
-123 -109 180 0
-42 -90 -7 0
-166 60 -92 0
-12 9 -149 0
-180 64 128 0
-76 -40 85 0
163 70 75 0
-65 152 199 0
-105 -101 -58 0
197 126 2 0
124 -151 156 0
131 -27 135 0
-163 -23 -53 0
28 -22 72 0
55 -136 -81 0
17 184 121 0
-121 16 -46 0
-156 52 -131 0
96 -186 -104 0
11 97 108 0
-173 171 -87 0
-56 13 172 0
-83 169 -80 0
-67 151 -77 0
-170 -178 2 0
23 59 -157 0
-185 -149 57 0
17 -49 -142 0
112 -7 -116 0
-113 49 142 0
191 -186 -6 0
-193 -93 180 0
197 100 60 0
97 -111 99 0
-194 3 13 0
-194 -66 146 0
-168 -171 154 0
184 1 -168 0
-7 -161 92 0
-147 79 184 0
-27 199 162 0
-74 -82 88 0
-18 127 16 0
-70 -27 -200 0
146 149 3 0
-50 -127 -113 0
-175 -48 68 0
38 -168 -129 0
103 178 -194 0
-150 66 177 0
150 -22 -159 0
174 152 57 0
195 -103 -123 0
-93 103 161 0
48 81 2 0
-90 172 -148 0
160 -9 195 0
-12 -3 -195 0
-75 -50 -4 0
135 69 2 0
-167 -68 93 0
142 -51 69 0
-11 172 151 0
62 51 -180 0
129 -54 -40 0
136 85 -105 0
-105 46 -76 0
-7 -87 -173 0
123 -62 -136 0
79 193 -65 0
-42 -158 111 0
11 -128 179 0
-91 166 -138 0
-200 157 -42 0
-186 -154 193 0
64 -169 -68 0
185 176 -91 0
-72 181 -37 0
-198 123 -158 0
142 21 13 0
-56 -124 120 0
41 -171 72 0
-110 85 106 0
157 -54 59 0
30 126 -194 0
158 -96 -95 0
198 48 -69 0
-189 -42 5 0
-26 -127 115 0
105 92 -102 0
-91 137 10 0
-83 -36 -37 0
-6 -199 -196 0
-172 -85 29 0
57 112 -190 0
42 48 82 0
-164 -170 56 0
-100 117 -136 0
87 -145 161 0
-195 7 -39 0
-132 -22 99 0
-26 -15 -113 0
178 -115 -81 0
-50 -78 67 0
56 -116 28 0
40 -79 -78 0
172 67 32 0
136 6 144 0
-39 -199 185 0
-169 -188 124 0
-197 -172 61 0
-123 -177 188 0
159 17 195 0
-17 87 -172 0
-68 52 -58 0
37 -74 176 0
136 157 165 0
139 -130 -180 0
131 -112 173 0
-22 128 -62 0
-17 -130 29 0
-103 155 10 0
83 -24 199 0
-163 -29 -146 0
176 92 -185 0
45 175 94 0
-81 -105 -14 0
-164 45 35 0
7 -196 -43 0
-95 32 -105 0
-33 133 -90 0
27 95 -52 0
-120 107 22 0
-21 124 -96 0
-192 173 152 0
-8 -11 22 0
194 -152 -98 0
-138 -120 -113 0
111 46 38 0
-134 -172 94 0
-143 -158 -21 0
-80 -194 71 0
-117 -164 -8 0
-184 -152 52 0
116 9 -6 0
-131 -40 137 0
57 36 162 0
172 -20 -103 0
-123 19 183 0
-172 -182 83 0
-6 -58 103 0
30 -186 56 0
-101 -109 125 0
-193 33 49 0
-161 158 -3 0
-152 -70 36 0
-191 28 -126 0
-132 -106 157 0
-118 -135 56 0
108 152 186 0
148 -194 -86 0
-49 -2 -67 0
159 68 170 0
-104 -190 168 0
-81 -38 51 0
-161 138 17 0
37 -198 176 0
-86 80 -125 0
-80 -10 145 0
-60 134 28 0
45 -151 44 0
82 24 -105 0
17 189 -177 0
-145 119 12 0
39 167 163 0
-185 -169 40 0
-112 182 -105 0
-62 111 -151 0
-19 31 177 0
145 -170 38 0
24 43 64 0
93 65 18 0
-137 -71 -65 0
-36 168 154 0
7 78 -158 0
-191 31 121 0
147 -43 143 0
-26 -90 -199 0
-47 86 -114 0
-44 -168 132 0
-68 -10 -168 0
-86 118 143 0
-89 106 -54 0
-148 -155 -84 0
59 83 58 0
-24 -104 -105 0
-77 168 135 0
-80 -55 154 0
-148 -52 -10 0
-60 -156 120 0
153 13 161 0
-147 126 70 0
162 -87 113 0
-51 138 -43 0
5 189 -60 0
101 -118 -119 0
189 184 141 0
-15 76 -50 0
-69 -13 -103 0
94 59 -44 0
114 -69 -62 0
133 70 -85 0
107 -58 124 0
111 -130 -55 0
2 -180 55 0
-154 98 -76 0
-16 181 76 0
7 -142 65 0
-199 -171 198 0
-101 -89 192 0
62 -100 105 0
146 -16 -36 0
-158 59 39 0
165 23 189 0
-111 -16 -192 0
9 -190 56 0
-36 -187 -11 0
-82 162 -55 0
37 60 39 0
-30 -196 -198 0
-189 -71 -108 0
151 95 -140 0
-69 54 51 0
-82 40 88 0
-3 68 -74 0
176 10 -42 0
94 195 5 0
-42 41 24 0
51 126 -90 0
-200 -40 -67 0
127 80 161 0
-159 -45 133 0
40 104 -109 0
196 -51 26 0
86 135 -140 0
57 152 -139 0
-157 -160 10 0
187 143 11 0
74 166 148 0
197 168 145 0
152 136 193 0
-77 -199 146 0
185 -3 -177 0
-2 61 45 0
-22 196 178 0
-85 108 163 0
-151 56 36 0
-194 159 -139 0
-186 -12 -91 0
-81 -42 -104 0
84 19 -91 0
-98 -109 74 0
79 25 -156 0
100 -29 -9 0
-148 191 -108 0
-51 32 170 0
135 183 192 0
44 -166 -1 0
67 -190 -75 0
-62 89 -164 0
115 -134 -121 0
-163 -3 -25 0
-64 163 11 0
-62 -199 152 0
186 79 122 0
163 -167 -73 0
-115 82 181 0
-91 -159 -47 0
-7 -177 -83 0
65 27 132 0
-108 -143 -102 0
-119 170 134 0
197 64 -76 0
-86 20 -34 0
-161 198 96 0
-3 -23 -168 0
-131 168 -179 0
169 60 -162 0
-159 -78 89 0
120 180 -99 0
-115 -110 120 0
-118 -176 -120 0
189 -177 157 0
179 191 158 0
93 63 107 0
-8 -165 -17 0
178 38 176 0
153 -200 -28 0
111 -17 4 0
119 -137 46 0
29 97 -189 0
5 111 -86 0
-82 166 95 0
-184 -80 128 0
-6 4 11 0
-88 89 119 0
92 35 -139 0
-72 -170 114 0
-38 -110 -91 0
-197 49 -31 0
97 -10 -150 0
135 -170 44 0
-145 195 -5 0
-36 160 -70 0
124 -137 107 0
153 184 2 0
-80 20 50 0
-197 -17 -155 0
14 165 -65 0
53 -113 124 0
154 -191 123 0
184 -199 -30 0
-149 -25 -74 0
6 -148 -162 0
-49 158 190 0
-187 120 -113 0
33 -67 71 0
-61 23 81 0
165 155 -66 0
142 -79 -66 0
187 148 -108 0
-102 142 -88 0
-40 -111 173 0
-179 -178 -132 0
64 125 66 0
137 -103 -129 0
65 117 -172 0
-103 -169 -196 0
193 74 113 0
84 190 -55 0
39 187 60 0
-108 31 88 0
-93 141 109 0
-49 37 103 0
1 158 121 0
-34 57 125 0
-191 -15 -93 0
-33 148 127 0
-190 -47 17 0
-9 104 192 0
-30 117 -54 0
-74 -103 80 0
139 58 -55 0
-102 20 9 0
-89 -95 -28 0
-57 -3 -179 0
120 62 182 0
-179 -156 -44 0
-188 146 38 0
-153 158 -35 0
-155 138 54 0
-168 184 -81 0
-61 166 -153 0
91 -196 -4 0
62 -14 199 0
63 -118 123 0
198 39 23 0
-158 76 -151 0
26 -71 -99 0
27 -129 -185 0
-178 -200 -112 0
-152 -68 177 0
157 -88 -118 0
-121 133 -137 0
-75 -34 35 0
-168 -12 25 0
-152 126 166 0
-141 -111 95 0
134 22 -30 0
-38 51 -103 0
64 93 147 0
-59 25 118 0
-190 -56 -140 0
58 4 82 0
-22 -87 116 0
-75 30 165 0
-3 26 -137 0
-92 -39 -118 0
-158 -196 166 0
-164 149 -128 0
-148 83 -178 0
154 -126 200 0
-73 90 65 0
-44 -140 89 0
163 135 -110 0
-59 -149 -114 0
195 123 -33 0
71 15 -2 0
-24 140 2 0
-30 -17 151 0
-56 -184 140 0
-70 -33 192 0
61 -46 141 0
-182 -75 109 0
-190 -148 -113 0
-121 110 193 0
55 78 119 0
19 -42 140 0
-43 -89 -156 0
-65 -134 49 0
171 -34 175 0
-32 -38 85 0
-137 8 108 0
183 163 127 0
-25 160 -87 0
-122 -149 -58 0
170 -44 56 0
-58 -91 -9 0
87 6 86 0
125 -45 127 0
-74 84 66 0
192 -15 129 0
23 102 -71 0
161 145 -188 0
-178 -157 -133 0
-137 25 149 0
-44 161 -113 0
-103 -118 -126 0
188 -11 114 0
52 -98 -188 0
176 118 42 0
116 12 -74 0
-107 -192 -89 0
-126 190 193 0
-200 193 -71 0
8 -148 -73 0
89 21 199 0
-123 -183 -34 0
10 -72 129 0
-37 120 107 0
12 29 148 0
-148 198 88 0
-86 43 56 0
76 -118 163 0
-49 127 -121 0
72 -84 -184 0
194 -133 -77 0
-20 -130 198 0
78 -135 6 0
1 -89 154 0
132 133 58 0
95 188 -6 0
-90 -49 -142 0
103 -1 -139 0
-126 -90 161 0
129 174 -162 0
-30 -169 -79 0
-107 149 118 0
-191 -10 112 0
-165 -4 150 0
-151 -195 149 0
160 -26 64 0
42 -1 -67 0
3 17 -125 0
198 6 126 0
-47 -181 111 0
144 10 165 0
138 37 -53 0
-8 -33 -136 0
-179 -58 -45 0
-112 -192 -123 0
42 133 -90 0
-179 184 91 0
-191 -124 -183 0
109 -131 44 0
-100 53 -75 0
-141 -80 193 0
90 -183 4 0
118 -65 9 0
61 123 -171 0
193 123 75 0
-23 3 -27 0
137 -80 -132 0
-179 50 63 0
-92 -85 7 0
-72 177 44 0
-196 -48 -186 0
-186 164 -22 0
189 66 -157 0
22 -64 123 0
27 -64 -178 0
-58 113 -57 0
-55 77 135 0
168 99 10 0
-19 -197 29 0
170 16 29 0
40 112 -19 0
-12 136 -89 0
32 52 96 0
24 144 153 0
-64 -164 42 0
16 143 -125 0
49 185 24 0
-168 30 -41 0
192 102 -25 0
137 23 -102 0
136 57 38 0
13 -26 -119 0
-32 -29 41 0
55 45 138 0
31 -165 -198 0
168 -126 -85 0
172 -67 -167 0
-121 146 -190 0
-91 112 -165 0
140 -174 81 0
-45 33 3 0
152 -38 -94 0
125 -76 -13 0
-188 152 -26 0
112 -99 64 0
142 82 183 0
-136 -183 -63 0
11 33 -81 0
123 61 -159 0
-83 -172 -128 0
-79 -11 -103 0
48 184 146 0
67 52 128 0
63 -183 -81 0
118 11 -153 0
-120 -63 11 0
38 -96 -155 0
51 -105 -7 0
-7 172 117 0
-17 -67 -122 0
-110 -104 -198 0
22 49 167 0
-139 -96 149 0
144 83 136 0
-35 -155 46 0
74 97 52 0
-168 -93 -49 0
-187 6 10 0
