p cnf 100 220
87 -54 83 0
74 -92 70 0
98 2 20 0
-87 22 -1 0
92 -62 72 0
62 -58 -72 0
-42 -86 -92 0
-27 13 39 0
90 36 54 0
78 11 13 0
-47 -89 -32 0
-35 -69 -1 0
14 46 51 0
10 -33 -86 0
-12 99 -41 0
58 -1 91 0
91 68 -42 0
83 -48 18 0
-42 53 59 0
-58 -43 -4 0
7 -26 22 0
-94 51 -28 0
-94 -9 71 0
64 59 37 0
-3 -22 -38 0
15 88 16 0
68 -70 29 0
83 -46 -94 0
68 -36 -69 0
40 -5 -39 0
26 32 46 0
-25 38 -69 0
-84 -12 -65 0
-78 -26 10 0
14 -64 -26 0
-11 52 -29 0
-36 90 18 0
-94 29 -65 0
-70 25 7 0
46 43 -72 0
-12 31 54 0
93 29 -67 0
-9 -99 56 0
13 98 45 0
-4 -20 59 0
27 -6 -98 0
-6 -56 -78 0
53 -58 55 0
-20 69 54 0
-1 -42 -59 0
45 -53 -97 0
-61 -72 81 0
1 33 -18 0
-7 -81 44 0
33 -91 95 0
-18 -6 39 0
65 50 2 0
-20 -36 -21 0
89 -79 -78 0
74 79 53 0
-35 -93 38 0
-60 -96 94 0
-97 -12 -95 0
16 -72 83 0
75 63 77 0
11 -9 -65 0
-75 -77 42 0
88 89 -11 0
-20 50 -37 0
-36 74 -1 0
-84 39 33 0
97 86 -43 0
41 16 93 0
-20 -62 12 0
64 -82 75 0
15 99 2 0
51 98 52 0
18 99 -46 0
-66 -90 -26 0
67 -85 -37 0
-93 -90 -82 0
-93 -92 -20 0
95 -49 90 0
39 -59 71 0
72 -90 -91 0
77 -91 -34 0
-9 -76 -31 0
-24 -84 29 0
92 74 56 0
45 -33 62 0
-93 17 86 0
40 9 89 0
55 -50 62 0
-72 -90 -66 0
39 -97 -21 0
-79 65 54 0
11 -77 -75 0
64 68 86 0
7 -98 42 0
41 -2 76 0
14 21 -54 0
-8 -20 24 0
-46 -34 -81 0
21 62 44 0
100 -39 -3 0
-55 44 81 0
-31 5 -1 0
39 98 -3 0
-83 -24 -68 0
65 -90 79 0
-97 -89 22 0
-79 1 -71 0
-26 73 67 0
8 62 79 0
6 -94 -21 0
-4 28 3 0
58 -9 76 0
56 84 -32 0
-61 57 4 0
-17 -8 85 0
-10 76 -67 0
22 -17 -89 0
38 70 41 0
97 -75 -26 0
76 92 19 0
-87 -14 -19 0
60 -4 44 0
82 -44 60 0
12 96 -55 0
33 74 53 0
-92 -19 -79 0
-24 23 74 0
20 -99 -78 0
-57 70 61 0
-2 24 16 0
-27 7 -83 0
80 62 91 0
-52 84 -81 0
59 85 11 0
3 100 53 0
98 -86 -69 0
-12 -96 23 0
-86 -56 -53 0
97 24 -47 0
92 -33 77 0
-62 -85 3 0
-44 -60 -78 0
97 5 -18 0
-56 78 8 0
-38 -33 -43 0
30 -44 58 0
-38 -8 -10 0
43 89 26 0
-63 99 -71 0
-47 -78 24 0
-61 -3 -16 0
72 -58 62 0
-72 8 -23 0
81 6 64 0
91 -57 70 0
-20 4 83 0
13 -85 -81 0
58 33 -74 0
-29 -77 -67 0
-46 29 -86 0
58 34 -73 0
48 27 77 0
-74 76 -50 0
45 56 -98 0
58 -84 55 0
61 -38 46 0
52 -93 10 0
-60 -20 1 0
-48 -83 3 0
-80 90 -56 0
43 -85 -94 0
-91 55 74 0
80 -25 -89 0
77 -65 -15 0
73 -42 -56 0
21 -30 77 0
-8 -71 49 0
37 -85 -36 0
-91 93 -15 0
-36 65 89 0
43 -3 -8 0
47 20 -4 0
26 -60 42 0
-37 -3 -21 0
51 48 95 0
54 -34 -88 0
2 9 -82 0
62 14 -90 0
42 14 88 0
69 11 -51 0
61 92 -21 0
38 -13 37 0
6 -54 46 0
71 -65 -58 0
-31 -24 -77 0
85 52 99 0
24 44 -66 0
-82 -8 -46 0
-35 85 -81 0
-20 -13 -6 0
-46 16 28 0
-79 63 -71 0
-83 -17 -79 0
80 -72 34 0
5 -31 -52 0
76 69 35 0
58 -15 -18 0
-28 -32 97 0
77 70 50 0
-3 41 -77 0
94 -99 -9 0
-22 43 90 0
77 14 -30 0
-97 -4 -84 0
1 30 12 0
