p cnf 100 480
68 -34 -84 0
-51 93 -4 0
-60 -34 29 0
-15 -10 43 0
56 -86 -66 0
-33 -38 46 0
-1 -55 24 0
-30 61 80 0
79 58 33 0
18 -24 -4 0
-26 37 -65 0
88 59 -63 0
18 85 -90 0
-45 4 -17 0
89 -10 75 0
-8 -89 -36 0
80 67 99 0
-13 -50 88 0
-13 3 72 0
67 -10 14 0
-2 75 64 0
14 15 69 0
7 97 36 0
28 19 21 0
-69 65 19 0
-75 54 -99 0
-79 25 2 0
64 77 -14 0
-68 -47 -18 0
-78 -70 92 0
71 92 16 0
8 -90 -74 0
100 79 -66 0
-66 -18 -50 0
1 -74 -76 0
23 57 -40 0
1 76 40 0
-71 17 -44 0
71 38 98 0
40 23 87 0
-29 91 -41 0
-43 69 56 0
80 95 -77 0
-22 53 36 0
-84 -67 5 0
-23 -24 26 0
-26 -96 18 0
-33 -26 -61 0
26 5 -84 0
-47 -46 67 0
-67 88 62 0
34 68 -35 0
40 -98 -96 0
-48 79 51 0
73 23 -25 0
91 88 -21 0
20 -58 -26 0
-93 -63 86 0
17 -9 -2 0
57 90 -83 0
26 -46 -56 0
-42 -56 27 0
-80 83 -97 0
10 -1 -28 0
-68 -71 43 0
-43 45 -30 0
14 24 -21 0
24 53 60 0
-18 10 -98 0
-50 66 -83 0
-78 -80 94 0
-34 91 -61 0
-1 22 21 0
16 -56 15 0
-74 -92 -90 0
-68 12 75 0
-65 -75 -46 0
-58 -96 -67 0
-61 48 -31 0
10 72 -38 0
8 12 -39 0
83 75 -67 0
-6 12 -98 0
28 83 -20 0
-86 -84 -2 0
-18 26 -17 0
10 32 -100 0
33 -45 49 0
-52 62 35 0
37 -57 -69 0
56 -9 -55 0
-2 -81 -11 0
-63 -28 27 0
55 -44 -43 0
7 71 76 0
13 -74 58 0
88 100 -7 0
90 87 91 0
-37 93 -61 0
-40 17 89 0
6 -48 -80 0
85 -37 -84 0
68 -13 -23 0
59 -69 -33 0
-73 38 -42 0
7 -47 -48 0
14 98 -67 0
-87 -39 69 0
-7 39 -81 0
30 -12 32 0
89 -100 -93 0
84 90 -41 0
48 -65 85 0
75 39 76 0
-6 22 -65 0
-51 54 -63 0
-34 -59 7 0
-63 -30 -96 0
-85 -41 4 0
-2 85 -43 0
-79 8 15 0
-49 -12 58 0
20 -9 -36 0
-82 95 60 0
-51 -39 45 0
-63 60 -78 0
-91 2 93 0
-52 19 -15 0
13 42 55 0
-5 -40 -11 0
-34 -2 81 0
4 -97 28 0
97 -67 -91 0
44 34 -18 0
10 -67 -94 0
60 -71 -96 0
75 11 -46 0
66 -75 -65 0
76 36 17 0
-98 34 -38 0
38 -74 15 0
-67 -42 9 0
1 52 -72 0
91 -40 75 0
-20 -80 -16 0
17 26 3 0
-63 46 -93 0
-72 -31 68 0
39 -9 -4 0
32 -70 21 0
-4 63 -72 0
-4 -64 18 0
96 23 -76 0
47 100 44 0
73 -67 -94 0
-73 99 10 0
-95 85 -82 0
-25 18 -4 0
-73 -44 -78 0
-50 3 -15 0
-63 97 4 0
-8 -15 9 0
39 38 43 0
51 17 -40 0
-68 12 1 0
91 21 -54 0
17 -37 52 0
3 23 -9 0
43 -21 68 0
-34 10 -75 0
-42 85 -58 0
-81 84 10 0
22 4 73 0
97 -43 -25 0
99 11 -40 0
9 -91 68 0
66 29 2 0
-76 49 96 0
-65 55 -19 0
-13 1 -15 0
66 38 -9 0
-18 88 -52 0
-51 72 -86 0
66 62 42 0
-40 5 47 0
-20 34 29 0
64 82 -86 0
67 99 -71 0
-32 1 2 0
-57 -99 -96 0
-11 -51 -19 0
93 11 -6 0
95 46 -11 0
43 -98 -94 0
-1 -79 -29 0
-15 63 -28 0
-15 -42 -80 0
-45 -2 -91 0
-87 -66 76 0
-32 -86 79 0
-62 57 -67 0
14 -100 20 0
45 69 93 0
56 -70 48 0
11 9 56 0
60 34 57 0
25 53 18 0
-1 73 36 0
-51 -8 25 0
4 -56 44 0
67 -53 21 0
43 -95 41 0
-35 -91 6 0
71 -67 -52 0
-26 -35 -45 0
71 -31 -14 0
61 -99 -79 0
-9 -65 28 0
44 95 47 0
22 -67 38 0
11 -44 -91 0
-45 2 92 0
-11 12 -94 0
-71 84 -6 0
-28 25 -97 0
46 -97 -6 0
-88 71 -35 0
-49 75 47 0
43 15 77 0
-55 -57 -72 0
49 88 92 0
27 -48 -21 0
4 -89 55 0
25 -95 78 0
9 -25 50 0
-75 64 -3 0
-73 53 4 0
76 -63 7 0
59 -22 51 0
28 68 -67 0
-94 -91 53 0
77 -96 54 0
88 -68 53 0
-54 32 -4 0
84 -94 27 0
28 -41 62 0
45 -22 77 0
-12 -41 13 0
-40 36 -17 0
97 -34 -53 0
78 -57 -96 0
-91 80 -70 0
2 38 -19 0
36 -85 27 0
-34 94 -81 0
-43 1 -71 0
-99 -45 -56 0
-92 -94 52 0
-49 -18 87 0
-58 -78 -14 0
47 -90 84 0
-81 67 84 0
26 42 -19 0
-70 -24 -52 0
-86 -41 -75 0
9 83 68 0
-74 4 -62 0
-53 -91 -90 0
-10 64 -73 0
-77 92 17 0
57 24 -68 0
-95 31 80 0
-18 100 6 0
31 56 -85 0
76 -85 -44 0
81 90 78 0
-41 29 -17 0
7 68 -51 0
-53 90 19 0
-83 -81 -75 0
-99 42 -87 0
-55 39 -7 0
-17 69 -59 0
79 23 -75 0
76 13 22 0
-72 -4 5 0
-9 20 96 0
26 86 -76 0
-37 -57 -1 0
-88 -8 22 0
-68 -25 66 0
-56 76 -37 0
-11 96 -57 0
68 56 -45 0
53 -52 31 0
21 52 -73 0
-50 63 -99 0
-71 37 34 0
10 65 -9 0
90 94 52 0
-95 40 53 0
-24 96 -37 0
6 15 72 0
3 -9 69 0
23 7 -33 0
44 -8 -42 0
24 84 14 0
-55 30 -54 0
11 41 -80 0
31 -28 -53 0
-29 8 56 0
14 -41 82 0
-39 -5 40 0
53 40 47 0
60 59 35 0
-45 -24 50 0
-41 -90 83 0
-31 -87 -8 0
1 -30 -64 0
54 18 7 0
53 -15 -84 0
-10 93 -77 0
26 70 99 0
-1 -87 -8 0
58 -52 50 0
-94 87 16 0
11 61 -93 0
85 60 -80 0
-91 -79 64 0
60 -64 36 0
-8 89 48 0
-10 32 90 0
11 2 -39 0
38 2 18 0
75 -6 76 0
-96 88 -6 0
-3 36 -55 0
67 2 -40 0
19 -65 37 0
47 -31 44 0
-37 17 -50 0
-84 16 -62 0
79 93 88 0
47 10 -91 0
-53 54 83 0
-81 37 10 0
-89 -4 -82 0
70 10 -60 0
-99 92 28 0
-65 50 97 0
93 20 -64 0
95 -25 98 0
-58 55 -47 0
-78 96 50 0
-85 71 14 0
-26 -49 11 0
-18 -12 -71 0
83 91 -81 0
34 16 -78 0
84 -37 94 0
-48 20 -9 0
-36 13 63 0
36 -74 -79 0
-83 -98 -50 0
-4 -99 76 0
-72 65 97 0
79 69 99 0
16 -5 -27 0
-27 -51 -4 0
39 -12 -50 0
-14 -89 -16 0
57 -27 -51 0
-62 -99 -63 0
-1 -25 14 0
-16 1 43 0
65 -74 58 0
71 -22 96 0
-35 36 96 0
-30 -11 45 0
35 52 22 0
27 -84 95 0
86 72 -100 0
70 -68 52 0
-33 -94 37 0
-97 17 86 0
-25 -40 39 0
62 -33 91 0
31 -63 -19 0
-82 -31 -9 0
61 -88 65 0
-61 -55 -16 0
17 -20 -40 0
-52 22 -59 0
-76 19 32 0
99 -15 75 0
-77 84 21 0
-72 51 -23 0
57 -31 81 0
-59 53 72 0
-45 22 40 0
-32 -33 21 0
57 -69 -61 0
23 90 53 0
-56 69 78 0
-58 -70 31 0
15 -54 4 0
54 26 42 0
3 -41 -49 0
-34 85 25 0
59 -85 47 0
98 56 71 0
-78 -9 -97 0
-66 -23 13 0
-89 -7 -83 0
-5 30 -79 0
84 45 -5 0
-10 79 26 0
-46 -100 -6 0
-84 10 -15 0
-6 -97 71 0
-68 -47 -98 0
-90 -71 26 0
-27 81 -97 0
-3 77 -84 0
-6 -53 33 0
99 84 61 0
-63 -74 100 0
-29 -24 -73 0
-40 62 -16 0
-31 -95 88 0
71 -80 -83 0
80 -8 28 0
-4 -47 27 0
18 -62 34 0
-22 62 36 0
-20 -25 7 0
-72 -62 -23 0
-35 -61 27 0
66 49 97 0
29 70 91 0
57 30 66 0
17 50 88 0
49 94 -48 0
-97 24 32 0
18 66 32 0
51 48 86 0
-69 53 -82 0
15 25 -65 0
98 48 46 0
-1 -57 90 0
-37 2 -47 0
58 -8 40 0
99 -61 86 0
-13 56 -73 0
60 88 -7 0
-93 -2 20 0
-4 19 72 0
55 -71 58 0
42 33 38 0
-24 96 9 0
-40 -74 -100 0
-73 -17 -33 0
-56 82 68 0
89 -90 -8 0
30 -42 -96 0
-43 66 -77 0
-66 84 97 0
29 31 -87 0
-95 -10 75 0
71 -5 40 0
-58 7 82 0
-42 82 73 0
81 -10 -5 0
-63 61 -32 0
7 58 87 0
-30 -90 -27 0
-53 2 33 0
-11 70 -76 0
16 17 48 0
-76 -83 66 0
