p cnf 200 640
-118 158 -157 0
163 -120 79 0
140 -189 181 0
-115 -1 111 0
-32 158 -115 0
96 73 110 0
-72 -13 93 0
16 -10 -100 0
129 -108 -134 0
198 -95 139 0
78 38 -52 0
192 174 -90 0
71 28 97 0
181 -189 128 0
-48 8 31 0
129 -116 110 0
-75 -135 125 0
-38 106 -175 0
-21 114 61 0
-66 23 15 0
-105 -144 -43 0
107 121 74 0
-156 -187 142 0
-25 145 136 0
71 79 35 0
64 16 -110 0
-165 187 -106 0
135 33 96 0
-118 85 -142 0
117 -122 -145 0
-39 144 -165 0
36 175 33 0
-107 98 -68 0
-168 -85 47 0
57 21 41 0
-68 23 166 0
34 -133 140 0
24 9 -191 0
92 -166 -18 0
147 7 153 0
131 76 26 0
-6 -173 -71 0
-5 44 23 0
-7 200 -70 0
-5 36 63 0
52 175 152 0
-143 60 20 0
-149 41 123 0
-84 50 27 0
113 44 -91 0
-142 -32 -136 0
-60 96 -83 0
-37 -24 197 0
-150 -42 -173 0
-22 -200 91 0
-131 -6 90 0
-85 111 -163 0
146 -71 -165 0
52 191 173 0
-48 -121 118 0
65 159 34 0
-187 -190 144 0
119 99 -147 0
-86 -160 35 0
38 72 -21 0
6 161 173 0
97 -3 -24 0
94 103 -58 0
183 48 86 0
-26 -56 -190 0
24 -182 15 0
130 -22 -34 0
-198 -187 180 0
-8 -30 -130 0
141 41 114 0
38 71 -117 0
115 -4 29 0
-155 101 18 0
140 -179 1 0
86 65 105 0
-18 -136 -1 0
93 -87 -51 0
60 -59 97 0
89 -82 154 0
112 90 190 0
-132 101 46 0
184 89 -66 0
14 -9 -82 0
41 146 113 0
145 194 -42 0
-49 152 36 0
91 82 75 0
-79 -108 -66 0
-57 127 60 0
91 -118 -136 0
-113 -161 -62 0
-103 -114 122 0
66 162 124 0
-122 -23 32 0
-173 -100 143 0
54 -67 65 0
112 -159 137 0
-18 164 -106 0
138 -25 -185 0
67 -48 199 0
-189 9 -112 0
131 6 -100 0
-194 95 -45 0
-119 53 -169 0
-168 -68 -97 0
107 114 186 0
-152 11 -184 0
142 77 -196 0
-68 55 43 0
-159 44 -73 0
158 -8 -69 0
-138 -73 184 0
105 -61 13 0
-158 194 -97 0
58 63 168 0
-183 -144 168 0
-133 117 -31 0
-14 -5 35 0
194 155 150 0
-19 -154 112 0
150 -60 -105 0
197 -175 -174 0
-95 14 66 0
179 -113 187 0
-14 137 -116 0
-57 85 110 0
111 -107 41 0
193 40 -29 0
-97 54 110 0
100 -184 -32 0
59 -45 144 0
136 -56 -163 0
107 -141 192 0
46 157 -4 0
-148 85 -121 0
-43 -197 -143 0
19 186 26 0
76 -144 86 0
-195 -78 -44 0
19 22 -43 0
-121 -117 -105 0
121 -120 -184 0
-106 151 197 0
61 -143 -104 0
19 -122 87 0
19 153 67 0
-92 -186 74 0
140 4 50 0
91 -88 -100 0
-186 -143 -184 0
186 199 8 0
-4 -181 -168 0
149 92 69 0
10 -84 142 0
161 61 -38 0
-85 -104 -33 0
-9 26 -59 0
-180 147 -142 0
43 -52 -150 0
-19 -90 120 0
-47 -126 151 0
24 -83 164 0
74 -136 -85 0
1 -138 112 0
86 138 78 0
-182 41 -98 0
49 -142 41 0
-6 165 68 0
121 -95 41 0
-160 47 76 0
184 -189 -176 0
-160 27 -43 0
135 85 -130 0
-108 29 -128 0
39 -187 -41 0
-164 -42 -145 0
-128 -81 -103 0
79 45 166 0
3 83 -103 0
121 -40 -101 0
47 39 117 0
197 -99 97 0
-140 -118 77 0
-84 -32 124 0
12 127 -95 0
126 -65 148 0
1 -178 -133 0
-61 123 -51 0
160 -49 -105 0
104 58 -29 0
117 52 -162 0
140 -193 -121 0
110 -74 29 0
-159 79 -105 0
146 -162 5 0
26 -94 -78 0
-157 -154 167 0
-101 94 -197 0
-128 -16 176 0
67 -19 -64 0
-193 32 -188 0
96 -17 -81 0
11 185 29 0
193 -165 200 0
-72 80 9 0
-84 -42 174 0
-188 121 -196 0
121 -150 -124 0
-166 149 187 0
-168 130 151 0
-69 -74 49 0
13 148 52 0
-173 -83 -198 0
129 199 -141 0
71 -19 -17 0
166 -49 164 0
-196 26 37 0
34 6 -48 0
-183 10 -137 0
-101 -42 -185 0
-40 107 177 0
153 -79 66 0
-105 -162 26 0
142 110 195 0
-105 -60 82 0
142 -135 -134 0
175 -50 45 0
122 181 -171 0
-174 -6 -200 0
-144 11 -102 0
13 -81 67 0
-151 76 -179 0
-82 34 37 0
-151 -62 97 0
-92 88 -6 0
-46 6 188 0
100 7 -84 0
197 -132 183 0
-143 186 -58 0
-173 188 109 0
85 -99 -102 0
-34 97 33 0
16 186 133 0
107 -139 142 0
199 -168 -78 0
152 -81 -184 0
-99 -4 -122 0
120 116 29 0
188 69 -181 0
52 31 -56 0
-191 -78 80 0
115 110 152 0
-145 70 -191 0
-55 -173 1 0
186 -104 -97 0
-200 118 -190 0
-34 -196 -1 0
-2 40 41 0
114 122 -128 0
-91 -185 70 0
190 -129 -58 0
-44 -85 -3 0
184 -116 -103 0
-138 52 170 0
-178 -82 194 0
137 -41 43 0
109 139 -165 0
85 -118 3 0
-173 157 -56 0
173 66 162 0
-156 144 -7 0
-5 136 62 0
-117 7 -139 0
190 166 60 0
91 188 -36 0
184 -11 -146 0
122 -109 2 0
177 49 189 0
-15 120 -41 0
58 152 84 0
-193 -27 67 0
-46 60 184 0
-2 -76 -179 0
128 -21 -197 0
16 -69 -182 0
102 -108 13 0
133 110 -138 0
-38 138 150 0
111 164 -6 0
-82 108 -75 0
-73 -56 109 0
187 98 154 0
-156 -59 99 0
-123 138 -183 0
-143 -99 -100 0
-66 162 117 0
-65 128 76 0
-140 45 -96 0
-168 101 79 0
196 87 129 0
110 -154 -84 0
175 -173 -5 0
116 -35 68 0
35 109 82 0
139 -120 -125 0
38 101 -63 0
-159 27 -183 0
6 106 -103 0
156 -54 -178 0
-3 191 182 0
122 37 83 0
-177 -12 182 0
-57 43 97 0
-13 50 -92 0
80 11 -96 0
-69 -192 93 0
-24 -43 -90 0
-178 9 147 0
149 -87 198 0
178 -74 138 0
90 -51 152 0
134 -55 171 0
-89 -121 -115 0
142 108 -31 0
-124 100 23 0
78 162 46 0
174 108 -110 0
-55 81 13 0
-132 -102 130 0
141 -51 96 0
-135 -161 -71 0
-130 163 98 0
157 -51 -45 0
189 -23 -135 0
-8 -129 90 0
-3 33 92 0
107 196 191 0
-198 154 71 0
11 -194 191 0
-113 -45 7 0
8 105 109 0
-109 28 -183 0
8 -80 -160 0
-15 -58 -54 0
-184 35 -185 0
151 18 110 0
130 149 108 0
-120 137 74 0
107 8 -21 0
14 18 176 0
20 188 -53 0
150 98 -42 0
-158 99 -160 0
-51 -144 194 0
-85 45 186 0
91 -24 199 0
178 -84 -69 0
117 -69 -44 0
-136 134 111 0
41 -17 198 0
161 160 -20 0
-123 -107 -147 0
163 -186 -10 0
86 47 -54 0
-155 153 6 0
189 56 -172 0
83 96 80 0
94 -180 58 0
-18 -20 -94 0
-125 143 -58 0
-69 -64 24 0
-79 33 -146 0
171 197 -41 0
132 -92 86 0
-140 43 189 0
-144 -104 120 0
-171 98 -54 0
148 89 141 0
51 21 117 0
49 120 92 0
-10 -145 119 0
153 -18 -190 0
-98 163 -36 0
-115 84 -52 0
-191 -113 173 0
-150 -4 -142 0
-169 -111 -152 0
-131 -29 196 0
58 -107 -73 0
-173 -51 -53 0
-100 50 152 0
84 -123 -155 0
176 -2 90 0
194 3 187 0
-180 31 -133 0
138 196 -182 0
-5 46 -135 0
13 -154 -61 0
131 -51 -108 0
17 -129 79 0
-68 154 27 0
-161 -71 123 0
181 -16 102 0
32 -92 -117 0
-73 134 101 0
-167 81 -118 0
-173 48 -159 0
134 -98 59 0
14 -3 7 0
-4 150 -138 0
-100 109 77 0
107 175 117 0
-181 190 -46 0
-179 161 -180 0
63 -109 -5 0
99 -145 51 0
9 34 130 0
-118 176 -83 0
44 102 180 0
79 129 -133 0
13 -20 -194 0
-19 -114 -128 0
-110 -128 80 0
-128 101 -167 0
108 -85 95 0
-172 -13 -17 0
56 170 185 0
121 68 -70 0
-15 -42 -184 0
180 -169 4 0
-152 -192 62 0
178 -179 114 0
-111 189 -91 0
-147 192 104 0
-36 -89 -43 0
-137 -8 -18 0
101 17 40 0
-36 31 84 0
-3 -63 136 0
-43 -25 69 0
67 85 29 0
115 124 109 0
157 196 28 0
-40 82 -179 0
-188 -39 168 0
39 -50 -40 0
-127 34 50 0
71 74 21 0
74 -91 178 0
161 -152 -193 0
-118 -77 -25 0
-88 -92 -100 0
71 -172 195 0
-58 169 22 0
-1 179 4 0
-93 -185 97 0
-36 -99 -8 0
-192 190 161 0
-154 141 -52 0
-127 40 113 0
-141 53 134 0
-136 -67 -81 0
-14 60 23 0
155 84 29 0
92 -93 109 0
168 -146 -175 0
53 14 28 0
-53 114 -134 0
-182 7 19 0
92 130 11 0
-122 -48 -193 0
-161 -120 -165 0
-90 4 -163 0
-116 -191 -84 0
13 -152 -187 0
193 -141 -18 0
-105 -75 -193 0
168 -178 -106 0
96 186 38 0
153 -152 15 0
-146 -122 85 0
-135 -141 -90 0
141 -167 -24 0
40 -101 -9 0
-141 -116 103 0
148 45 -41 0
-158 43 -58 0
185 -124 172 0
-160 97 -132 0
120 122 9 0
83 -54 -159 0
-79 -67 -50 0
113 76 78 0
-77 142 34 0
-25 -175 101 0
-55 59 178 0
3 25 -41 0
26 -188 -87 0
35 62 113 0
84 194 -113 0
-189 140 45 0
-94 12 120 0
-138 88 43 0
-177 -35 -90 0
-31 -50 98 0
84 144 -189 0
172 17 41 0
-89 74 -82 0
-102 -74 -141 0
-58 41 15 0
195 75 -29 0
114 103 -16 0
186 -23 -102 0
-33 59 -164 0
-90 -20 196 0
133 112 -167 0
143 -114 -110 0
187 -151 96 0
-12 198 -33 0
-132 -6 -123 0
-177 141 -183 0
-37 -186 -175 0
41 -151 -122 0
-104 179 -100 0
154 -170 25 0
125 198 -191 0
-199 -72 -117 0
175 -69 170 0
104 25 -35 0
111 -115 -146 0
21 -189 -134 0
-113 78 -133 0
-144 54 -111 0
148 151 25 0
147 200 -130 0
-80 171 -77 0
-48 -122 116 0
-21 22 -85 0
-96 -111 -3 0
-90 87 190 0
-107 132 133 0
129 76 118 0
115 91 -128 0
26 85 -76 0
-164 73 -143 0
-172 -111 173 0
124 -163 -111 0
-121 -16 195 0
-195 -23 138 0
163 28 36 0
117 -144 -46 0
151 -195 -9 0
-56 -60 -193 0
-133 122 -184 0
136 -98 103 0
-41 99 128 0
-189 -137 -162 0
-20 150 -18 0
38 -46 -101 0
155 63 191 0
18 -168 -141 0
122 -59 35 0
103 169 118 0
-102 175 112 0
-74 -15 113 0
-159 -65 -151 0
98 -39 -188 0
-65 55 -27 0
146 89 -37 0
21 -53 -59 0
-33 -145 151 0
-12 -83 -94 0
-181 -17 63 0
7 74 -27 0
-40 73 -23 0
160 -188 111 0
139 131 43 0
-10 -150 71 0
200 63 -127 0
115 -13 -32 0
-139 25 197 0
-7 103 -61 0
-16 71 -137 0
-57 140 187 0
29 183 -45 0
-57 -89 -58 0
-66 -41 9 0
26 84 127 0
-28 -188 -70 0
-139 -103 -95 0
-180 -122 8 0
-4 -163 28 0
9 -141 -38 0
-91 -180 -152 0
-149 148 200 0
-60 -58 -52 0
193 -62 200 0
-171 106 181 0
68 -81 -83 0
18 142 -115 0
159 -34 -35 0
-131 -179 -200 0
187 -59 140 0
55 89 99 0
-19 -158 -11 0
-149 46 -59 0
82 134 195 0
-166 126 59 0
80 -99 -61 0
16 -176 -200 0
-99 112 127 0
161 -104 98 0
-154 181 91 0
-169 -132 -3 0
-105 126 -160 0
153 170 -78 0
-18 139 -140 0
-47 34 -56 0
-138 154 41 0
151 -95 -78 0
-37 64 -7 0
-13 -159 -197 0
-22 -132 122 0
-166 -160 36 0
7 123 64 0
192 -77 -58 0
116 56 -23 0
-25 156 92 0
143 -153 -174 0
-89 68 -40 0
122 172 -157 0
-43 44 175 0
131 142 -117 0
-12 70 17 0
-105 148 -88 0
