p cnf 100 315
68 -26 29 0
-47 -98 -7 0
25 15 -87 0
45 30 99 0
75 -17 34 0
-80 65 -25 0
-39 -98 3 0
46 17 53 0
-92 -67 -48 0
16 18 -40 0
86 -35 -57 0
-66 -16 22 0
-71 91 54 0
100 4 81 0
-23 83 81 0
-96 21 35 0
-17 64 10 0
99 -61 94 0
-86 -35 -27 0
-81 -91 27 0
41 55 75 0
-33 77 67 0
-1 -83 82 0
15 82 -76 0
50 28 18 0
45 -11 -24 0
26 -35 -56 0
-16 70 43 0
-34 -16 -82 0
99 28 70 0
-42 25 -26 0
-18 -40 -43 0
-6 85 -52 0
88 63 41 0
-7 59 -16 0
31 57 80 0
34 -76 -99 0
-86 9 14 0
-66 -24 -64 0
-5 -14 86 0
65 83 71 0
83 29 -68 0
47 92 6 0
-62 -74 93 0
57 -78 20 0
82 59 -92 0
56 35 -85 0
-46 39 32 0
-30 -78 3 0
-69 -51 7 0
-50 -32 -51 0
-93 -61 15 0
-50 -18 -79 0
-1 100 11 0
-90 38 66 0
89 -22 -71 0
15 -48 -24 0
20 -31 19 0
-79 -18 -16 0
-37 25 63 0
-62 25 21 0
-97 -68 -59 0
23 81 16 0
-4 42 33 0
46 73 51 0
-56 -98 53 0
95 -8 -12 0
45 1 -19 0
63 18 55 0
69 -12 -59 0
62 21 95 0
79 23 17 0
87 -93 -97 0
-41 85 18 0
90 -34 -11 0
-88 81 -87 0
-48 3 -29 0
40 76 -81 0
-23 -13 16 0
67 -42 48 0
-90 -69 78 0
87 62 79 0
48 86 -26 0
99 16 -12 0
76 7 77 0
-17 45 -14 0
64 -29 68 0
-88 75 -55 0
14 -27 80 0
-83 -71 72 0
-84 17 75 0
23 97 -98 0
56 -55 72 0
-29 39 -7 0
-41 83 -79 0
17 27 -60 0
-61 -38 -18 0
8 96 -26 0
-99 -25 66 0
67 -20 90 0
-36 25 -5 0
38 -12 -30 0
-90 -64 -59 0
29 -12 5 0
-33 63 12 0
76 -94 -49 0
-57 99 56 0
92 -46 53 0
26 5 73 0
-100 2 -90 0
81 50 -38 0
-76 72 -84 0
-82 45 21 0
-21 -80 78 0
68 84 12 0
-38 66 33 0
85 -90 2 0
-21 44 64 0
75 96 92 0
-61 -52 -29 0
85 68 -92 0
-52 11 33 0
-18 -54 5 0
85 57 9 0
67 86 36 0
-16 -85 -27 0
-82 -68 -52 0
-76 64 -71 0
39 -72 70 0
-53 37 -36 0
-91 -47 -53 0
72 84 45 0
80 -91 -54 0
19 33 -83 0
-58 -65 42 0
-76 20 -79 0
-29 45 56 0
-12 72 -96 0
-77 -71 -76 0
-29 -31 15 0
-94 -39 -32 0
-47 -39 58 0
-51 10 89 0
-68 4 18 0
44 -28 12 0
-41 -24 -81 0
-8 -5 15 0
-17 10 -6 0
-81 -25 -62 0
-9 66 -87 0
7 10 67 0
-3 13 -93 0
-15 -85 -96 0
-25 55 -26 0
-64 -60 83 0
-31 -17 -93 0
-39 75 -23 0
89 -9 -2 0
-93 95 43 0
-18 77 88 0
-69 40 -5 0
-39 -13 27 0
-28 -12 66 0
43 9 -63 0
1 57 -10 0
-8 -89 3 0
-53 -12 -30 0
-56 -78 -70 0
-68 -6 43 0
-6 -75 47 0
-95 -72 -90 0
-94 91 -87 0
76 -100 -15 0
-44 -1 -93 0
-36 29 -1 0
-1 -18 38 0
100 58 -73 0
20 -18 22 0
-37 2 96 0
94 22 72 0
46 65 94 0
-89 5 -72 0
-95 -87 -23 0
31 -53 28 0
-7 42 72 0
41 -7 -81 0
45 94 49 0
67 58 59 0
40 58 -85 0
41 17 48 0
-25 56 -44 0
-34 87 8 0
13 68 10 0
-36 -4 -73 0
-9 74 71 0
-50 19 35 0
69 -22 -59 0
-67 45 -80 0
76 -86 96 0
-60 51 88 0
-6 -70 -29 0
89 -21 -50 0
13 -60 -99 0
-100 -18 -42 0
18 68 83 0
37 -94 -91 0
64 28 6 0
-8 -78 -36 0
-63 100 -65 0
64 36 -19 0
-95 35 -19 0
74 61 -23 0
64 88 -70 0
38 36 -97 0
46 -93 -65 0
90 53 4 0
37 -97 88 0
47 -75 9 0
15 -25 58 0
-14 -18 -53 0
82 -20 -17 0
5 27 34 0
71 35 -15 0
-59 -54 5 0
87 -80 -1 0
100 -8 46 0
-53 -75 -94 0
61 -16 94 0
72 -67 -11 0
45 -88 68 0
-91 81 3 0
-42 77 -45 0
-77 -98 -60 0
-83 12 2 0
-89 78 88 0
78 97 61 0
-60 -44 86 0
48 93 -26 0
43 -78 17 0
5 -42 41 0
-89 96 48 0
-39 47 74 0
3 -73 -81 0
68 64 85 0
64 -17 -68 0
-80 86 -61 0
24 -48 59 0
-89 -57 -88 0
-74 21 69 0
22 68 -21 0
22 -54 2 0
47 30 48 0
74 39 63 0
-58 -72 25 0
-77 -57 -81 0
-9 -19 -68 0
46 40 10 0
-49 34 38 0
53 -24 73 0
-85 45 30 0
-22 -92 44 0
25 -3 99 0
80 31 -8 0
95 100 -90 0
11 33 20 0
91 95 -55 0
83 -47 88 0
90 16 -9 0
63 8 84 0
86 95 48 0
-23 69 7 0
70 -25 -24 0
-17 -84 92 0
80 78 25 0
-63 86 38 0
88 73 50 0
-52 83 -89 0
77 -42 57 0
-28 39 -88 0
-47 96 -99 0
-74 95 90 0
55 5 -19 0
-63 -82 -96 0
-96 31 -27 0
92 -59 -57 0
-59 14 10 0
-87 -84 11 0
-39 -31 -84 0
88 39 42 0
20 -34 14 0
-95 20 67 0
-69 -51 97 0
60 62 65 0
-15 -19 -22 0
30 -4 7 0
72 84 69 0
-26 -69 -40 0
-52 -51 37 0
61 35 -77 0
66 36 84 0
55 36 42 0
-51 -31 59 0
22 46 -38 0
-36 -16 18 0
-66 69 92 0
-56 -7 89 0
-94 -67 90 0
3 -32 18 0
75 -69 -36 0
-53 -87 -4 0
-89 19 -53 0
58 65 -82 0
-98 62 100 0
59 34 -14 0
87 55 -3 0
