p cnf 200 600
109 124 -195 0
21 -111 165 0
-25 133 186 0
-127 36 117 0
156 77 189 0
3 142 -24 0
54 -33 185 0
86 -169 175 0
-61 170 174 0
170 73 186 0
96 -131 -39 0
27 -152 60 0
-3 -142 -166 0
-60 200 -50 0
-158 -14 -93 0
-177 -131 -73 0
13 -29 171 0
138 18 89 0
-3 23 -147 0
-141 -46 84 0
-43 127 199 0
-72 -51 180 0
-22 2 123 0
-179 -8 -27 0
144 -80 -129 0
-170 -19 176 0
20 172 43 0
-57 -176 29 0
144 -65 106 0
-70 -74 139 0
19 -45 162 0
-122 80 112 0
87 24 -134 0
-179 144 -141 0
150 -56 -118 0
165 98 -46 0
-70 -57 -79 0
182 -102 36 0
139 -48 -163 0
2 -176 54 0
-87 -72 -162 0
170 162 24 0
-125 -163 -29 0
-81 95 -21 0
-107 -136 15 0
22 172 179 0
-188 -78 -180 0
160 146 -137 0
187 166 -127 0
-55 -100 105 0
172 -8 132 0
180 46 -126 0
-174 76 182 0
-182 79 -156 0
60 61 -168 0
-100 -98 198 0
119 -101 199 0
47 150 179 0
138 -98 -73 0
-50 163 143 0
127 -98 69 0
-146 121 -129 0
-140 111 -71 0
13 -108 121 0
-108 -183 86 0
48 -187 -57 0
185 -62 -92 0
133 -82 -143 0
-92 189 181 0
-1 -90 38 0
121 -44 -25 0
148 -1 188 0
140 -21 101 0
35 124 -5 0
-135 -32 -165 0
106 -33 -191 0
66 123 87 0
54 -179 -48 0
-173 86 108 0
123 -192 -157 0
-122 -8 -69 0
-7 -78 -193 0
-11 19 -128 0
-189 16 110 0
86 -19 137 0
150 40 -57 0
195 -119 103 0
68 -120 60 0
11 92 120 0
175 32 -150 0
195 117 -189 0
-15 -101 -22 0
128 -103 -187 0
-180 60 14 0
164 76 -33 0
-140 -169 -144 0
118 45 17 0
-94 106 -50 0
-77 -34 -183 0
161 -6 144 0
-46 30 172 0
10 -116 105 0
112 -68 -91 0
60 95 -53 0
79 109 175 0
76 91 44 0
-43 -117 5 0
-189 3 -27 0
-61 -4 -22 0
156 -63 93 0
-72 77 -88 0
179 -186 -38 0
-70 -128 -191 0
69 98 18 0
-74 160 187 0
-194 177 57 0
-171 86 178 0
-94 8 24 0
-101 148 115 0
101 5 -128 0
123 5 88 0
73 130 121 0
-140 -85 -162 0
191 -30 112 0
-178 -149 84 0
-107 55 -41 0
190 178 -14 0
-45 123 171 0
46 -28 -17 0
-37 -24 148 0
-161 176 116 0
15 68 52 0
50 -111 -53 0
64 14 -111 0
125 -44 -9 0
-92 20 125 0
116 40 -109 0
178 195 53 0
-165 -47 163 0
-69 -87 92 0
-55 -11 -98 0
62 -143 175 0
-44 28 187 0
89 91 103 0
139 1 45 0
6 -61 31 0
179 5 -57 0
11 -199 10 0
-167 89 -55 0
-51 9 38 0
106 -43 114 0
-127 -5 117 0
-144 -153 -103 0
93 184 105 0
94 66 -114 0
60 135 123 0
158 14 67 0
192 -134 101 0
125 54 -168 0
-55 108 189 0
17 51 -39 0
-188 102 142 0
58 47 -142 0
136 142 -27 0
-102 -118 136 0
-58 80 -124 0
-184 15 28 0
151 -73 62 0
156 -135 128 0
-12 -107 -97 0
115 12 88 0
176 -85 53 0
33 89 135 0
-77 -69 -175 0
152 119 -86 0
-43 149 73 0
-176 -141 92 0
-141 38 20 0
51 -160 -89 0
-102 119 61 0
-7 34 36 0
-70 -1 -124 0
-75 49 -17 0
89 107 -171 0
-74 7 -103 0
47 94 86 0
-126 -146 86 0
-189 47 -12 0
-162 167 193 0
147 -6 18 0
28 11 113 0
-75 185 -192 0
140 -32 -66 0
184 -127 -189 0
51 91 133 0
60 -55 -154 0
-20 54 182 0
-19 160 -30 0
196 -156 143 0
-12 75 44 0
191 34 127 0
70 111 20 0
-174 -107 145 0
200 118 -103 0
130 -165 20 0
-65 98 48 0
189 4 -72 0
-31 163 157 0
171 53 101 0
-90 -80 152 0
-168 199 -51 0
148 -98 170 0
45 29 96 0
188 163 -192 0
-22 15 20 0
-135 -159 79 0
-8 -78 -95 0
-165 -98 -138 0
124 20 194 0
-168 -103 23 0
-116 136 200 0
-25 146 -60 0
177 42 151 0
-78 141 130 0
121 -24 -176 0
-63 -197 -23 0
-27 50 198 0
-96 57 135 0
39 -176 21 0
41 58 -118 0
154 -114 7 0
173 -193 125 0
-51 -111 69 0
78 30 -70 0
12 68 77 0
-95 28 110 0
-24 -142 3 0
89 41 -121 0
-181 -123 -78 0
-178 -180 38 0
188 -185 -56 0
-49 29 -5 0
-70 -100 -108 0
-107 -56 185 0
-166 73 81 0
170 157 -68 0
10 7 147 0
1 -125 -111 0
133 108 100 0
10 -67 114 0
-104 -82 -32 0
147 -186 -154 0
64 -151 186 0
192 58 -97 0
-27 -77 34 0
154 -191 158 0
-14 -128 99 0
26 105 -95 0
17 57 -25 0
-155 -142 -144 0
70 60 -121 0
-153 82 95 0
75 -74 157 0
-15 188 55 0
153 -110 163 0
47 94 -181 0
3 141 -181 0
-100 25 -2 0
-48 43 81 0
-156 67 -69 0
-42 154 -57 0
168 146 6 0
198 -11 -1 0
-166 -100 -38 0
-182 -174 -94 0
-187 5 21 0
52 70 102 0
-200 149 -46 0
95 155 4 0
-30 186 -197 0
-53 -5 84 0
-181 -59 187 0
-65 41 -107 0
-78 -113 -184 0
91 -95 -60 0
168 -196 -105 0
-14 184 -45 0
23 44 169 0
18 101 183 0
-24 188 -158 0
48 21 -149 0
-55 -188 -190 0
-57 20 -41 0
19 156 77 0
167 -111 166 0
193 67 -14 0
57 -174 125 0
-95 -11 -41 0
-35 -145 -20 0
127 -155 -92 0
194 -140 100 0
-12 -56 -186 0
49 156 122 0
37 -90 146 0
-49 -138 48 0
-126 192 108 0
183 33 -135 0
-90 -163 -59 0
28 98 -65 0
-104 87 107 0
198 63 2 0
42 -113 104 0
6 90 65 0
-85 16 -75 0
192 -15 -79 0
-169 103 -179 0
29 71 99 0
-104 84 -113 0
-20 116 -45 0
-188 -193 -175 0
59 200 22 0
-61 58 170 0
-29 168 -166 0
-118 -162 -41 0
110 -76 187 0
6 -26 -62 0
-95 -19 105 0
-5 99 64 0
156 -43 38 0
63 -95 -79 0
96 142 -24 0
-100 103 171 0
186 -70 92 0
-100 -83 -138 0
-100 -61 153 0
-43 81 -50 0
-176 85 -162 0
-105 87 -127 0
89 -113 -135 0
-52 -64 -11 0
-57 -55 161 0
54 169 -167 0
-33 160 -16 0
67 -26 181 0
-179 105 142 0
113 -131 132 0
-140 75 -88 0
161 138 -156 0
-60 -22 -46 0
-137 106 -115 0
74 -177 -143 0
180 -52 107 0
112 -67 68 0
3 -140 152 0
57 -5 -60 0
5 43 173 0
-61 124 -104 0
-123 191 110 0
-39 -93 84 0
92 -119 8 0
-136 -49 -122 0
154 188 97 0
100 -173 89 0
187 185 -41 0
140 148 143 0
-139 -178 152 0
-68 154 -151 0
-118 145 126 0
189 -23 196 0
-62 -138 171 0
-152 60 -22 0
30 -170 106 0
-37 -197 -97 0
23 138 122 0
-189 37 -169 0
84 -59 98 0
-89 155 -175 0
-192 -180 -186 0
-192 52 33 0
62 -54 95 0
102 77 190 0
139 28 93 0
43 118 -88 0
106 -38 187 0
147 -23 -149 0
-55 187 70 0
190 -83 -81 0
22 51 73 0
5 -176 -163 0
-170 -19 -45 0
68 119 19 0
185 -7 -196 0
-178 48 120 0
20 -103 1 0
101 -20 -49 0
130 42 -164 0
-190 12 -195 0
80 -108 38 0
-193 -169 -37 0
131 61 66 0
-96 -140 -136 0
-110 62 127 0
188 190 25 0
-29 45 -148 0
156 65 59 0
-104 -183 -111 0
-55 -186 198 0
41 -95 -197 0
176 144 -115 0
194 -12 -63 0
138 25 163 0
160 -47 -155 0
-142 73 64 0
116 -131 100 0
-1 148 -60 0
-162 -19 39 0
114 -200 -78 0
27 -106 177 0
-115 -32 91 0
-164 193 -162 0
149 -24 -74 0
64 125 78 0
-88 124 199 0
-200 -40 -10 0
16 -113 28 0
144 106 16 0
80 43 -28 0
197 158 -97 0
174 -93 179 0
-199 137 83 0
117 69 47 0
-175 121 -189 0
179 65 59 0
15 84 90 0
-147 114 18 0
-60 75 38 0
192 -178 -153 0
63 -46 47 0
111 145 -152 0
-8 -118 28 0
-168 30 -61 0
9 153 -58 0
65 79 -150 0
171 -159 15 0
-129 136 -3 0
79 132 -146 0
-183 -143 -107 0
-35 99 -129 0
93 -137 128 0
48 85 -164 0
-128 -122 -84 0
122 -186 166 0
-189 91 -183 0
79 -172 -87 0
-185 21 86 0
153 39 194 0
-60 40 8 0
2 163 21 0
-197 85 67 0
-3 151 -99 0
-194 -113 130 0
67 33 75 0
-147 -32 84 0
-22 -85 75 0
-139 11 -128 0
-29 -105 124 0
-60 -149 171 0
91 80 -150 0
-124 127 -191 0
28 -86 -195 0
13 179 -153 0
-92 25 76 0
32 -105 119 0
186 90 -57 0
155 126 -168 0
119 172 -35 0
95 -198 -2 0
-76 -7 151 0
72 128 -132 0
-51 120 -200 0
-73 109 120 0
72 46 88 0
-90 27 136 0
-189 33 116 0
-167 -142 -7 0
-168 -53 136 0
-27 -142 58 0
-120 -71 -5 0
-11 184 -175 0
-71 176 102 0
37 -106 180 0
19 -138 -52 0
90 -75 93 0
-122 -185 28 0
-175 -52 -18 0
-143 91 -97 0
-190 -73 158 0
45 -34 -75 0
9 189 82 0
-72 75 80 0
-102 99 180 0
-53 -3 -104 0
-122 -125 37 0
-66 -25 -59 0
-70 -152 -7 0
181 -9 -18 0
89 197 189 0
-143 160 165 0
-89 19 44 0
14 3 -34 0
184 -43 -159 0
8 -10 -97 0
-167 -157 -33 0
38 197 147 0
-97 166 -64 0
90 -146 158 0
-146 -25 -44 0
-37 53 -100 0
85 -151 150 0
196 51 66 0
-112 -46 -109 0
38 9 125 0
131 -122 -12 0
-37 86 98 0
-4 -1 60 0
60 31 -40 0
-124 36 -115 0
-85 89 9 0
-150 -100 -44 0
123 191 -47 0
6 -121 145 0
-156 109 87 0
-198 148 40 0
-6 -43 157 0
160 -137 -167 0
34 -157 76 0
53 -52 112 0
145 88 -121 0
52 -154 -129 0
-16 -43 -171 0
198 -57 -200 0
-129 -132 -187 0
5 -24 -63 0
107 77 -195 0
-191 -120 -186 0
-57 85 19 0
-50 32 132 0
96 -195 -4 0
118 -143 -69 0
17 -80 -61 0
44 126 -150 0
194 179 -23 0
52 192 -21 0
154 -18 132 0
2 10 -199 0
-68 -184 167 0
29 139 167 0
-93 -65 -36 0
149 152 -125 0
-110 31 136 0
-134 58 -188 0
36 -116 26 0
86 99 -164 0
8 -27 117 0
-156 -86 -109 0
-104 22 80 0
23 -100 -186 0
113 142 153 0
-46 -160 182 0
150 -29 77 0
-140 -75 185 0
-194 -168 -9 0
185 88 27 0
-37 23 -119 0
77 -35 -115 0
-74 177 -25 0
165 -113 108 0
-56 -158 113 0
177 -128 100 0
170 18 184 0
-50 27 -69 0
-13 -95 171 0
-19 -87 -76 0
-101 -83 -200 0
-143 25 79 0
-25 59 -113 0
62 163 -194 0
140 149 -192 0
91 -14 21 0
117 -165 -54 0
-122 49 -150 0
158 -123 -151 0
99 195 117 0
-59 -55 172 0
58 -135 -171 0
-103 -194 27 0
133 147 35 0
109 -146 -194 0
81 -24 130 0
-63 96 153 0
