p cnf 200 600
144 194 44 0
83 187 -53 0
-115 -178 119 0
-168 -13 -50 0
-119 106 170 0
136 98 -97 0
-56 -132 -152 0
-91 -187 -88 0
-163 -133 158 0
-31 133 157 0
-148 2 153 0
-46 49 -30 0
190 -96 106 0
78 72 129 0
165 -102 163 0
61 -132 -130 0
111 18 -171 0
-90 172 30 0
80 -50 -179 0
61 83 -121 0
-185 45 -93 0
110 -185 18 0
-22 86 100 0
130 -15 86 0
180 48 -132 0
-167 -195 78 0
-173 -91 -104 0
132 -12 -63 0
125 8 100 0
-166 77 -75 0
-47 114 7 0
-133 3 76 0
-19 -57 -198 0
158 -76 -29 0
81 -56 -179 0
102 149 -110 0
-99 35 14 0
-62 -179 -142 0
164 -98 -101 0
-45 -63 -41 0
-188 -19 149 0
133 84 23 0
-58 -31 -145 0
-80 89 121 0
65 40 146 0
173 -176 -38 0
8 101 -121 0
40 -57 38 0
-86 23 168 0
28 150 12 0
-152 -4 -49 0
200 95 128 0
118 -109 -74 0
107 163 136 0
10 -13 -173 0
87 184 95 0
55 29 184 0
-70 37 -1 0
105 -78 -158 0
-102 -44 38 0
-197 4 99 0
-54 93 -173 0
178 83 135 0
-192 161 160 0
-132 2 77 0
161 -166 113 0
-24 -107 -77 0
-81 -67 80 0
159 57 16 0
19 -32 14 0
-115 -15 -104 0
20 -46 111 0
2 -186 -92 0
120 60 -36 0
-182 99 -29 0
-74 199 169 0
180 -188 -101 0
-159 -150 -28 0
-125 -118 -182 0
-82 -15 -101 0
84 -9 -58 0
-93 7 115 0
115 -144 193 0
164 17 -147 0
-2 -46 43 0
126 16 120 0
-18 -153 -161 0
117 81 190 0
7 162 -12 0
30 22 -53 0
161 -196 -53 0
164 -114 -109 0
60 -129 83 0
-147 4 -49 0
-61 -190 -137 0
43 187 66 0
-194 -196 -45 0
133 11 148 0
-109 -197 81 0
49 -193 22 0
-15 -91 81 0
-100 -178 59 0
-154 -167 87 0
-108 68 -160 0
141 -11 -187 0
-163 1 -157 0
-31 -110 -52 0
56 -176 -197 0
-51 38 114 0
82 141 72 0
57 48 -162 0
53 -38 -101 0
140 135 -121 0
185 107 -28 0
-94 197 -117 0
-123 -193 -25 0
178 -20 -18 0
-169 -2 200 0
-45 81 134 0
28 157 -154 0
114 -4 -71 0
138 110 -7 0
35 44 -139 0
-130 127 156 0
-198 -122 -97 0
24 68 -187 0
-119 -32 -69 0
42 46 160 0
-156 -121 170 0
99 174 -115 0
52 -151 -15 0
-49 -127 -30 0
64 12 -97 0
25 -129 -199 0
-22 -168 76 0
-71 158 12 0
166 -148 157 0
-143 -39 -191 0
-116 -151 153 0
-123 -170 -146 0
163 -50 -72 0
-193 -170 18 0
-79 29 22 0
23 26 -12 0
-1 42 -45 0
-150 -82 78 0
-183 -14 -114 0
150 133 -189 0
85 44 31 0
70 -173 3 0
148 141 50 0
91 129 61 0
154 56 -104 0
-154 115 124 0
10 185 -83 0
-78 18 21 0
-75 -137 -102 0
-138 -31 174 0
94 -138 192 0
32 94 83 0
-162 9 14 0
43 44 -71 0
-170 -187 -106 0
124 -72 166 0
108 -15 44 0
96 125 32 0
-115 -176 -44 0
-109 141 -53 0
118 74 87 0
142 150 -116 0
-35 -4 -130 0
76 -57 92 0
-154 -191 -192 0
-9 -77 -145 0
69 37 -147 0
-187 -65 -159 0
-195 41 39 0
104 35 -21 0
7 195 -109 0
89 35 10 0
111 -24 -158 0
-85 -135 -153 0
101 -140 111 0
-32 -93 -98 0
-161 138 67 0
-61 -19 -142 0
107 104 -156 0
-19 187 155 0
-102 12 171 0
-165 -179 168 0
22 -66 78 0
-189 -43 -125 0
35 34 25 0
189 -144 131 0
65 -83 -28 0
-166 158 42 0
164 174 -149 0
-167 -172 -54 0
-57 -99 -33 0
-170 18 -7 0
-182 55 95 0
44 -180 66 0
-123 -55 20 0
-190 -128 -5 0
10 -184 74 0
62 94 92 0
143 -134 44 0
156 -103 183 0
-146 76 92 0
170 -173 -9 0
-101 -127 195 0
90 107 31 0
178 -182 -171 0
-182 -56 -124 0
-8 196 100 0
-142 147 -197 0
70 -161 -101 0
15 91 -110 0
-15 147 136 0
38 152 -48 0
-70 6 100 0
-133 172 -37 0
189 -140 -28 0
87 4 -169 0
122 -25 100 0
-34 50 190 0
-38 153 -173 0
199 -25 -159 0
-86 117 77 0
-78 1 119 0
-78 19 -120 0
-186 -142 -151 0
-5 20 -101 0
-166 -60 129 0
51 -196 54 0
171 121 -149 0
26 192 167 0
-102 84 -128 0
62 155 12 0
82 115 176 0
-61 -137 -128 0
124 -52 115 0
-46 115 136 0
-82 -126 -142 0
120 -139 125 0
-75 30 46 0
-162 -144 -198 0
77 -60 133 0
190 46 -199 0
103 -137 114 0
143 -123 32 0
-155 59 175 0
77 -118 30 0
138 44 -175 0
-106 62 17 0
-197 157 97 0
-85 171 25 0
21 92 -193 0
-126 105 -71 0
-111 -108 -196 0
-138 175 101 0
45 -99 -57 0
186 -181 -189 0
172 154 185 0
-29 -113 -99 0
169 47 -198 0
66 28 -43 0
-88 137 -28 0
-39 -44 80 0
58 199 -73 0
57 87 -62 0
-135 19 199 0
-15 91 159 0
168 9 -72 0
75 -28 -86 0
-100 -35 142 0
98 -37 -83 0
128 -108 -94 0
68 21 149 0
110 -39 -52 0
-71 -90 -46 0
-194 115 108 0
191 57 36 0
20 -136 -142 0
102 87 48 0
111 131 -22 0
13 35 -24 0
-43 167 -96 0
133 -171 -33 0
-75 -40 -47 0
102 159 118 0
128 -9 178 0
107 141 169 0
7 113 -38 0
138 56 191 0
-187 -141 194 0
87 -132 2 0
-190 -51 -7 0
-156 131 108 0
-200 151 -181 0
-180 165 -2 0
159 196 -88 0
-81 46 79 0
-16 -89 192 0
198 187 72 0
-109 182 -59 0
55 19 45 0
54 -115 -176 0
16 -194 102 0
168 -119 -23 0
164 -147 92 0
-179 9 158 0
62 -28 -84 0
148 36 -66 0
-63 121 -122 0
193 -182 -82 0
-188 -48 -175 0
-174 -46 88 0
15 63 162 0
-34 125 156 0
-91 -61 -85 0
158 2 -89 0
-198 -48 31 0
61 174 -151 0
176 -138 106 0
-157 19 177 0
26 50 56 0
73 -101 -81 0
-97 -5 93 0
93 -198 64 0
91 -37 45 0
-155 -186 -17 0
-123 -111 -134 0
101 174 -34 0
1 -141 189 0
-69 -136 -104 0
-93 52 19 0
17 -97 -65 0
187 -139 -111 0
148 -123 -150 0
-14 175 195 0
-79 -28 -111 0
-73 -4 78 0
-79 -150 -67 0
144 -98 -29 0
60 -8 61 0
85 42 166 0
121 -197 -34 0
56 -131 -65 0
-180 -103 189 0
-48 -180 65 0
-94 130 -24 0
138 -69 -62 0
45 30 -159 0
146 -52 186 0
143 82 -130 0
-166 -64 -11 0
2 -88 -136 0
-125 152 -33 0
-167 -3 -103 0
23 -6 147 0
-9 156 -120 0
121 -69 42 0
144 16 -192 0
36 68 30 0
-51 47 -160 0
-69 188 156 0
-185 44 -151 0
95 86 30 0
-112 105 -76 0
6 165 119 0
-152 -134 -157 0
-76 200 -188 0
-106 -68 -87 0
171 -150 139 0
112 -123 -106 0
-173 118 -33 0
-45 -22 109 0
-197 -46 -4 0
-51 50 -49 0
78 -88 -98 0
141 126 -191 0
109 -23 -59 0
-159 -119 73 0
100 124 152 0
117 87 -92 0
-178 69 -177 0
-30 -79 -91 0
-57 -106 23 0
123 44 -180 0
-124 -6 121 0
-129 73 -25 0
138 80 -19 0
69 19 62 0
36 127 -47 0
101 -121 96 0
-169 154 5 0
-161 -168 1 0
-40 -178 -122 0
124 -62 3 0
-30 -9 -63 0
150 -37 166 0
192 -171 -134 0
35 58 25 0
12 97 -79 0
-162 -1 -68 0
141 140 -121 0
-167 197 47 0
142 66 -133 0
38 -160 167 0
-145 43 -77 0
63 -47 -106 0
47 -61 -133 0
14 71 75 0
-6 26 91 0
125 1 51 0
98 171 -166 0
-68 -185 -42 0
-109 -135 -167 0
197 129 152 0
129 -195 -58 0
-197 -139 -142 0
-145 98 60 0
-168 35 -189 0
-163 106 -147 0
196 199 -162 0
-3 -126 -44 0
66 -117 183 0
-153 142 -156 0
39 104 -139 0
12 65 74 0
79 -116 -74 0
-25 -105 94 0
-181 -113 188 0
-115 56 87 0
102 -112 -110 0
167 164 120 0
72 188 -196 0
-140 111 56 0
-139 -49 187 0
-20 59 8 0
-183 -195 117 0
-170 -12 27 0
-119 -125 -130 0
64 -139 188 0
-181 -65 100 0
122 120 144 0
-72 115 170 0
67 -20 -164 0
-10 -136 38 0
-87 107 -143 0
63 -135 -3 0
-177 123 -45 0
-182 -54 -18 0
103 53 -121 0
21 -170 -63 0
-81 -97 -76 0
-27 -127 65 0
-97 -105 -130 0
85 -125 68 0
-20 -129 -167 0
122 35 60 0
138 191 178 0
-144 196 -101 0
165 -153 68 0
-116 33 14 0
-65 34 160 0
-41 167 -153 0
56 99 -168 0
-5 -31 -57 0
22 -51 102 0
87 -55 143 0
138 79 -48 0
-120 -4 76 0
96 -196 -17 0
162 -87 113 0
-110 -72 -171 0
-47 197 126 0
-113 123 -176 0
95 70 182 0
-16 37 7 0
-135 -91 -108 0
51 42 86 0
171 -4 96 0
-140 170 29 0
-2 101 -133 0
6 63 157 0
-6 -200 -32 0
178 -145 -79 0
-3 131 112 0
-190 108 88 0
-18 -175 -77 0
40 17 -90 0
35 159 161 0
-79 -96 -120 0
115 137 -194 0
-3 -33 -96 0
-185 161 -35 0
-155 -122 94 0
140 -74 -151 0
24 78 102 0
-64 -154 33 0
9 178 -6 0
142 124 1 0
-41 135 130 0
-89 -3 33 0
-16 -31 8 0
-10 -28 68 0
159 68 55 0
167 -11 179 0
63 1 115 0
-58 61 9 0
150 -114 16 0
-179 -41 -111 0
105 -164 -39 0
-98 64 105 0
107 -69 111 0
-9 -106 77 0
5 155 -38 0
120 161 185 0
62 -59 199 0
177 -24 137 0
-71 -194 -32 0
54 80 -169 0
173 -40 148 0
-71 -108 35 0
21 23 -136 0
-164 148 -113 0
-195 83 119 0
-49 119 -51 0
-55 119 -14 0
5 -17 -94 0
126 150 70 0
13 -88 39 0
156 113 20 0
176 35 98 0
187 -15 75 0
11 155 -51 0
135 -104 -76 0
122 -81 -117 0
-11 183 -113 0
151 120 162 0
-138 -30 -168 0
-167 -115 -29 0
50 -152 189 0
-119 181 165 0
128 28 155 0
63 -83 -45 0
-72 117 -119 0
-13 -171 -153 0
107 50 196 0
-136 -103 75 0
63 153 -192 0
-148 -91 79 0
-134 146 -22 0
48 -145 53 0
-158 -67 -13 0
-47 145 32 0
194 -164 -60 0
-34 76 -6 0
130 -62 175 0
-124 199 -160 0
131 -69 53 0
64 187 39 0
196 -117 -192 0
164 123 -33 0
-87 155 -141 0
115 154 -81 0
94 -72 66 0
-59 -73 58 0
59 -137 -72 0
148 -26 18 0
-174 -111 7 0
114 -51 -31 0
22 -70 78 0
67 24 84 0
155 146 -22 0
-97 -143 151 0
120 -134 117 0
3 160 131 0
-170 -32 7 0
154 118 -174 0
177 160 5 0
-109 133 -95 0
-136 161 92 0
-108 -79 104 0
-156 151 130 0
133 28 -173 0
16 191 -86 0
60 125 -73 0
75 -5 -23 0
75 -87 -136 0
-139 49 92 0
-95 181 -57 0
-138 31 131 0
-151 173 198 0
151 126 -112 0
141 -12 61 0
-85 -6 172 0
123 -132 18 0
