p cnf 200 600
-119 10 -186 0
-130 -164 154 0
-97 117 -80 0
-130 148 -32 0
31 197 -66 0
-153 80 -47 0
9 -37 -167 0
31 -145 173 0
76 -53 -175 0
106 -85 3 0
-124 14 -102 0
-152 -93 88 0
91 70 -74 0
159 17 -120 0
-20 130 33 0
-44 -11 -54 0
13 -51 -174 0
-36 -189 -101 0
180 34 -153 0
-152 -5 115 0
-20 187 -25 0
-23 -14 -147 0
141 62 195 0
130 -156 139 0
85 -147 -37 0
71 18 93 0
-9 166 27 0
74 162 -191 0
24 103 -52 0
80 70 107 0
187 60 15 0
-66 -76 27 0
-50 97 92 0
-24 -114 -29 0
-120 102 118 0
-25 -17 -99 0
118 140 -99 0
77 -40 72 0
-185 189 -164 0
91 -188 -69 0
84 -152 37 0
176 -56 51 0
-125 176 -151 0
-118 67 28 0
162 -141 194 0
117 -152 -110 0
5 -180 -167 0
134 37 48 0
-72 -91 102 0
-14 76 -97 0
151 171 116 0
-9 63 200 0
12 -9 83 0
44 -113 199 0
164 -148 46 0
195 -106 -173 0
-195 53 -184 0
-195 132 95 0
-1 114 150 0
12 -39 -120 0
166 165 87 0
142 -164 56 0
-25 -6 -73 0
-126 157 10 0
22 62 -18 0
180 91 -144 0
-165 -53 96 0
-19 -110 153 0
165 80 -183 0
-8 181 147 0
109 97 46 0
155 40 176 0
-87 107 -34 0
164 -58 175 0
85 -176 139 0
74 151 148 0
-85 -151 -32 0
85 -93 171 0
-114 -25 -171 0
2 -57 183 0
141 -123 7 0
-191 89 49 0
76 -128 61 0
-159 89 123 0
-69 -157 75 0
-151 -103 -11 0
-170 -97 25 0
19 -80 -119 0
124 162 24 0
175 -120 -183 0
95 150 138 0
-159 90 194 0
-106 -191 150 0
-71 -7 49 0
97 113 -110 0
136 -118 -144 0
60 25 -80 0
149 -44 68 0
-54 73 -150 0
170 -155 141 0
-187 -91 -154 0
-57 -182 95 0
-7 -169 -9 0
153 -8 -106 0
45 -33 76 0
200 111 181 0
-102 -94 129 0
78 -129 -109 0
104 74 164 0
-137 -165 -71 0
-25 44 64 0
-174 -137 -152 0
34 146 -161 0
29 100 185 0
1 -93 57 0
182 -46 -183 0
188 88 -65 0
152 18 51 0
161 58 9 0
-11 -148 -191 0
-88 175 12 0
145 117 126 0
129 -61 -50 0
-141 -50 -17 0
163 128 108 0
-194 -147 -103 0
-97 183 32 0
119 39 -2 0
-109 11 87 0
-60 200 26 0
-9 -108 -83 0
-32 164 -116 0
195 -60 47 0
-131 113 79 0
-53 -161 170 0
163 62 -156 0
-81 -47 125 0
56 -38 -49 0
90 -127 189 0
36 141 -26 0
29 -157 58 0
-152 -53 -72 0
134 -178 186 0
154 -44 136 0
-196 140 2 0
-144 130 -36 0
-39 104 -67 0
-24 -12 -59 0
87 -186 135 0
-115 126 -179 0
192 -164 -55 0
-175 -129 81 0
-92 94 -97 0
80 159 -86 0
-167 70 -186 0
145 103 -44 0
167 -166 -94 0
-8 -122 -62 0
75 7 48 0
-81 -60 -38 0
76 7 -12 0
77 97 16 0
-8 -120 172 0
86 183 167 0
104 -186 15 0
18 -98 -197 0
-197 -52 51 0
93 -183 132 0
-158 190 56 0
-166 -16 122 0
-105 -81 25 0
-177 52 -102 0
151 113 59 0
156 -113 -183 0
31 -138 109 0
152 21 -194 0
68 78 -127 0
-175 -171 -149 0
20 -54 68 0
2 149 54 0
-39 -170 -191 0
180 -166 96 0
86 -148 80 0
199 -161 33 0
172 3 -169 0
116 107 39 0
98 2 123 0
26 30 -199 0
119 14 28 0
151 -41 -72 0
-116 41 -189 0
-193 -119 -89 0
37 -150 -102 0
-20 -33 153 0
179 86 -106 0
-44 137 169 0
166 -197 -145 0
-191 -14 43 0
199 24 121 0
170 -65 168 0
197 167 -155 0
-175 127 81 0
76 198 150 0
78 125 165 0
-19 -151 -121 0
155 -55 40 0
13 102 159 0
-27 35 33 0
141 -72 -181 0
174 110 148 0
98 -62 -49 0
-136 -158 182 0
-174 -59 7 0
-67 -116 -18 0
-6 196 170 0
-187 -110 88 0
-121 -153 79 0
-7 27 -79 0
-145 198 -23 0
-14 -62 59 0
-157 -32 187 0
193 -55 166 0
44 2 -139 0
-12 -71 -87 0
-146 -112 -95 0
-86 128 172 0
-69 181 -66 0
-189 -149 -127 0
168 -120 -25 0
-172 -43 13 0
184 -32 -159 0
-85 52 76 0
-25 108 -91 0
157 48 147 0
-113 -97 -95 0
-168 38 176 0
-63 100 -84 0
-193 177 -97 0
-14 190 39 0
-92 181 167 0
-47 39 -40 0
-173 135 192 0
-5 157 141 0
-109 -62 -125 0
98 -130 -181 0
-100 -29 104 0
81 -97 177 0
-44 175 158 0
-97 -10 -13 0
186 90 -168 0
30 91 -67 0
-193 119 -139 0
-29 -113 -7 0
-79 136 80 0
144 76 197 0
150 -55 -75 0
62 -175 -25 0
-78 -196 -58 0
-62 -51 143 0
-29 120 130 0
140 58 87 0
148 -118 -59 0
106 197 -134 0
119 -19 -109 0
170 39 102 0
21 165 50 0
-3 118 2 0
182 105 -31 0
17 -148 189 0
83 -22 -27 0
-5 -170 76 0
158 29 -123 0
69 -61 -167 0
-148 -164 -198 0
-12 136 -55 0
-196 12 3 0
-36 200 46 0
17 7 27 0
101 -44 90 0
-118 121 119 0
29 -111 -16 0
8 -183 146 0
-131 -126 188 0
-130 -31 -10 0
-195 100 69 0
-146 42 117 0
-110 -81 -142 0
118 60 58 0
-105 -43 -159 0
-5 -186 -171 0
101 186 -39 0
-53 98 -182 0
186 -111 169 0
188 38 171 0
39 64 80 0
47 6 -84 0
112 -58 57 0
-176 95 86 0
-26 73 130 0
132 127 118 0
26 5 19 0
51 -27 -70 0
-173 -33 146 0
32 -66 187 0
-87 152 -153 0
21 194 -59 0
-192 -113 3 0
-162 130 154 0
136 58 96 0
-168 -71 -15 0
163 113 -45 0
-127 -145 108 0
-50 -35 -179 0
49 -85 -6 0
-185 -187 170 0
-180 156 67 0
38 -98 144 0
69 125 3 0
-49 -19 57 0
74 -152 26 0
-113 188 -115 0
-161 -131 54 0
-159 53 -167 0
33 -133 169 0
111 63 75 0
57 176 158 0
-5 -190 -181 0
95 -200 -194 0
146 71 -69 0
-104 -134 -153 0
174 -191 -144 0
90 -30 -178 0
-92 -184 -13 0
-194 -3 -10 0
189 1 62 0
61 98 -116 0
56 189 89 0
-131 -50 127 0
196 -108 70 0
21 -164 45 0
-151 -57 -150 0
28 197 -65 0
131 -6 -52 0
-83 -62 86 0
120 7 94 0
-194 83 -120 0
-167 76 -74 0
-103 163 78 0
154 127 26 0
-146 68 90 0
-148 69 150 0
62 190 -173 0
-56 -190 -108 0
41 -35 -186 0
163 -81 -28 0
78 106 -67 0
-3 -77 22 0
116 42 -178 0
-30 -192 36 0
70 -131 -107 0
127 56 121 0
200 171 -93 0
63 93 140 0
115 -118 194 0
34 -133 88 0
85 -152 -64 0
29 -168 18 0
129 -92 168 0
-31 -115 146 0
-90 1 161 0
159 -139 -30 0
-9 12 109 0
-149 91 71 0
-132 188 -158 0
104 -175 -22 0
-171 97 -185 0
-63 93 -164 0
119 102 134 0
-69 55 -2 0
43 -104 -180 0
4 98 116 0
-136 -125 17 0
131 -149 -100 0
-175 -93 -168 0
26 -35 125 0
200 5 -31 0
-39 107 -81 0
99 172 -159 0
196 12 111 0
-158 180 -179 0
-101 -175 -74 0
-21 73 -61 0
-3 148 166 0
115 -186 -172 0
-128 48 -199 0
-20 -141 -189 0
200 -22 -80 0
123 43 -90 0
78 -28 22 0
-130 175 -114 0
-45 59 160 0
144 171 68 0
-120 195 -93 0
-85 16 142 0
-60 -48 -95 0
4 -14 166 0
29 99 -78 0
-46 74 -176 0
26 84 62 0
41 -195 124 0
127 -155 -143 0
19 -177 90 0
-31 -89 -100 0
-196 -36 100 0
-141 30 174 0
150 148 85 0
32 -117 -24 0
47 -180 -51 0
37 -189 171 0
102 77 -93 0
116 -35 171 0
-129 45 113 0
90 -122 52 0
55 -142 136 0
79 185 97 0
141 37 -52 0
68 157 -25 0
122 -21 -37 0
128 -81 10 0
-5 185 154 0
-19 83 154 0
-172 -156 52 0
136 172 -177 0
136 -166 43 0
61 -55 161 0
-1 -191 -44 0
38 12 99 0
-14 -121 68 0
-167 -17 -29 0
-140 94 90 0
160 148 -24 0
-171 -86 108 0
-25 71 -87 0
-60 -126 -108 0
41 52 119 0
-147 124 148 0
-130 -10 182 0
72 137 146 0
-162 157 181 0
-29 164 -10 0
-61 -172 -94 0
107 57 11 0
-166 21 -128 0
-81 192 -10 0
19 -58 80 0
-44 82 157 0
-58 -142 47 0
-195 -50 75 0
-51 -103 108 0
-84 190 144 0
145 -91 -26 0
-26 3 -99 0
-77 133 -121 0
81 58 -143 0
-30 -124 -141 0
84 164 -46 0
2 43 -31 0
33 -6 -62 0
-45 15 -95 0
-146 -169 -5 0
-169 -25 131 0
-35 70 -193 0
-184 -65 -125 0
30 36 -155 0
65 98 -19 0
-125 -173 110 0
-100 189 182 0
176 187 -67 0
58 83 -161 0
-130 69 122 0
-153 -121 166 0
55 -174 -196 0
-14 -185 196 0
-41 -5 57 0
-42 62 172 0
-157 -85 -3 0
191 -58 -121 0
-103 -8 -45 0
-52 -7 -56 0
194 173 -169 0
107 152 -139 0
45 -108 -35 0
49 -6 15 0
-25 42 148 0
187 173 124 0
-41 -186 190 0
83 -187 -87 0
-115 -17 81 0
-23 186 -62 0
195 164 -23 0
-192 -175 50 0
170 111 -61 0
-99 118 -86 0
119 -72 28 0
-187 176 59 0
-195 17 -150 0
20 123 -46 0
-167 -100 -168 0
79 106 -117 0
-100 -122 154 0
14 30 -64 0
-191 -183 -112 0
132 -69 -4 0
60 -165 120 0
-102 98 -146 0
-196 -66 44 0
-39 -52 -160 0
150 68 -6 0
63 -14 62 0
-112 75 -37 0
121 38 29 0
-166 82 148 0
-16 21 83 0
163 -8 -77 0
-37 -116 -94 0
149 -99 -44 0
95 -103 146 0
195 85 181 0
181 14 22 0
9 -114 -127 0
125 -68 77 0
-48 -143 -166 0
-11 42 -127 0
5 -198 27 0
186 192 -111 0
-168 -73 115 0
179 125 -86 0
1 -90 122 0
59 101 146 0
-16 -96 89 0
-168 107 45 0
58 165 45 0
-86 57 -169 0
12 3 184 0
39 -158 187 0
106 -53 157 0
172 182 -38 0
162 -171 183 0
4 -100 22 0
-81 -162 182 0
-169 -106 62 0
-191 114 -94 0
162 105 12 0
26 -189 170 0
13 124 -25 0
-63 192 183 0
141 38 77 0
193 -97 -138 0
169 -194 38 0
-66 -119 -153 0
96 -72 -49 0
-176 184 68 0
198 188 157 0
122 -177 -188 0
-28 -132 34 0
24 132 -57 0
142 -194 156 0
61 147 -161 0
142 -162 144 0
-52 -187 -42 0
-48 44 31 0
162 -11 184 0
-142 -36 -114 0
111 90 6 0
121 -85 -15 0
84 -97 62 0
-189 116 -38 0
174 -52 96 0
116 -83 -38 0
-5 -107 38 0
1 -181 91 0
100 168 -112 0
171 -131 -46 0
-125 -163 92 0
88 45 -101 0
69 198 -185 0
174 55 178 0
-77 168 -130 0
-142 139 -38 0
51 -105 36 0
-154 -67 -60 0
-1 158 131 0
136 -158 105 0
143 -1 -35 0
97 -83 155 0
-180 -51 -186 0
-133 19 30 0
-191 123 145 0
189 -128 74 0
102 -96 109 0
