c Modularity-based k-CNF Generator (V2.0). J. Giraldez-Cru and J. Levy
c   value n = 100
c   value m = 360
c   value k = 3
c   value Q = 0.7
c   value c = 10
c   value seed = 77
p cnf 100 360
-50 -43 -44 0
-81 -90 82 0
-14 -18 -13 0
44 48 -46 0
-40 33 -31 0
-5 89 -94 0
-19 18 12 0
-93 92 98 0
-43 -45 50 0
-14 -15 -11 0
-62 69 -67 0
73 27 -2 0
56 74 27 0
28 24 -26 0
-54 -60 -57 0
-78 5 -99 0
-66 64 -61 0
84 64 4 0
-37 -38 -34 0
-11 82 22 0
-12 19 18 0
86 89 84 0
-12 17 -15 0
47 -43 -44 0
-66 -65 67 0
69 -62 68 0
-47 -50 -46 0
-45 -50 -43 0
30 1 85 0
28 -29 -26 0
52 -56 -58 0
-83 43 -33 0
89 86 -90 0
25 24 -21 0
-36 39 35 0
-40 -34 37 0
-4 5 1 0
-73 -80 75 0
100 -95 -93 0
89 85 84 0
92 96 -100 0
45 43 -48 0
-52 58 -59 0
-20 -17 -14 0
-60 100 -32 0
-24 -47 -52 0
48 -50 47 0
50 -46 -42 0
-73 -79 76 0
94 -98 -95 0
92 74 87 0
20 -12 17 0
-24 26 -21 0
49 -42 45 0
55 -54 56 0
33 99 2 0
-28 -21 -24 0
-50 -45 -47 0
-100 -95 97 0
73 -5 -70 0
-2 71 -14 0
-19 15 -11 0
-79 -76 -80 0
36 -37 35 0
25 31 82 0
-20 -91 5 0
57 53 56 0
-27 30 -23 0
89 -88 87 0
38 39 37 0
-98 -94 91 0
-60 -91 86 0
21 -28 -27 0
71 73 -78 0
-94 96 -92 0
-22 77 84 0
-43 91 36 0
81 90 88 0
87 -90 82 0
3 10 -6 0
22 -30 -21 0
-74 79 -72 0
-16 19 -15 0
87 -83 88 0
-17 -16 19 0
-64 -68 70 0
11 -18 16 0
24 22 30 0
-95 -96 92 0
19 57 -29 0
31 -83 -54 0
-95 -100 -99 0
93 96 94 0
13 18 19 0
85 82 87 0
28 -23 27 0
-7 10 -4 0
90 89 81 0
15 -60 -36 0
95 93 94 0
-81 85 82 0
100 76 45 0
-21 44 -34 0
61 -13 -31 0
-16 -51 76 0
-57 -55 56 0
-51 -55 -58 0
93 -98 95 0
-91 -99 96 0
28 -26 27 0
-22 26 30 0
-27 29 24 0
-35 36 33 0
65 70 -61 0
93 97 95 0
-37 16 -4 0
56 54 57 0
63 -68 69 0
-53 -56 -54 0
-80 74 -75 0
-51 -63 -15 0
-100 91 94 0
77 -9 -95 0
30 29 -28 0
-78 -75 71 0
98 92 -93 0
36 90 -79 0
38 36 34 0
16 35 -21 0
85 80 17 0
78 -85 39 0
-47 -50 42 0
-26 -4 49 0
-79 78 -76 0
-81 90 -86 0
-64 39 -53 0
-80 -75 -74 0
-58 56 54 0
23 26 -30 0
23 -80 -10 0
68 65 64 0
-37 32 31 0
56 60 -54 0
-41 -47 -48 0
-87 -44 -3 0
44 -31 85 0
28 -25 24 0
-38 70 -74 0
-44 41 -47 0
61 70 -65 0
-57 54 -53 0
19 18 -13 0
-16 -18 12 0
-85 -82 -83 0
-33 -29 81 0
17 -11 -14 0
-5 2 6 0
19 11 20 0
87 90 83 0
38 78 -67 0
-84 81 -88 0
40 35 31 0
-76 71 -74 0
-14 -13 12 0
17 -42 -76 0
84 -82 90 0
39 -37 -38 0
30 -29 27 0
-10 -2 -4 0
-55 -56 59 0
46 44 42 0
-26 23 24 0
52 -53 55 0
47 -40 -85 0
18 -74 -21 0
-92 -77 -36 0
81 84 86 0
-51 53 56 0
88 89 -87 0
60 58 -57 0
21 66 -96 0
-36 -39 -37 0
15 -14 -17 0
67 -68 -65 0
76 -22 -40 0
59 -60 56 0
63 -66 -70 0
-58 -83 -17 0
9 7 -6 0
40 -34 31 0
49 43 50 0
7 -6 -9 0
56 -59 -53 0
-66 70 64 0
79 -72 -71 0
-46 -48 45 0
-88 -81 -85 0
-3 8 10 0
10 -8 -9 0
47 -48 -44 0
87 -85 84 0
83 85 -88 0
85 -83 87 0
48 84 34 0
-80 -71 -75 0
86 82 87 0
43 -41 47 0
-92 -97 -94 0
12 16 11 0
-82 79 -34 0
30 -90 33 0
-55 -52 53 0
-49 -43 42 0
-37 -40 -32 0
-92 91 -93 0
-58 55 -54 0
-35 -36 32 0
-73 -74 80 0
10 -17 -74 0
93 -91 -92 0
-43 -48 44 0
-27 -23 29 0
90 87 84 0
83 88 81 0
50 -91 -22 0
25 -24 29 0
-23 28 27 0
95 97 91 0
29 -28 -25 0
18 68 60 0
-1 9 -3 0
34 37 38 0
-28 -26 30 0
-54 -22 85 0
38 -40 -31 0
-90 -81 89 0
85 -37 -7 0
33 -28 -44 0
-49 -47 50 0
-1 7 -8 0
64 -70 -68 0
4 -12 41 0
3 -5 -7 0
-13 17 -16 0
-45 -44 -47 0
40 -39 31 0
41 42 -44 0
-5 3 -1 0
-10 -3 8 0
63 -61 -67 0
-23 30 -21 0
27 21 26 0
41 47 -45 0
16 20 -13 0
-40 32 31 0
35 27 -5 0
-7 4 5 0
91 8 67 0
-26 28 -27 0
-78 -80 -71 0
-33 38 40 0
10 8 -5 0
-9 6 2 0
60 51 -53 0
-45 -42 44 0
3 -4 6 0
76 -28 64 0
36 -40 39 0
95 -97 92 0
-46 -44 48 0
-81 82 86 0
-62 -41 -6 0
-57 55 51 0
-27 29 25 0
79 78 -71 0
61 69 -64 0
90 81 -82 0
64 -66 -68 0
21 -49 -12 0
-99 100 -96 0
-94 -98 -91 0
51 59 57 0
19 11 15 0
60 47 18 0
69 64 67 0
-46 45 -42 0
-71 80 78 0
-96 94 -92 0
29 19 38 0
-79 32 -98 0
77 78 76 0
83 90 -81 0
69 -61 65 0
33 34 -37 0
-15 -13 14 0
-73 75 80 0
-77 78 -76 0
79 -57 65 0
-99 -98 95 0
-32 39 -35 0
20 -12 11 0
-60 -53 56 0
-91 92 99 0
-75 76 72 0
-50 93 -15 0
-11 12 -15 0
-35 34 -31 0
-86 87 -88 0
79 76 -75 0
3 6 -5 0
58 60 -52 0
6 -37 64 0
-90 -88 87 0
64 65 -69 0
-92 94 97 0
-92 95 100 0
-71 84 -31 0
16 18 -11 0
-47 42 43 0
60 53 57 0
40 37 33 0
6 61 -37 0
46 -84 33 0
99 -94 -91 0
-58 65 23 0
49 -45 46 0
26 -22 28 0
5 10 1 0
-55 -53 56 0
-87 -84 -85 0
-29 -21 27 0
3 10 -5 0
-22 -21 -23 0
-14 -18 19 0
22 -25 26 0
-22 25 29 0
65 94 -12 0
33 40 36 0
-14 73 -21 0
-13 -19 20 0
-21 -28 -22 0
-60 6 -46 0
-89 -90 86 0
-93 -98 95 0
-97 91 94 0
-4 25 -64 0
-72 -79 73 0
-81 85 89 0
-24 -27 -29 0
-6 -5 -7 0
-79 -80 77 0
-53 -24 100 0
-73 -74 80 0
-48 20 7 0
47 -45 41 0
-28 25 23 0
-15 -58 -37 0
-44 48 47 0
-66 85 11 0
8 4 7 0
