p cnf 500 1375
193 -22 161 0
-149 386 -482 0
-297 375 -423 0
-120 343 -66 0
-436 -352 -278 0
101 168 -344 0
497 -201 -128 0
-159 -262 -117 0
-72 190 -421 0
229 7 -36 0
-474 -45 -305 0
-80 -132 343 0
-299 47 -276 0
196 457 -491 0
-155 -426 498 0
348 69 65 0
321 236 -219 0
-415 117 474 0
396 -86 184 0
-233 59 -14 0
-266 336 380 0
-484 62 -74 0
-66 -289 210 0
437 411 -369 0
272 -454 206 0
154 -443 109 0
-203 -275 -431 0
204 -250 474 0
485 -359 352 0
113 285 -466 0
-162 371 487 0
98 -259 -23 0
-372 376 365 0
-396 -225 -182 0
2 228 -237 0
293 466 474 0
251 -52 -115 0
158 213 -461 0
-450 -225 59 0
-361 -142 199 0
467 25 -155 0
-430 -460 -412 0
-472 -273 170 0
208 -364 324 0
-187 409 384 0
-98 191 245 0
-213 -147 57 0
390 457 383 0
-202 293 353 0
363 -179 -186 0
301 30 -170 0
-363 471 452 0
420 394 71 0
366 263 483 0
-263 -103 -81 0
317 -183 -411 0
-102 -250 159 0
33 -58 347 0
424 -366 -275 0
-402 66 -354 0
-244 -407 175 0
423 485 286 0
-248 75 11 0
-231 -86 -274 0
55 466 427 0
472 -467 -42 0
-204 -324 286 0
-212 408 301 0
-158 378 67 0
-434 -56 -334 0
-249 -17 -329 0
299 -197 44 0
-267 101 -146 0
151 -74 -69 0
-405 -417 114 0
-251 -478 439 0
-99 331 -145 0
78 -108 192 0
254 -17 -206 0
-281 -127 336 0
-143 -371 253 0
481 208 266 0
-52 449 -372 0
90 -36 -400 0
-176 337 131 0
131 409 233 0
-6 425 434 0
276 -90 248 0
-199 -128 -248 0
-306 -471 -286 0
-386 27 -340 0
-163 -159 58 0
-149 -481 386 0
69 240 115 0
38 -177 -351 0
401 -134 441 0
-175 443 386 0
-478 -248 -358 0
-71 445 305 0
283 174 -289 0
-482 -19 390 0
-381 -50 -496 0
-278 -356 -203 0
-240 -346 -428 0
-335 -212 378 0
-354 -64 459 0
20 -14 -457 0
496 285 -146 0
1 -45 -413 0
255 315 -413 0
-110 -198 -1 0
111 172 37 0
-220 340 -108 0
131 260 -284 0
-142 441 -455 0
-425 132 329 0
-481 -12 357 0
-249 369 391 0
444 -479 -363 0
-342 107 -134 0
188 -39 -181 0
207 17 395 0
-78 -255 307 0
389 415 -62 0
-276 -53 -423 0
455 -492 -469 0
88 -316 -325 0
-58 252 234 0
448 208 -50 0
54 -446 -397 0
322 167 391 0
-356 25 -74 0
370 439 393 0
-252 24 319 0
66 -496 463 0
-267 146 -362 0
388 453 -318 0
-105 124 -51 0
-195 358 -72 0
-406 432 -56 0
-189 -496 40 0
-149 265 -196 0
187 438 -58 0
-492 370 -240 0
21 -11 404 0
-14 83 -36 0
262 -493 112 0
-135 -98 -142 0
152 431 11 0
-100 -172 83 0
-83 210 114 0
272 -178 -321 0
116 482 -432 0
316 -188 227 0
196 -256 483 0
-144 -394 -37 0
-495 -132 216 0
424 243 192 0
331 -115 61 0
268 234 79 0
261 -382 416 0
-193 221 -390 0
486 -153 -494 0
35 91 -477 0
360 -17 36 0
-289 178 445 0
-463 -304 225 0
229 -419 -292 0
218 -200 478 0
333 290 -494 0
-429 -174 -33 0
-199 465 -183 0
-462 -286 -94 0
494 395 -375 0
444 487 -183 0
-327 17 -400 0
68 -345 -93 0
-458 2 390 0
-153 471 63 0
-355 -271 -240 0
66 -352 194 0
11 1 -161 0
-80 134 -308 0
-173 -178 -110 0
-162 -133 -144 0
-113 485 91 0
369 -453 34 0
-437 -89 120 0
-1 -48 382 0
-337 246 -495 0
43 -45 157 0
457 -244 203 0
-445 434 163 0
-226 -101 -347 0
321 -190 -192 0
54 419 -497 0
159 153 138 0
114 -416 -490 0
-44 -327 69 0
151 113 210 0
-249 73 119 0
89 -302 -363 0
-348 319 214 0
-306 373 112 0
282 -186 -353 0
-454 490 488 0
-423 472 469 0
-96 -236 -271 0
93 -500 -105 0
471 -462 146 0
-48 459 148 0
444 315 -100 0
-210 -101 459 0
231 360 459 0
69 371 -11 0
120 -417 171 0
-6 -232 -470 0
228 -272 376 0
428 -469 228 0
15 232 334 0
236 -360 -225 0
428 75 412 0
91 218 -59 0
75 87 -76 0
491 -155 65 0
297 17 479 0
-195 -51 236 0
374 178 -383 0
-224 -217 149 0
487 279 437 0
-228 -45 -413 0
-160 -494 -455 0
446 -406 93 0
149 -104 -481 0
-322 -3 336 0
-35 -265 360 0
-369 276 -191 0
450 -491 168 0
389 177 -198 0
-248 82 421 0
379 299 -469 0
113 -220 -414 0
-206 -228 -260 0
-198 -492 108 0
435 -414 279 0
128 -387 -56 0
486 -279 124 0
49 489 -317 0
-67 395 273 0
377 90 199 0
-160 93 486 0
-291 364 -335 0
-469 -123 363 0
-158 347 434 0
331 -250 -350 0
-376 414 -337 0
76 -397 16 0
442 238 -465 0
436 -233 270 0
-171 256 -31 0
-238 385 -200 0
-1 -96 -124 0
-72 62 164 0
-7 -329 -257 0
51 192 256 0
-310 163 -352 0
-332 -17 -137 0
363 99 69 0
-433 -169 -128 0
181 377 -272 0
-97 -487 28 0
-373 -97 277 0
-437 190 -111 0
-142 -196 -165 0
-242 204 113 0
-284 376 -190 0
-395 -451 -74 0
292 362 -278 0
-136 390 365 0
340 464 -234 0
-348 405 44 0
-500 -325 361 0
448 -28 -204 0
390 56 4 0
3 -427 -147 0
-396 -446 -92 0
-293 -286 -72 0
-105 389 155 0
-158 -215 -258 0
123 -310 -78 0
460 396 489 0
338 440 340 0
378 127 102 0
-459 345 -195 0
457 160 137 0
478 364 -151 0
2 -480 -390 0
328 32 150 0
373 -402 -28 0
-112 -306 233 0
41 455 -52 0
-361 398 -84 0
-352 26 401 0
-12 353 -241 0
109 18 -424 0
-6 394 -232 0
208 250 392 0
-466 44 451 0
-8 499 92 0
157 -343 -456 0
85 -272 -452 0
-33 -320 -84 0
12 -111 -69 0
-222 12 346 0
476 -132 470 0
297 -384 -149 0
246 -232 -248 0
218 62 84 0
25 -182 -10 0
462 -391 -426 0
267 29 230 0
-441 479 -477 0
146 248 225 0
434 -363 -96 0
195 403 346 0
-177 -59 128 0
105 235 158 0
-106 474 -350 0
-117 67 -163 0
286 -233 7 0
-239 52 277 0
-254 -407 434 0
-168 159 -268 0
-160 497 -382 0
416 134 4 0
-149 -137 -327 0
-136 -495 299 0
-459 179 -264 0
-215 194 -43 0
340 -20 -143 0
-147 221 -33 0
-476 203 -415 0
-481 159 98 0
183 174 113 0
222 -456 38 0
348 434 -440 0
178 295 114 0
-188 -416 -55 0
331 436 -421 0
-279 302 98 0
435 161 -252 0
-137 -200 -153 0
190 217 458 0
49 50 -499 0
20 -333 -391 0
366 101 340 0
-126 288 130 0
325 -227 -334 0
378 96 -42 0
-367 -414 -3 0
-252 173 390 0
103 382 368 0
-466 -244 287 0
484 -361 -48 0
125 299 74 0
300 -395 -82 0
361 -129 78 0
-483 192 442 0
-290 69 -77 0
28 -309 -313 0
267 215 -224 0
-105 409 229 0
-313 366 -187 0
321 192 166 0
329 103 -87 0
245 361 115 0
-112 -432 16 0
-321 -479 421 0
238 -439 318 0
-119 121 -161 0
69 296 460 0
277 -346 120 0
-111 268 -480 0
296 -345 -456 0
-27 101 424 0
-272 -353 -317 0
-298 129 97 0
439 -214 369 0
334 445 355 0
-87 -299 236 0
-458 398 403 0
-177 272 -98 0
-332 -231 -230 0
69 -141 450 0
429 7 -398 0
117 -106 312 0
-487 141 -132 0
-293 471 -50 0
-395 -46 177 0
-394 324 -390 0
29 63 239 0
58 -304 -68 0
461 -133 499 0
499 223 410 0
432 -111 120 0
204 131 208 0
-142 409 -11 0
-78 -25 -452 0
8 -410 16 0
-45 -278 54 0
-428 74 128 0
99 242 4 0
173 -81 -164 0
161 397 162 0
-291 432 -270 0
-110 -468 -184 0
336 38 457 0
-238 -309 279 0
-442 170 138 0
313 398 132 0
-475 -120 -3 0
205 -475 -69 0
180 -373 113 0
-227 -362 270 0
-415 -136 302 0
-484 -349 407 0
178 -356 -323 0
-163 400 -377 0
-234 145 397 0
-239 435 -44 0
-342 -67 276 0
-227 89 217 0
379 -86 495 0
414 438 -367 0
-450 -372 -497 0
338 42 -268 0
416 244 284 0
432 -456 -332 0
-57 -352 80 0
467 -381 -186 0
-30 -17 455 0
452 -134 395 0
192 -347 482 0
-39 -294 333 0
321 320 -86 0
-325 -340 470 0
262 486 472 0
-154 -419 113 0
-329 -458 -456 0
-132 -458 42 0
286 278 -229 0
6 -420 -438 0
200 -484 -56 0
116 252 -154 0
203 382 -332 0
-204 -425 30 0
116 -404 -415 0
379 195 249 0
-97 72 315 0
59 -400 -21 0
-344 -21 171 0
-279 -185 311 0
146 52 -378 0
27 -90 371 0
-379 -388 270 0
279 -322 225 0
88 -302 236 0
-248 88 -97 0
-428 -268 241 0
389 -392 434 0
-41 330 -483 0
404 -111 -207 0
433 -339 207 0
-379 10 -499 0
279 -50 415 0
-143 90 -115 0
-159 -152 185 0
150 -106 -415 0
-472 -49 495 0
408 -246 244 0
-373 335 364 0
384 3 468 0
360 -480 -159 0
-403 19 447 0
438 -157 -120 0
461 -42 369 0
-292 -345 -290 0
-336 118 -12 0
-383 -394 451 0
178 327 -390 0
-496 400 -230 0
-95 264 -429 0
-225 -334 -385 0
-271 230 -79 0
-207 321 132 0
-408 216 171 0
380 445 122 0
65 380 165 0
477 288 -309 0
-455 411 -1 0
-144 -3 467 0
-325 170 441 0
98 -18 398 0
326 -417 -280 0
-57 -192 449 0
-437 382 123 0
-298 -37 -19 0
-457 -16 378 0
-444 48 -282 0
-497 -493 -221 0
-2 -191 -346 0
-334 -311 290 0
296 -436 -322 0
-129 99 419 0
375 484 -353 0
14 310 410 0
-44 -317 86 0
-413 -107 336 0
172 32 -354 0
435 -216 -483 0
-313 -33 268 0
-450 395 203 0
12 19 -288 0
427 489 276 0
-71 -318 373 0
251 314 432 0
405 -191 230 0
309 -213 -410 0
159 -259 -2 0
-293 -318 98 0
-278 -29 -377 0
-311 386 3 0
-179 -428 480 0
-322 -134 -323 0
-468 369 272 0
88 265 -28 0
412 -4 292 0
257 -373 -11 0
24 94 -322 0
49 -204 -231 0
126 12 355 0
380 351 460 0
-221 -475 -124 0
-500 -370 155 0
325 -205 -279 0
23 -334 -404 0
400 -380 -297 0
-105 -161 -349 0
-316 -441 413 0
-97 -225 -101 0
287 -450 467 0
-166 -9 -378 0
377 -255 434 0
-385 -383 350 0
362 72 412 0
-84 -167 -463 0
494 -445 -294 0
27 74 -451 0
349 -187 301 0
-162 -3 353 0
264 275 -36 0
98 212 -74 0
455 353 -231 0
-450 79 -132 0
-204 373 -122 0
-273 62 303 0
358 -477 -376 0
-226 381 -35 0
179 -210 361 0
-27 -54 198 0
-73 -39 -122 0
11 433 -126 0
-411 389 -476 0
-238 -134 43 0
367 370 272 0
212 13 182 0
-295 163 -254 0
-386 130 32 0
-16 373 -237 0
413 494 288 0
459 -207 -363 0
-380 -278 -318 0
76 -270 407 0
45 444 380 0
-311 -74 -280 0
-201 -324 15 0
124 -239 -104 0
184 25 16 0
246 -5 -422 0
476 -113 -304 0
-159 -387 149 0
-28 44 369 0
-235 -431 186 0
428 -298 -201 0
388 206 341 0
-424 308 -394 0
137 410 -325 0
117 122 -241 0
-326 274 -463 0
-371 -43 -173 0
104 -372 436 0
-38 -499 164 0
83 -405 65 0
-394 -130 -421 0
382 422 -146 0
469 325 -292 0
-357 -124 222 0
-89 1 -56 0
-93 -238 22 0
-333 124 -454 0
353 -490 164 0
110 -306 -209 0
-316 -291 -213 0
-205 -70 309 0
-357 64 -84 0
-108 -76 392 0
-108 238 250 0
412 185 455 0
-142 375 -289 0
-304 -259 428 0
-242 -422 357 0
275 -315 -295 0
-269 148 -253 0
260 61 -430 0
-4 301 486 0
-209 -152 -113 0
301 -438 -195 0
-399 87 -481 0
220 -80 103 0
445 171 -291 0
-198 306 209 0
420 54 -72 0
209 -447 -207 0
187 313 227 0
88 357 25 0
427 -208 -278 0
-137 378 -332 0
226 191 105 0
-188 465 97 0
-427 -145 486 0
256 400 -476 0
-357 -355 454 0
194 403 450 0
-313 -306 -133 0
-75 -95 94 0
386 11 -133 0
-226 130 -144 0
-297 -153 410 0
-58 62 -146 0
-252 48 -470 0
-470 -271 290 0
-426 -276 234 0
183 180 -399 0
311 -278 -113 0
-456 -102 407 0
-147 369 76 0
69 491 351 0
456 396 -320 0
-3 -386 156 0
5 491 -218 0
136 -355 228 0
-481 260 166 0
80 -163 -382 0
222 -169 -424 0
429 -361 317 0
-405 -24 -309 0
-90 -379 232 0
-328 -83 80 0
413 4 32 0
330 261 -201 0
434 422 -42 0
-170 -21 -197 0
102 139 -323 0
-500 -101 395 0
-488 288 -194 0
226 7 -227 0
-48 -93 -430 0
-78 -130 -117 0
-470 242 -320 0
-125 -50 116 0
36 -271 17 0
-308 347 438 0
373 -310 434 0
-497 354 -386 0
230 -60 -331 0
147 7 -483 0
324 -479 302 0
-111 462 -247 0
28 423 -102 0
-125 -109 -422 0
199 385 -336 0
-446 247 -232 0
-49 393 435 0
190 -110 238 0
394 -107 233 0
405 279 231 0
-342 287 -475 0
-113 -394 350 0
157 -475 165 0
-239 391 -251 0
260 7 -411 0
-360 -217 79 0
-449 229 321 0
-196 -30 -472 0
-366 -22 435 0
338 -366 -412 0
-366 198 -312 0
294 -274 8 0
-414 -70 -121 0
-267 -208 278 0
-163 -229 297 0
291 155 414 0
-116 493 179 0
-102 341 -262 0
-145 -212 -450 0
438 -119 -215 0
128 164 -142 0
38 31 -157 0
205 -426 400 0
421 -187 -111 0
79 233 -400 0
-192 375 435 0
195 -92 -358 0
-449 -75 -160 0
147 -309 89 0
299 -298 -200 0
369 265 392 0
108 -12 -361 0
10 76 -1 0
334 93 330 0
-383 170 -458 0
-393 -454 248 0
-267 131 148 0
-187 -153 -162 0
-312 184 -27 0
259 51 -194 0
-282 484 371 0
238 -321 -167 0
-125 -87 144 0
-196 -217 -484 0
485 98 -495 0
-182 239 229 0
492 76 410 0
-67 -230 126 0
-351 85 -103 0
-359 203 152 0
485 -27 -273 0
-327 333 215 0
71 -498 175 0
192 -133 294 0
-150 396 -211 0
68 -500 -101 0
-388 -383 -290 0
-191 -264 295 0
250 -44 -78 0
-330 270 -98 0
234 174 471 0
-217 -130 241 0
-278 -244 371 0
-163 120 442 0
473 -131 -126 0
-283 -316 240 0
290 408 418 0
328 -41 354 0
108 403 -421 0
-409 155 -5 0
26 -201 406 0
80 -304 -101 0
-45 -408 -211 0
-433 -457 -15 0
70 -388 499 0
-172 390 -111 0
321 434 -49 0
44 -264 170 0
145 443 124 0
11 156 276 0
331 -417 69 0
-79 -129 -387 0
-129 -158 -206 0
379 182 213 0
-411 218 -486 0
274 7 272 0
-430 137 34 0
261 -448 218 0
-35 45 296 0
416 326 -285 0
-132 347 378 0
-115 432 207 0
360 320 251 0
111 215 -469 0
436 -176 395 0
220 181 88 0
-157 78 438 0
-496 106 -462 0
213 -443 468 0
58 323 295 0
116 28 -275 0
102 -229 -392 0
-96 150 -498 0
335 -163 -481 0
-28 -250 -132 0
178 144 -207 0
486 -165 -120 0
471 -371 -372 0
446 35 89 0
30 195 -101 0
412 178 354 0
481 -350 -81 0
97 390 456 0
376 172 449 0
446 54 -211 0
274 392 18 0
198 342 -114 0
154 415 -259 0
-477 73 -64 0
-89 -45 11 0
-463 392 -321 0
143 -488 -207 0
285 -377 -44 0
357 292 235 0
-226 7 -281 0
-191 81 36 0
-463 -172 286 0
-48 298 1 0
-379 -326 386 0
443 -499 418 0
390 -125 66 0
309 -433 -17 0
-453 233 391 0
90 112 -367 0
172 239 -355 0
397 33 -43 0
157 333 -463 0
61 -171 456 0
-108 -53 -482 0
483 -161 386 0
-402 -349 421 0
272 -1 221 0
337 263 414 0
148 278 464 0
20 447 -472 0
115 312 389 0
-423 362 27 0
-488 84 380 0
-412 316 96 0
97 -48 160 0
75 -186 -449 0
68 -459 45 0
172 23 121 0
425 201 -5 0
325 -283 220 0
-224 292 -351 0
-84 -382 295 0
-470 -467 -173 0
181 -141 139 0
-122 -31 -95 0
260 -225 -42 0
-87 411 24 0
391 69 178 0
-105 247 264 0
134 73 415 0
217 -239 411 0
-352 374 392 0
245 -325 388 0
288 120 -387 0
274 410 118 0
440 -103 -162 0
208 -369 -464 0
485 131 -302 0
219 -467 -315 0
-52 429 -399 0
184 -24 83 0
-474 175 -177 0
372 -66 127 0
170 -499 -208 0
-360 476 -227 0
205 -222 42 0
427 316 -209 0
-285 463 -65 0
27 77 21 0
488 -360 -381 0
274 254 156 0
35 -299 391 0
-209 -287 -96 0
-118 448 133 0
151 -87 -239 0
462 -218 -255 0
390 -101 -388 0
455 406 155 0
432 -30 -339 0
170 108 357 0
29 27 -498 0
-237 -376 490 0
380 398 108 0
214 -23 -51 0
-193 42 377 0
188 401 -326 0
-316 -450 -52 0
499 251 -206 0
378 145 -157 0
-417 -283 -451 0
7 -63 142 0
165 -411 -294 0
63 247 463 0
-493 173 162 0
-181 -128 -158 0
-204 318 -231 0
170 -447 198 0
93 58 -32 0
-337 240 343 0
418 496 390 0
-451 209 -303 0
380 -68 -175 0
266 -268 -257 0
445 -19 -415 0
392 246 -64 0
-231 -90 -468 0
47 41 -210 0
380 355 369 0
-315 -426 184 0
-262 427 291 0
58 -431 -141 0
-453 -156 27 0
-335 -379 -388 0
237 309 -228 0
-32 -500 462 0
316 99 300 0
-239 138 -1 0
428 223 130 0
311 -453 451 0
-198 248 -61 0
78 -81 272 0
436 158 285 0
-35 -268 -320 0
119 -116 183 0
-296 394 -121 0
112 -202 -461 0
482 312 44 0
71 -477 -154 0
-75 -447 -367 0
-373 45 -223 0
132 107 220 0
320 59 12 0
-151 -206 31 0
-8 -303 152 0
113 -389 -46 0
-405 -115 312 0
-446 -86 423 0
161 -122 82 0
-5 162 -240 0
-466 -148 374 0
48 164 226 0
-103 -156 333 0
-41 -66 288 0
-156 136 414 0
267 295 388 0
263 95 -375 0
54 -485 405 0
-420 203 -26 0
36 -129 286 0
32 -253 164 0
282 405 363 0
132 157 457 0
-387 51 -238 0
-40 -122 -250 0
-392 148 -284 0
394 -393 286 0
-109 -386 -311 0
21 488 377 0
-198 -28 32 0
384 323 -82 0
306 -243 -85 0
348 115 175 0
328 52 465 0
210 -229 -460 0
-167 258 -401 0
405 19 455 0
428 269 -60 0
-296 441 -18 0
-350 -215 494 0
-458 -55 -45 0
321 112 78 0
341 452 230 0
-222 363 341 0
10 -72 -31 0
131 -273 216 0
-222 -392 -448 0
15 154 -192 0
181 128 -151 0
372 -225 374 0
121 -135 -108 0
357 153 -207 0
179 -96 43 0
-136 -237 -68 0
472 -100 283 0
260 155 208 0
244 -68 -249 0
125 435 -61 0
-316 7 152 0
-428 -291 395 0
-234 75 -43 0
-88 -496 17 0
-131 311 491 0
-263 18 -301 0
-117 59 47 0
-366 161 -102 0
-358 -157 -473 0
-163 61 -460 0
-20 -226 281 0
251 -298 170 0
121 82 383 0
-191 -13 385 0
-183 -154 -405 0
453 -471 -399 0
370 62 12 0
402 -484 -104 0
233 -237 -236 0
277 174 282 0
386 253 115 0
438 -441 440 0
433 457 285 0
-93 459 168 0
203 244 -191 0
218 -476 189 0
340 371 269 0
-4 461 127 0
107 -93 105 0
79 -199 -174 0
-6 -52 373 0
-316 177 -325 0
440 364 -89 0
46 354 188 0
408 -200 -188 0
-56 -484 -448 0
177 -22 -119 0
-77 349 -238 0
-167 -440 -181 0
-54 349 -55 0
-470 -445 -371 0
150 -86 -238 0
-226 -365 219 0
-157 -464 -298 0
252 258 333 0
-15 -151 176 0
137 -305 313 0
-26 30 358 0
-129 -310 -396 0
91 -73 241 0
321 185 -288 0
-377 499 95 0
286 262 -147 0
-12 -77 41 0
-53 -289 -65 0
107 317 -406 0
160 388 -77 0
45 -401 55 0
-42 206 211 0
-255 -123 491 0
-58 -311 -329 0
25 -57 -366 0
400 345 422 0
309 409 -263 0
442 496 -420 0
417 35 168 0
281 43 -193 0
61 -411 -229 0
113 59 -235 0
-476 -281 -318 0
15 -98 185 0
-217 -135 -437 0
-460 51 281 0
285 -307 -424 0
-458 -4 -231 0
482 203 339 0
-282 96 -188 0
-131 142 401 0
-7 60 -454 0
319 134 -83 0
-200 219 340 0
-44 443 -52 0
44 -175 482 0
91 53 -28 0
360 303 -77 0
-375 -481 404 0
500 226 -48 0
256 131 287 0
438 394 -267 0
392 239 11 0
204 357 181 0
120 -340 -121 0
489 429 185 0
-455 451 -304 0
370 -309 -27 0
-279 127 383 0
-314 -324 -450 0
-17 -175 163 0
-39 -97 126 0
-430 248 -260 0
-467 486 230 0
121 -344 299 0
484 -274 -257 0
-411 480 -286 0
-94 -25 261 0
219 -25 -107 0
-39 181 -312 0
109 377 -396 0
455 295 -204 0
183 462 -379 0
317 -387 -493 0
130 -283 79 0
419 341 32 0
12 48 -142 0
-489 -103 -59 0
212 -251 369 0
-9 -270 152 0
5 -406 368 0
385 93 81 0
438 29 110 0
-379 98 -457 0
230 112 484 0
440 -398 -67 0
-375 -100 -307 0
361 485 -35 0
-393 -391 -294 0
-455 294 217 0
-62 -243 436 0
185 -417 297 0
55 -307 -3 0
-187 32 8 0
129 -455 -63 0
-323 -338 492 0
12 464 -207 0
-188 20 246 0
-269 420 -414 0
379 43 -142 0
346 10 132 0
-35 499 -459 0
76 -492 272 0
-75 175 -311 0
-97 88 -130 0
-415 139 -179 0
287 260 55 0
445 -424 266 0
439 -123 -253 0
220 297 -267 0
164 470 323 0
288 -198 325 0
-124 394 418 0
42 -480 -158 0
76 399 -1 0
-488 -197 -159 0
-178 369 -65 0
-189 133 -65 0
211 -480 -64 0
-143 -207 -132 0
-213 82 -147 0
121 140 -393 0
335 -288 -147 0
-392 40 -10 0
497 268 -361 0
-127 -83 289 0
396 377 274 0
-227 436 5 0
477 -225 4 0
-295 500 385 0
28 -248 -77 0
184 431 -112 0
373 111 -154 0
381 95 440 0
46 82 116 0
-276 -58 418 0
-32 53 -120 0
-403 -29 -444 0
256 34 8 0
47 497 443 0
-500 -399 -394 0
-185 284 -54 0
89 294 201 0
214 490 -355 0
-22 -399 -32 0
389 262 -349 0
-212 -166 430 0
53 334 -344 0
-111 133 -312 0
221 -149 410 0
52 3 -302 0
301 151 -81 0
12 352 -188 0
38 281 344 0
116 205 239 0
-214 493 494 0
444 323 -145 0
-331 -194 367 0
156 -208 338 0
366 220 306 0
-170 -256 260 0
128 -440 160 0
-44 286 -101 0
-335 -367 213 0
365 104 -386 0
42 -448 -140 0
156 333 -324 0
196 -228 16 0
-169 -476 -255 0
436 18 169 0
-367 88 -159 0
-187 -95 -79 0
-208 53 -368 0
-131 420 59 0
-321 373 153 0
-462 -314 11 0
-468 131 -333 0
244 393 500 0
-66 -384 -328 0
413 419 275 0
-483 380 71 0
-375 -176 -486 0
40 161 429 0
-122 346 104 0
79 156 82 0
-300 175 139 0
362 429 63 0
460 62 -185 0
-405 258 346 0
-243 382 -107 0
-419 499 -176 0
-229 199 64 0
275 287 -212 0
40 254 398 0
-52 201 451 0
22 -148 320 0
458 379 174 0
482 -458 -344 0
87 23 -264 0
-269 -258 235 0
153 337 314 0
-158 79 -253 0
-325 237 73 0
-59 262 31 0
-3 426 -10 0
334 -155 -63 0
-26 243 -260 0
-332 -344 80 0
-204 364 462 0
-281 150 -25 0
-192 -375 332 0
478 8 -320 0
57 -223 8 0
-285 -121 34 0
-464 -372 -493 0
-244 9 -217 0
-448 -373 -433 0
-258 295 -379 0
425 204 4 0
44 -170 -141 0
-73 -260 -171 0
-210 151 -118 0
-176 -29 82 0
284 -308 289 0
229 -92 -350 0
-186 -484 -487 0
-1 6 427 0
139 -26 153 0
294 -330 266 0
179 22 130 0
-258 -115 52 0
425 -153 397 0
-254 -214 177 0
132 465 -207 0
211 -151 -49 0
-465 340 224 0
47 -347 -333 0
-471 226 -413 0
-76 -431 498 0
-391 180 270 0
-125 455 66 0
-376 96 281 0
-203 -75 -20 0
462 471 -245 0
-98 456 -84 0
-92 -254 238 0
-473 265 -172 0
-14 8 -165 0
117 191 138 0
56 442 -194 0
289 370 145 0
106 291 299 0
39 13 255 0
-428 -92 146 0
-400 -117 479 0
189 442 259 0
439 -171 -472 0
395 -14 323 0
-483 -94 -57 0
-284 -328 26 0
499 -356 367 0
329 172 474 0
36 -444 188 0
-39 328 -500 0
-47 307 406 0
-212 -430 214 0
-323 -281 -35 0
122 -125 107 0
-172 -392 -285 0
8 180 -190 0
429 308 177 0
175 431 -484 0
-80 -274 240 0
416 -174 231 0
143 -312 -51 0
396 43 297 0
-226 -467 -293 0
259 169 463 0
258 -124 -485 0
-405 -130 301 0
-388 -420 130 0
343 -149 -402 0
-45 -224 230 0
-50 -494 207 0
418 440 -349 0
164 88 -134 0
271 -238 495 0
-431 351 458 0
499 315 51 0
-155 185 70 0
323 -362 498 0
-415 369 -11 0
223 410 93 0
349 -7 264 0
-327 -382 475 0
457 149 263 0
-63 -191 -131 0
161 352 -216 0
430 22 489 0
175 -330 -290 0
497 428 -145 0
270 -319 -193 0
-2 118 -166 0
137 -141 -444 0
-361 -68 -340 0
-270 258 -296 0
-201 150 -316 0
-375 175 -160 0
-285 -218 -1 0
287 424 306 0
305 251 101 0
36 -376 425 0
-156 -449 162 0
279 -411 -59 0
-269 -174 -282 0
-299 -309 170 0
-25 221 -10 0
-70 -233 293 0
-122 -258 -84 0
168 118 145 0
192 -208 99 0
477 -121 479 0
-256 -345 329 0
243 86 352 0
-106 475 160 0
317 249 455 0
398 -421 -255 0
462 -337 311 0
-422 -176 -69 0
499 344 -382 0
400 -27 329 0
-147 -179 -241 0
343 -341 222 0
-219 -279 287 0
476 239 197 0
119 93 -271 0
36 -256 433 0
357 434 257 0
-477 359 -288 0
-128 -364 -494 0
