p cnf 500 1375
285 -128 148 0
14 -400 -294 0
22 165 266 0
-39 446 336 0
441 171 -362 0
-417 -101 -343 0
492 -478 315 0
-128 -188 136 0
-151 264 310 0
205 455 195 0
352 8 423 0
-148 -198 83 0
-421 -409 248 0
495 320 475 0
451 19 485 0
196 260 -89 0
-333 55 66 0
406 -161 -424 0
-160 -170 153 0
-151 -279 -369 0
-177 -327 -89 0
212 460 106 0
-445 92 -301 0
31 -251 458 0
223 -64 -258 0
459 -66 -108 0
-331 297 214 0
-48 -332 87 0
-194 91 -298 0
116 -292 -395 0
-156 77 -120 0
258 352 425 0
372 109 -487 0
-141 24 -217 0
-387 138 154 0
190 197 177 0
-139 -9 325 0
-356 214 499 0
153 211 -77 0
-206 -231 140 0
-485 -182 -343 0
-444 -116 -410 0
-386 -363 -392 0
-457 33 127 0
-192 479 415 0
117 -370 178 0
-264 483 -362 0
-467 -428 229 0
321 37 -154 0
-284 289 -53 0
-175 406 442 0
257 2 -316 0
376 112 -390 0
-297 -113 101 0
-120 373 340 0
-349 472 104 0
37 263 320 0
-159 212 -125 0
-284 333 -442 0
-461 -238 -109 0
183 9 -112 0
-307 52 229 0
489 -301 13 0
309 -302 -158 0
-94 257 39 0
-451 -448 1 0
-355 -121 -485 0
372 96 227 0
340 -86 73 0
209 -425 306 0
349 -10 337 0
35 289 -379 0
166 -450 330 0
-438 -472 217 0
-166 -445 226 0
-44 -489 -330 0
128 -298 303 0
293 89 -446 0
347 15 -484 0
339 480 374 0
374 -345 -199 0
179 161 292 0
-482 228 -43 0
-480 -198 269 0
418 -300 -24 0
-404 -253 477 0
490 444 -123 0
13 -95 156 0
23 -351 -311 0
-280 -264 -274 0
-96 -10 -118 0
-13 -247 -263 0
332 178 76 0
-241 -63 53 0
407 -136 -237 0
-417 49 418 0
-326 365 -480 0
370 491 88 0
116 -389 454 0
-14 491 288 0
107 80 207 0
-364 -353 -181 0
493 -63 375 0
-254 -189 -433 0
-142 264 180 0
-117 108 245 0
411 210 -5 0
377 -320 161 0
472 -188 16 0
349 311 -337 0
-424 -240 335 0
94 1 -374 0
-89 476 -44 0
352 487 432 0
396 48 131 0
243 16 426 0
417 -300 451 0
-281 -438 194 0
-282 -244 -121 0
-73 -441 -163 0
398 -280 -347 0
146 186 458 0
-273 198 -22 0
177 49 137 0
-47 -452 -114 0
-17 416 -134 0
205 -187 474 0
494 -101 -447 0
48 34 -202 0
-39 -291 356 0
463 -95 105 0
-28 -181 -211 0
193 -363 224 0
429 -405 -199 0
-274 -441 327 0
-352 -7 16 0
-271 -159 -409 0
231 243 32 0
-337 429 466 0
-368 304 -492 0
-263 169 -428 0
56 9 115 0
-260 -138 198 0
222 -227 -492 0
-141 259 119 0
-213 -166 -285 0
86 -451 -328 0
-85 465 -247 0
-225 15 -53 0
-73 259 -149 0
37 -413 45 0
-404 -205 129 0
313 -454 -471 0
149 -192 241 0
-313 -2 279 0
-175 173 228 0
293 225 -328 0
298 86 -438 0
-329 -338 -282 0
123 290 -90 0
299 -207 -413 0
94 -252 -133 0
9 -288 254 0
336 -303 162 0
-339 -2 405 0
-4 -187 -111 0
379 -491 200 0
218 -205 352 0
-88 118 170 0
-456 -23 -280 0
-286 -406 27 0
202 283 421 0
-341 -434 24 0
-317 -291 -218 0
245 -134 482 0
-147 120 -407 0
-389 -245 232 0
-383 -53 347 0
194 -250 -112 0
467 187 462 0
469 6 -408 0
223 217 215 0
80 208 453 0
55 -71 442 0
79 129 -330 0
-347 174 -49 0
185 -258 -18 0
-9 466 474 0
347 370 360 0
-255 177 116 0
-6 -403 88 0
488 392 -144 0
-67 -297 -159 0
-402 302 307 0
383 109 230 0
-282 -71 418 0
-316 499 -138 0
287 -80 -67 0
-84 451 -284 0
-187 218 120 0
-335 186 441 0
-449 -228 461 0
-32 -304 52 0
-310 108 392 0
269 440 -48 0
-101 -309 180 0
289 392 440 0
442 -186 -197 0
95 -102 -354 0
332 -184 -370 0
-367 -481 335 0
102 -247 -419 0
428 445 240 0
-200 -141 -485 0
-228 -3 347 0
-442 -96 40 0
132 -64 -474 0
-427 -79 -499 0
-147 473 -387 0
-475 -129 167 0
7 236 -379 0
-273 345 155 0
-478 86 -333 0
-379 432 -181 0
426 442 -181 0
165 -465 208 0
-432 473 -64 0
-269 -443 263 0
416 136 -348 0
-289 416 -35 0
38 -177 -460 0
-72 149 -157 0
381 15 -140 0
344 -60 -49 0
-12 380 -409 0
103 -384 -19 0
-448 2 -18 0
-244 173 -197 0
274 308 442 0
238 153 340 0
182 432 330 0
-215 -45 -1 0
-96 434 73 0
-304 127 391 0
455 -167 -175 0
16 -135 -52 0
8 -366 -388 0
-477 200 52 0
-203 -83 -111 0
-432 235 127 0
-402 429 -256 0
-109 -455 -306 0
391 192 -165 0
-232 -472 -291 0
-489 -383 22 0
-149 -121 -413 0
48 -243 250 0
-369 -144 463 0
-290 349 -45 0
-182 -171 339 0
287 -497 -304 0
-460 -203 -455 0
183 113 5 0
315 52 312 0
-124 500 51 0
-485 -75 41 0
-276 -294 127 0
492 -408 -474 0
-272 449 456 0
59 311 -149 0
-204 -55 102 0
63 148 -195 0
489 406 -49 0
267 -339 482 0
7 223 239 0
442 -445 -450 0
-157 -465 143 0
-1 -34 85 0
58 235 -41 0
-331 -146 410 0
-216 -4 31 0
-53 -148 -197 0
-60 353 -457 0
-361 185 156 0
98 234 214 0
446 -243 -68 0
53 -360 -78 0
-99 -337 500 0
222 -325 286 0
341 -470 79 0
-189 26 -345 0
-6 117 -187 0
12 32 -153 0
-474 131 175 0
-365 -20 135 0
-105 -497 27 0
278 379 -252 0
30 -242 -50 0
-131 234 -22 0
-279 377 -337 0
-101 219 -5 0
307 -91 324 0
267 -107 -101 0
469 -80 370 0
160 -241 438 0
343 -181 -408 0
287 359 100 0
377 -102 398 0
-77 39 452 0
98 263 -60 0
399 424 -174 0
-129 -282 470 0
-146 -119 -61 0
215 -455 -15 0
355 10 342 0
68 51 125 0
55 140 363 0
371 -494 -290 0
-358 370 398 0
-28 35 -125 0
-437 155 391 0
92 289 305 0
405 149 -288 0
265 385 -374 0
-301 -241 -59 0
-201 -303 264 0
-263 116 345 0
354 -193 256 0
-61 430 245 0
8 134 133 0
80 -304 -231 0
-254 126 -241 0
-115 -207 -355 0
64 24 387 0
-360 243 67 0
-205 -105 -172 0
443 104 -428 0
427 96 -426 0
-428 -347 -368 0
-333 207 -204 0
-9 500 -359 0
55 -131 -334 0
81 -55 129 0
-64 51 -255 0
152 275 -61 0
440 -371 -18 0
80 -406 -11 0
-124 160 493 0
-90 -420 263 0
337 -148 335 0
-492 497 19 0
-396 57 -16 0
-342 -113 -485 0
398 -197 305 0
137 -30 356 0
-485 -488 69 0
-62 450 -106 0
-286 358 298 0
-406 446 -303 0
339 -429 448 0
-376 -177 39 0
461 283 195 0
33 199 -366 0
-500 342 300 0
318 198 72 0
-221 -472 28 0
473 95 63 0
229 -310 246 0
478 44 -290 0
-487 254 -245 0
252 -129 239 0
463 493 -84 0
-176 82 226 0
145 274 -228 0
244 114 -93 0
-454 208 -303 0
-166 209 -437 0
26 -168 100 0
-112 -419 334 0
-257 -66 -379 0
-41 -418 -193 0
141 -287 -428 0
95 -433 240 0
359 -287 288 0
357 101 242 0
-74 -347 -127 0
-98 388 -399 0
55 493 -482 0
-478 137 -347 0
-266 -80 360 0
-33 -76 478 0
-354 -129 -404 0
-453 -112 -407 0
353 146 -175 0
-431 -187 293 0
-99 162 496 0
78 -427 -5 0
344 -261 -61 0
-27 264 -185 0
334 250 136 0
-208 -42 -115 0
189 115 69 0
-97 447 -444 0
-389 104 -274 0
455 261 -325 0
340 173 -144 0
174 220 415 0
33 -471 -181 0
28 320 -148 0
98 431 14 0
-242 152 -358 0
-196 -106 249 0
-459 -28 217 0
361 -41 -313 0
57 -465 444 0
-210 -295 -138 0
-261 388 -262 0
-146 -239 -420 0
-377 -450 242 0
225 286 133 0
23 323 308 0
-26 -129 141 0
-199 -341 -170 0
-127 -207 202 0
206 131 -259 0
-339 80 149 0
391 154 -245 0
205 197 340 0
-359 208 267 0
437 334 500 0
-271 165 -243 0
-244 267 16 0
141 -412 -146 0
138 156 -47 0
92 -451 80 0
31 -238 46 0
161 418 170 0
-274 393 480 0
148 -70 489 0
493 101 -267 0
284 196 324 0
-161 -24 -78 0
-214 334 -93 0
-470 157 115 0
307 -265 -428 0
425 476 361 0
-292 -15 126 0
-94 -115 396 0
-94 -199 417 0
-414 -485 -441 0
369 50 105 0
433 221 456 0
-32 322 -192 0
316 -144 43 0
25 382 364 0
394 321 -222 0
311 357 -344 0
-378 -245 174 0
-266 -365 -53 0
49 196 384 0
59 -351 434 0
184 -278 462 0
-246 -190 224 0
288 -42 176 0
465 436 497 0
116 328 209 0
-258 421 -103 0
-159 368 -145 0
-339 -125 483 0
360 -112 94 0
244 286 -45 0
321 316 -356 0
-295 -179 -153 0
-136 -322 -189 0
26 -137 195 0
-401 -17 -123 0
192 -235 324 0
217 -115 402 0
80 -161 326 0
359 185 348 0
-79 -293 202 0
-168 -360 322 0
-53 -109 347 0
-176 -148 -297 0
-181 319 340 0
-373 333 -116 0
382 155 357 0
288 -469 286 0
-459 -57 302 0
-259 75 -270 0
476 50 404 0
-56 194 -234 0
388 458 163 0
-53 -213 -112 0
158 -68 -17 0
466 497 453 0
-119 -99 -359 0
228 -271 -174 0
202 469 -417 0
24 342 20 0
-303 -70 106 0
-65 224 138 0
-430 409 86 0
-464 427 -68 0
-194 -106 16 0
182 -60 -165 0
43 -388 -424 0
-206 467 -305 0
-44 -326 -419 0
241 -160 -460 0
-83 347 -185 0
-114 423 -498 0
388 -254 220 0
437 -489 492 0
-378 -232 197 0
-380 418 -424 0
374 9 -285 0
297 316 323 0
-480 -230 -252 0
-263 258 -340 0
318 242 -67 0
-423 477 -200 0
352 -361 330 0
-207 25 -432 0
316 -374 181 0
-321 -296 -461 0
-384 -245 -38 0
373 87 193 0
-462 481 483 0
-307 201 325 0
394 276 -127 0
289 -59 -250 0
9 -280 63 0
-98 383 181 0
-132 297 -272 0
327 -290 359 0
431 435 471 0
267 388 393 0
-177 206 153 0
-344 193 260 0
353 186 -444 0
130 -442 -282 0
143 391 368 0
-421 -363 -320 0
-376 246 189 0
-124 444 59 0
100 150 292 0
-387 115 259 0
-392 254 181 0
-483 -73 -189 0
-150 219 -3 0
360 -329 65 0
499 -411 -124 0
256 471 -56 0
-492 -435 40 0
318 -76 -252 0
248 -383 218 0
-107 -233 -241 0
399 -248 -115 0
-241 57 339 0
191 -429 -246 0
216 -302 304 0
290 -30 298 0
190 326 -331 0
-17 -356 -426 0
-305 318 -89 0
241 338 -436 0
58 78 497 0
-202 -300 284 0
-166 -158 467 0
-103 -486 105 0
255 279 298 0
-18 -287 -212 0
-13 237 -1 0
186 237 475 0
-323 239 34 0
-156 -128 -191 0
-291 -272 179 0
354 -278 270 0
189 -271 186 0
29 -152 -154 0
-257 93 261 0
-486 107 -287 0
169 -140 -444 0
-253 -320 257 0
-228 173 -56 0
210 -185 351 0
-456 493 276 0
-368 255 -108 0
167 75 -360 0
-228 -390 362 0
423 390 273 0
348 389 383 0
9 22 484 0
195 396 277 0
96 -211 414 0
-13 181 8 0
-420 413 -62 0
-332 418 362 0
-26 282 -235 0
-356 -173 255 0
472 -43 448 0
-108 -409 -51 0
-21 83 292 0
472 -91 32 0
458 197 -186 0
32 245 -438 0
433 -250 -375 0
-483 -95 296 0
-53 242 -266 0
303 -492 33 0
457 -339 -403 0
-335 -454 479 0
105 288 -180 0
-382 -398 189 0
473 -178 180 0
269 32 -342 0
-245 296 356 0
318 419 -270 0
-64 -484 392 0
-278 188 76 0
464 251 159 0
-377 -461 2 0
193 -475 194 0
-471 -62 176 0
462 -316 272 0
-408 242 -369 0
-424 149 25 0
221 197 156 0
-148 -217 -140 0
60 -372 -437 0
-449 -263 -48 0
-122 151 -464 0
142 216 -132 0
-207 110 -56 0
239 -334 31 0
-78 -265 404 0
-116 434 -78 0
317 493 -83 0
463 -396 226 0
185 79 240 0
133 351 425 0
136 299 319 0
248 -19 -347 0
-118 -359 -393 0
77 -70 -273 0
292 452 -34 0
372 414 -304 0
187 166 -259 0
-346 269 -497 0
345 -212 -406 0
-498 48 -45 0
-128 472 -237 0
-417 -28 -140 0
-187 -441 -362 0
-189 -460 298 0
-434 -369 8 0
89 -21 -1 0
-148 -133 -289 0
-333 447 171 0
79 -389 -168 0
-414 244 140 0
289 447 217 0
23 -79 142 0
267 -341 310 0
-402 472 493 0
-67 449 390 0
-343 161 -285 0
-346 96 238 0
-434 145 52 0
-313 457 -138 0
-109 -89 97 0
-229 8 -7 0
275 -340 -458 0
-483 -448 279 0
429 342 -107 0
125 -270 453 0
-489 -429 -44 0
16 469 -81 0
-325 318 -148 0
112 -448 495 0
268 -423 -35 0
352 -380 332 0
-88 48 429 0
-232 148 -334 0
77 -32 -60 0
-305 375 371 0
-43 -169 -304 0
-190 368 -475 0
-490 -426 -247 0
-101 69 265 0
-383 -159 -412 0
-447 -334 330 0
429 -224 342 0
198 165 -5 0
-430 -221 -82 0
109 302 -267 0
406 152 -44 0
321 384 -93 0
301 -62 -260 0
-494 1 -425 0
47 485 259 0
-124 -119 -472 0
-317 419 11 0
201 -378 -15 0
70 266 -43 0
-491 226 -106 0
-383 30 -217 0
-171 -172 292 0
123 32 -336 0
159 140 76 0
-377 212 -499 0
-178 243 -31 0
-92 -184 305 0
-32 -55 -281 0
141 11 125 0
12 -454 -335 0
28 27 158 0
209 -348 267 0
-265 -236 165 0
-418 -4 -242 0
425 432 -369 0
-344 -452 165 0
36 283 175 0
-178 471 134 0
51 -500 -424 0
-452 -438 -248 0
-429 261 159 0
-22 -233 379 0
355 449 258 0
-3 -65 381 0
376 335 -336 0
69 -308 445 0
-390 481 487 0
326 489 -69 0
-19 -246 -71 0
-240 150 -166 0
351 -354 339 0
32 332 166 0
93 365 -479 0
-199 297 104 0
-430 334 95 0
92 344 -118 0
50 439 210 0
-179 -44 258 0
102 -455 363 0
152 -333 -129 0
410 50 -184 0
-284 -415 -167 0
-59 -17 -175 0
-202 -447 -263 0
302 -410 -490 0
301 87 -96 0
116 -263 448 0
96 -367 -115 0
91 392 -314 0
-226 81 -200 0
54 -249 145 0
344 330 -253 0
-371 65 -57 0
-277 159 -439 0
-420 24 383 0
455 308 -297 0
-336 -485 -67 0
132 338 -214 0
5 23 -330 0
-139 -398 -234 0
96 -346 -103 0
-210 -407 -201 0
454 -177 -260 0
468 86 -497 0
369 8 103 0
-86 400 339 0
119 456 266 0
-462 199 -211 0
127 -19 45 0
-90 -213 -276 0
416 489 143 0
-20 -306 108 0
-303 -105 -432 0
-170 350 -364 0
74 -217 287 0
408 -340 -466 0
76 399 490 0
-333 412 430 0
-101 331 -333 0
-356 343 -211 0
-85 -131 -480 0
-381 -357 -194 0
401 -87 227 0
243 -473 66 0
180 22 187 0
-411 254 -414 0
-495 -262 -103 0
263 150 227 0
-420 182 159 0
-418 182 -210 0
-441 175 91 0
-267 -408 -134 0
58 -178 481 0
16 -145 -490 0
-418 -16 354 0
-397 287 169 0
-317 78 463 0
-113 -34 206 0
-37 -207 -493 0
290 -379 457 0
471 279 -309 0
-147 -212 -213 0
306 -349 -226 0
-113 -131 398 0
2 397 -91 0
-46 -242 -92 0
115 320 342 0
-44 -305 -127 0
-426 -206 157 0
215 42 -120 0
414 338 10 0
332 26 -156 0
-82 354 -52 0
-113 133 108 0
-113 -264 -259 0
371 -315 -463 0
-372 -83 326 0
302 15 372 0
95 6 256 0
356 -471 -331 0
-134 179 316 0
-200 455 -102 0
-271 469 -242 0
271 -217 -84 0
-475 481 394 0
244 466 463 0
328 146 -228 0
-73 -136 -83 0
228 221 274 0
211 444 49 0
-307 -124 53 0
168 329 -466 0
-191 -140 -119 0
-242 -453 -318 0
-432 49 79 0
-34 -210 357 0
-456 -196 -271 0
-61 -188 497 0
403 -230 2 0
-282 -334 -218 0
241 476 -207 0
250 149 143 0
371 -151 -435 0
408 191 -288 0
96 -424 -223 0
495 336 -414 0
310 227 -157 0
103 3 -431 0
319 -29 -276 0
78 -308 330 0
110 -245 -348 0
-408 -308 -235 0
-326 -74 -415 0
348 -444 -181 0
165 325 317 0
-323 -39 388 0
77 -496 196 0
-262 -299 -483 0
-483 -417 -311 0
240 -403 476 0
-163 -371 326 0
-457 -152 -221 0
85 -185 301 0
46 -53 -329 0
293 -1 169 0
420 -204 405 0
-240 -365 -448 0
450 -62 -34 0
-428 -11 107 0
95 284 266 0
69 -15 73 0
-27 388 -417 0
-228 13 -287 0
41 -54 197 0
-307 77 233 0
25 270 304 0
-405 -497 -236 0
-190 448 192 0
211 137 223 0
378 -71 434 0
-417 205 215 0
-459 281 -407 0
416 418 105 0
245 -392 -136 0
-239 -316 -362 0
-163 -101 -308 0
-326 296 -167 0
-374 376 273 0
478 90 3 0
-391 -350 61 0
-322 -149 -259 0
-307 226 185 0
-170 -478 -238 0
199 -485 -228 0
-56 -430 161 0
317 -204 92 0
201 -366 -27 0
203 272 433 0
498 442 314 0
-344 -191 -273 0
-458 -462 -102 0
312 431 -180 0
-220 -133 40 0
220 -183 449 0
-361 500 -29 0
-500 -286 -86 0
-201 417 370 0
200 99 229 0
358 299 372 0
-252 -88 455 0
107 -41 345 0
495 -288 408 0
-321 -251 -66 0
36 -38 -1 0
-386 432 74 0
-343 -328 -86 0
-139 1 -326 0
-326 -201 -346 0
179 -43 -195 0
107 101 -65 0
108 407 -347 0
-255 -53 386 0
-124 -36 -250 0
-355 440 457 0
77 -31 15 0
-271 149 -385 0
-136 -24 271 0
468 411 -381 0
-341 142 -125 0
-478 37 -102 0
327 450 56 0
436 -362 -58 0
338 121 -273 0
-23 -306 498 0
-222 23 -99 0
68 449 375 0
-268 -247 -171 0
256 241 24 0
-146 -433 -59 0
88 78 94 0
267 393 -345 0
188 -294 167 0
-107 -18 369 0
14 -237 417 0
-29 347 215 0
-204 -284 -450 0
250 265 222 0
48 497 151 0
-90 76 181 0
441 34 433 0
-192 -111 214 0
68 -442 -236 0
190 -14 -128 0
-386 217 244 0
-437 -10 -18 0
-247 215 -225 0
232 443 42 0
-428 -461 -258 0
-80 -283 -385 0
148 -362 -484 0
-95 253 -368 0
-324 278 138 0
452 -228 -57 0
428 -358 188 0
11 -491 317 0
416 366 128 0
330 423 -188 0
360 -59 326 0
163 15 418 0
-118 -379 -243 0
28 196 400 0
366 322 23 0
312 75 409 0
-418 -290 -370 0
-191 -209 241 0
-178 -12 19 0
176 389 -495 0
-337 263 137 0
-108 9 -472 0
-301 -40 -268 0
217 -330 -304 0
424 462 -7 0
278 411 409 0
264 78 -20 0
440 123 254 0
-295 -417 -222 0
360 342 -151 0
-340 136 466 0
271 -282 -143 0
-88 -138 -125 0
-351 -438 -287 0
419 -170 14 0
-474 470 234 0
285 108 79 0
-110 -314 326 0
39 -474 181 0
184 -487 214 0
34 -345 71 0
370 139 -54 0
177 -317 -50 0
-295 415 445 0
-181 488 -474 0
-370 -40 -2 0
-60 279 -95 0
-346 -65 162 0
-499 387 -43 0
-367 -116 39 0
-408 289 89 0
-275 47 283 0
-214 122 -189 0
-434 -354 175 0
451 -47 -475 0
-302 -227 -170 0
-306 198 -158 0
175 -50 42 0
-379 -356 251 0
-48 -139 354 0
-216 -393 466 0
36 -12 -232 0
-446 157 -34 0
442 -452 131 0
254 27 321 0
-187 -402 404 0
381 -313 270 0
94 -54 428 0
367 285 147 0
-228 332 360 0
-364 115 -198 0
-384 83 -488 0
-464 -342 120 0
-196 322 -136 0
189 249 -256 0
496 -10 -54 0
354 31 118 0
-160 181 335 0
-65 -191 -416 0
123 432 126 0
182 383 89 0
382 242 174 0
252 111 -152 0
270 -210 67 0
404 -331 85 0
-490 227 -103 0
176 -82 188 0
429 365 270 0
408 199 -110 0
191 -216 313 0
434 -4 358 0
54 -182 191 0
-437 -255 -99 0
203 -80 220 0
102 233 -157 0
428 165 342 0
425 -221 -491 0
231 326 -143 0
-476 -191 250 0
413 346 287 0
-223 -129 45 0
131 351 -340 0
397 28 142 0
-448 -136 -231 0
-382 -49 -454 0
-101 60 -296 0
235 141 -500 0
332 -54 -473 0
230 -435 -497 0
-390 -189 -110 0
495 284 -482 0
350 140 -40 0
298 -254 -347 0
484 132 -146 0
463 -94 473 0
-217 219 -47 0
369 -478 -210 0
249 108 149 0
-38 -449 -296 0
-199 -165 481 0
286 280 242 0
-58 -229 -175 0
-56 -237 248 0
-417 122 -38 0
29 458 -154 0
483 -65 -455 0
-307 -185 96 0
-352 307 70 0
-236 184 245 0
372 -231 -5 0
-14 323 355 0
-195 60 -372 0
-459 175 -218 0
-437 -468 305 0
-305 47 -438 0
-216 300 -445 0
-102 -103 -116 0
387 481 232 0
-407 -366 -458 0
24 283 445 0
208 365 -255 0
307 84 -429 0
53 133 -77 0
-191 -445 488 0
30 -307 407 0
495 -488 -407 0
-357 -302 248 0
259 -467 500 0
497 -437 -214 0
415 184 -323 0
-140 44 352 0
100 494 -164 0
428 48 -202 0
-14 102 -26 0
16 -148 358 0
73 101 -293 0
158 -362 -144 0
-316 23 470 0
162 -61 -356 0
-276 355 -88 0
-196 267 -426 0
-466 66 -15 0
111 -264 -246 0
483 304 -19 0
192 -453 -490 0
381 270 -274 0
439 226 -494 0
-196 -285 -298 0
21 -444 -435 0
9 354 -155 0
-378 210 -370 0
413 -247 323 0
-155 -144 212 0
170 47 -162 0
-364 68 350 0
261 -132 296 0
-175 339 -85 0
-453 449 -354 0
422 -257 -214 0
397 388 410 0
-302 44 165 0
491 164 23 0
-367 -490 374 0
92 -338 -350 0
-435 291 180 0
58 203 346 0
340 374 -139 0
-94 -50 320 0
-43 330 -342 0
110 -466 229 0
-350 187 435 0
243 74 445 0
-302 -139 269 0
-17 466 300 0
468 -342 -127 0
354 -195 -179 0
19 59 -474 0
-333 -83 388 0
305 -143 -381 0
-121 93 -193 0
-494 -418 -225 0
426 -292 163 0
271 -388 155 0
259 -72 -312 0
77 -37 391 0
-84 -423 -44 0
433 -208 491 0
-449 -102 -95 0
194 -34 201 0
-111 406 -299 0
147 173 277 0
-249 312 187 0
-29 -15 -206 0
414 -387 -416 0
196 -95 132 0
400 -238 -159 0
73 247 98 0
357 140 385 0
422 -49 -475 0
314 -234 -271 0
215 -264 -138 0
-410 -208 113 0
340 41 -141 0
195 125 -435 0
411 -179 -187 0
-21 380 -43 0
-322 206 5 0
108 236 176 0
239 491 -360 0
63 -201 -59 0
-419 160 319 0
385 -235 -169 0
-11 -201 -71 0
-166 -313 485 0
105 374 -290 0
-126 381 110 0
-275 153 434 0
-438 -58 232 0
244 103 436 0
-481 334 490 0
-173 90 180 0
-497 494 -455 0
395 67 -207 0
-57 275 21 0
-430 434 -456 0
-484 395 -368 0
34 -470 -52 0
-97 280 161 0
357 432 -159 0
-316 463 -175 0
297 402 75 0
363 298 218 0
146 -258 -495 0
61 -387 -188 0
-218 234 11 0
433 71 -33 0
-257 330 413 0
38 190 255 0
-91 -3 145 0
-196 -252 -88 0
230 306 340 0
-100 130 -465 0
-317 -63 189 0
6 332 121 0
-205 409 -274 0
346 -225 -348 0
241 402 -213 0
-406 -313 -413 0
151 354 165 0
23 -404 -449 0
-147 123 -59 0
112 260 -141 0
-119 417 77 0
-381 180 200 0
-398 -137 -213 0
-391 -144 58 0
-144 -76 -54 0
-439 103 -172 0
-85 96 295 0
-124 90 -194 0
457 40 -477 0
-304 -266 69 0
-251 481 314 0
65 237 146 0
334 -133 -453 0
-412 45 283 0
350 252 -204 0
-137 -470 180 0
-123 -55 -33 0
82 243 374 0
229 21 -482 0
493 158 248 0
-413 481 168 0
207 127 -27 0
99 30 282 0
-308 417 220 0
-193 -334 -456 0
171 411 -40 0
-168 31 102 0
355 -121 205 0
-302 -1 234 0
-321 106 378 0
-462 -114 -436 0
50 427 391 0
-328 449 -51 0
349 90 208 0
-48 418 -15 0
178 -294 -274 0
295 235 240 0
253 -422 -382 0
439 418 52 0
352 -252 -12 0
365 -254 448 0
-251 330 -263 0
-324 -288 235 0
-498 -182 -32 0
-342 -46 -281 0
220 287 -227 0
124 -484 -490 0
359 -421 101 0
140 329 452 0
-206 264 -274 0
-318 447 424 0
27 -390 -134 0
-92 -60 335 0
236 -333 242 0
-466 108 -48 0
204 -21 -374 0
-15 181 -274 0
-103 -267 343 0
-243 207 -416 0
-51 218 -41 0
417 -399 -226 0
-243 358 222 0
-453 -425 132 0
87 -388 -224 0
327 -165 129 0
-17 -35 409 0
-472 -450 -485 0
36 12 3 0
-476 -118 235 0
-79 342 -139 0
427 -489 -388 0
-285 -195 -169 0
-312 -218 -330 0
-92 -312 16 0
222 241 453 0
66 -364 199 0
442 -40 228 0
375 478 -142 0
-451 427 -218 0
103 -477 248 0
243 259 -288 0
-120 344 69 0
-200 395 -408 0
-104 -111 251 0
-178 -84 132 0
310 43 -489 0
-484 329 -249 0
409 204 56 0
-322 215 99 0
-405 248 254 0
494 -49 -199 0
-71 -254 281 0
214 148 -291 0
-328 -83 -210 0
-247 324 -297 0
270 167 -330 0
-12 -403 -107 0
-205 -284 -318 0
-76 282 229 0
-265 -460 -87 0
496 386 311 0
335 141 96 0
471 -253 -327 0
-416 472 -106 0
109 -27 470 0
-364 -448 98 0
-110 -52 -444 0
-380 141 -226 0
354 281 -164 0
-310 381 -74 0
112 63 -40 0
-21 145 168 0
138 -190 -419 0
-124 89 366 0
-367 12 121 0
280 403 271 0
-113 437 419 0
89 -402 -461 0
378 -34 -500 0
-12 -390 337 0
-443 122 -376 0
405 -102 -355 0
-334 38 -197 0
19 -380 -331 0
152 -23 -318 0
169 -16 -402 0
214 444 -342 0
488 -481 163 0
-273 106 301 0
-431 -388 -101 0
153 -435 413 0
-135 -197 110 0
478 -115 59 0
486 -123 413 0
-233 234 -105 0
47 488 67 0
212 -73 -115 0
466 191 -247 0
-404 -304 3 0
