p cnf 200 420
43 176 78 0
156 101 -92 0
-137 92 43 0
-47 146 -145 0
-182 -193 102 0
77 -91 -70 0
-158 4 -92 0
-24 -200 132 0
-5 109 98 0
137 39 -172 0
186 -160 174 0
-59 101 179 0
157 185 101 0
-141 -148 -176 0
117 -75 182 0
-40 181 -17 0
141 -102 170 0
161 180 -76 0
-122 118 -75 0
-57 128 168 0
-134 -118 -96 0
-1 185 -80 0
-186 102 -182 0
58 -1 195 0
194 -146 30 0
43 145 96 0
-54 198 -154 0
-138 133 -63 0
22 49 -51 0
-61 -32 141 0
2 112 48 0
53 -194 -49 0
113 166 -3 0
-91 170 94 0
-128 30 121 0
-136 166 176 0
-47 69 169 0
76 -169 -173 0
-83 80 21 0
-98 105 23 0
105 -24 152 0
-125 -166 192 0
-174 152 23 0
-126 34 -135 0
13 -5 -171 0
-21 -190 39 0
-164 191 -192 0
176 70 -102 0
-75 110 79 0
-184 -73 -12 0
149 -181 76 0
183 174 91 0
131 -138 33 0
104 -18 -69 0
-153 150 -180 0
-7 44 -70 0
111 -161 35 0
45 -51 -2 0
9 -100 -43 0
-70 -112 10 0
-6 115 47 0
-51 42 150 0
89 71 -33 0
62 199 -12 0
54 75 189 0
87 -103 20 0
-5 -2 -59 0
199 -179 40 0
37 57 -157 0
-195 -6 47 0
161 -130 4 0
-4 -156 119 0
-135 -30 -107 0
-125 -86 196 0
-40 -131 -125 0
-197 -1 -67 0
-141 96 3 0
163 -140 82 0
30 175 -25 0
131 -184 -45 0
-91 131 -108 0
28 117 -176 0
-127 -52 -79 0
-104 173 133 0
43 177 -148 0
171 -147 -38 0
20 -166 182 0
-90 157 -143 0
-99 15 -27 0
-91 174 169 0
-67 -53 -142 0
-47 78 185 0
110 -55 -71 0
-23 -179 -140 0
-197 -122 181 0
4 162 -21 0
89 -119 -50 0
-144 8 62 0
-168 22 -145 0
187 -198 54 0
-187 104 119 0
151 9 34 0
7 -58 -193 0
-183 88 -30 0
144 -105 -54 0
136 -180 153 0
-92 -32 123 0
-139 173 37 0
169 -12 -64 0
-25 30 133 0
-98 149 -199 0
-148 62 -190 0
175 76 159 0
-179 -155 139 0
24 -181 -90 0
33 -75 191 0
-99 114 36 0
150 -26 59 0
128 -162 79 0
-8 -125 -39 0
-38 41 -56 0
-146 128 73 0
-22 -34 -99 0
62 199 101 0
170 -8 -61 0
-89 136 -16 0
67 185 -112 0
149 -198 -93 0
80 -91 -19 0
145 -196 54 0
102 122 143 0
-46 125 -128 0
46 -91 200 0
64 73 131 0
-83 -113 34 0
176 -17 -88 0
37 -176 -171 0
187 -34 29 0
-183 -105 -75 0
198 -189 -137 0
-36 -51 -14 0
67 61 174 0
-136 -173 87 0
2 -52 -25 0
124 -59 -190 0
-108 7 -135 0
-39 -43 -122 0
-195 -5 167 0
17 21 91 0
113 -112 -26 0
-117 142 140 0
127 -176 -179 0
71 50 -177 0
-176 -13 -186 0
51 114 -85 0
-177 185 148 0
2 -88 95 0
-131 -31 196 0
2 182 -40 0
147 -94 -157 0
-187 145 -132 0
14 150 49 0
29 -181 87 0
-188 153 -124 0
82 -190 -117 0
-140 56 -198 0
175 -92 -183 0
-184 199 -163 0
164 -53 65 0
1 -169 -160 0
153 -40 -143 0
-195 -29 -188 0
-101 76 -176 0
-53 140 145 0
176 -100 135 0
-92 -132 91 0
2 -66 194 0
85 -83 -182 0
-103 6 16 0
-172 48 134 0
-143 -31 65 0
110 161 191 0
52 63 57 0
46 50 7 0
-89 -62 92 0
-152 -52 34 0
86 44 -100 0
163 -85 -131 0
-46 -110 79 0
-78 -60 -144 0
62 28 -12 0
153 -126 -115 0
-85 146 170 0
-118 26 -187 0
168 195 -66 0
-142 182 143 0
36 -88 -4 0
145 88 187 0
-1 -158 -69 0
-8 -165 -61 0
-44 -81 193 0
-152 9 -102 0
17 -172 -49 0
91 11 -172 0
46 -135 -5 0
-116 125 168 0
135 -177 -130 0
-171 172 187 0
30 -163 89 0
-122 -60 155 0
161 10 -32 0
-192 179 73 0
-106 117 9 0
91 -177 160 0
-136 191 30 0
133 90 -46 0
146 -60 -91 0
-145 180 -123 0
10 -74 -11 0
19 166 51 0
-98 46 -122 0
-14 -124 79 0
-188 132 -39 0
195 162 -128 0
193 -11 185 0
-20 -155 -41 0
82 -152 166 0
107 -189 -163 0
55 179 -145 0
-176 109 177 0
-19 -97 -129 0
103 109 96 0
17 130 -173 0
179 91 157 0
-65 -170 142 0
-161 -7 -106 0
-163 -18 -116 0
-83 79 198 0
-126 -61 106 0
-148 194 22 0
56 154 -198 0
165 163 30 0
-165 70 -96 0
-81 142 148 0
107 -180 183 0
-77 190 -78 0
-44 -191 -114 0
-65 -31 -155 0
-54 -174 -167 0
-11 77 -9 0
24 23 -4 0
-60 133 -55 0
93 -111 -116 0
54 -164 -125 0
150 18 50 0
158 -178 -123 0
-133 -85 -20 0
113 116 47 0
-157 -23 -136 0
-43 142 117 0
-43 37 -28 0
-60 -57 -113 0
-15 -54 4 0
78 -130 111 0
-154 77 36 0
-145 105 85 0
64 -138 87 0
172 -156 82 0
-70 25 -71 0
-148 -171 -50 0
186 166 -100 0
45 -35 77 0
-170 171 174 0
-110 27 -62 0
167 1 6 0
39 32 -9 0
189 113 -69 0
-19 64 -173 0
22 -125 -126 0
1 168 22 0
97 3 -130 0
-85 182 -68 0
-108 -142 -27 0
-10 -79 76 0
68 -44 -29 0
-100 35 101 0
-167 -163 -77 0
165 -19 -32 0
-179 193 -73 0
-176 198 -182 0
103 164 55 0
2 75 133 0
-124 -142 -148 0
156 3 22 0
-190 65 -42 0
-5 104 94 0
-186 62 155 0
54 -51 -87 0
152 3 177 0
174 101 124 0
143 -76 -135 0
42 177 3 0
-31 152 197 0
-147 62 126 0
-96 107 -192 0
149 -9 191 0
-164 -69 60 0
-26 -148 181 0
-29 177 56 0
106 -180 103 0
18 -6 87 0
70 -116 34 0
-168 109 -14 0
-61 -200 54 0
31 141 62 0
53 -161 -107 0
186 112 -53 0
20 58 156 0
-151 -78 -182 0
144 199 -180 0
-135 -124 138 0
-17 -147 142 0
46 19 -189 0
-134 -31 166 0
-36 -9 -101 0
-197 138 -127 0
-181 -73 117 0
-67 143 -111 0
1 -82 148 0
-68 94 92 0
150 -120 54 0
-79 -69 -183 0
41 169 -2 0
-147 -167 23 0
197 2 -92 0
197 -97 -200 0
-109 -176 197 0
-75 -78 53 0
123 -175 -75 0
-183 -144 -11 0
-108 13 106 0
-131 188 -168 0
70 -84 14 0
28 -40 -122 0
-154 -161 27 0
-47 108 143 0
80 -104 54 0
60 199 -184 0
-123 -48 -13 0
-38 167 -116 0
13 70 -159 0
-77 -164 170 0
121 -79 -159 0
48 53 137 0
23 21 39 0
98 -24 76 0
-116 -26 -82 0
8 157 -158 0
-102 42 110 0
-147 168 180 0
-83 -41 150 0
71 122 162 0
-117 -51 -57 0
151 -27 31 0
-113 -180 135 0
-164 -142 52 0
181 -160 -166 0
-42 165 -108 0
191 -120 -64 0
-75 15 -13 0
-53 113 17 0
50 -78 33 0
91 -170 -23 0
1 -191 176 0
-135 141 3 0
-96 160 -90 0
-197 -16 186 0
22 71 160 0
94 45 159 0
94 -127 -163 0
14 148 97 0
-37 -44 -106 0
130 -142 -75 0
-162 184 -194 0
198 -101 -117 0
-101 -93 109 0
87 -9 147 0
115 154 176 0
-177 116 40 0
60 39 45 0
-36 -185 -26 0
-100 -146 25 0
-83 127 -160 0
79 -98 -134 0
15 -69 -49 0
13 111 139 0
7 195 123 0
71 34 -192 0
-14 -43 -28 0
101 -198 109 0
22 83 -137 0
-177 160 -76 0
110 -133 -113 0
-93 -177 -5 0
43 146 72 0
-17 83 -46 0
14 -176 -7 0
128 176 71 0
150 77 -138 0
6 70 -84 0
170 97 198 0
90 110 139 0
-113 -189 -40 0
38 -43 -39 0
-118 -10 -86 0
150 67 -77 0
112 52 67 0
-86 -158 -176 0
111 -163 31 0
181 175 -125 0
