p cnf 200 420
-171 -186 150 0
135 160 -103 0
70 43 -67 0
85 -155 -19 0
141 128 110 0
120 -52 -159 0
-93 148 -200 0
60 -87 -47 0
58 165 23 0
-87 -47 -116 0
-45 177 10 0
-108 -24 66 0
-31 -157 54 0
122 -85 197 0
12 -159 152 0
82 -4 -56 0
-30 180 19 0
-169 35 37 0
53 -144 55 0
138 123 180 0
179 73 104 0
-200 -51 123 0
-181 -192 167 0
177 -163 92 0
-32 106 -144 0
53 -131 185 0
-130 163 46 0
-92 65 -2 0
-92 -121 -187 0
17 -135 -56 0
-190 36 -172 0
70 200 -91 0
-37 -145 -120 0
129 162 -95 0
-146 20 181 0
74 -157 -90 0
-182 -13 155 0
23 -11 -109 0
-198 58 -102 0
-191 70 -13 0
109 104 -179 0
-77 -7 -84 0
-171 -1 6 0
-158 -9 50 0
-152 86 -172 0
-153 -171 -142 0
34 -90 112 0
93 165 119 0
-161 -118 -56 0
163 -6 -113 0
56 196 58 0
-190 143 187 0
167 -27 53 0
-41 -22 73 0
150 20 107 0
96 -172 29 0
-54 -72 67 0
77 148 -190 0
-161 23 106 0
188 166 -119 0
31 -92 -65 0
-27 112 167 0
191 -64 -54 0
123 153 -199 0
-88 147 -200 0
9 -36 -132 0
-177 149 62 0
-197 86 134 0
-51 -96 -11 0
-6 -96 -134 0
-168 130 146 0
62 98 -160 0
-5 187 125 0
13 -172 115 0
103 143 -88 0
-70 -130 149 0
-113 155 -32 0
65 -100 152 0
-170 -42 99 0
-39 -23 -110 0
196 28 162 0
-193 136 18 0
-88 183 -199 0
2 -175 77 0
11 92 -176 0
-72 -26 -194 0
-64 -106 -182 0
128 -92 -130 0
84 12 -139 0
-196 144 -50 0
-42 -52 -58 0
79 -136 82 0
116 71 -191 0
66 198 45 0
191 -151 142 0
118 62 -161 0
90 -50 17 0
153 -165 56 0
-81 -164 87 0
18 -189 200 0
-72 172 200 0
-187 -142 -169 0
-112 138 -39 0
-147 197 -46 0
140 -133 -104 0
-46 106 -175 0
-75 142 -109 0
-2 -128 -89 0
-45 117 -168 0
-193 152 126 0
-195 177 -200 0
76 67 113 0
-168 134 118 0
52 126 60 0
80 -122 -124 0
89 -113 109 0
52 135 -136 0
175 -179 -15 0
-198 -33 16 0
183 14 -83 0
120 -81 -130 0
43 -95 -16 0
57 -97 -82 0
21 194 -64 0
-118 -184 190 0
86 -36 -158 0
-60 -151 -110 0
-46 -188 -89 0
25 -167 106 0
-164 27 -93 0
156 86 175 0
-28 61 152 0
-117 59 -157 0
16 -104 -10 0
15 80 65 0
-196 -9 -133 0
-24 106 -166 0
-171 -82 -70 0
-77 -144 73 0
182 143 21 0
94 -62 148 0
-142 108 -165 0
106 101 -17 0
94 47 148 0
-54 -101 -60 0
143 115 10 0
-131 -133 190 0
-65 -49 -57 0
-105 4 74 0
77 124 -96 0
-196 13 178 0
162 198 104 0
-134 98 132 0
73 38 -26 0
189 -196 142 0
-65 104 -115 0
159 111 -22 0
-197 190 -103 0
40 -86 158 0
45 80 183 0
29 -198 -189 0
-135 -156 -111 0
-1 -25 -46 0
192 191 -74 0
-194 -196 -76 0
48 -7 98 0
-175 179 -59 0
199 144 132 0
138 -60 -17 0
180 -5 -52 0
-25 -104 21 0
-103 -76 -137 0
-193 -111 18 0
-5 144 -64 0
-144 20 -6 0
70 97 64 0
89 -6 103 0
-32 177 128 0
97 59 -111 0
17 -165 -27 0
172 3 30 0
155 -154 -42 0
-4 81 136 0
47 -73 -111 0
-72 198 -63 0
83 -77 -78 0
-111 -61 -199 0
-158 -168 189 0
-64 147 -137 0
-72 151 115 0
-113 134 187 0
-157 -105 -161 0
173 61 -65 0
48 85 -8 0
-162 150 63 0
127 167 137 0
159 -88 200 0
-152 -63 196 0
-71 -118 111 0
128 104 -32 0
-171 119 -22 0
-30 181 27 0
-53 -159 46 0
-164 -147 35 0
-16 170 -191 0
-19 -187 -147 0
91 43 -147 0
83 -91 -35 0
-174 -57 -98 0
-22 -123 -108 0
121 -135 116 0
133 63 -137 0
31 -99 -161 0
-4 133 -56 0
-154 26 -198 0
-185 98 -52 0
100 -10 120 0
79 67 -187 0
68 -80 -111 0
-136 -123 -186 0
196 -139 -27 0
125 135 -144 0
66 74 -179 0
-48 -125 60 0
-145 -72 1 0
-177 -40 -140 0
66 -10 -42 0
131 -19 150 0
42 -147 17 0
-6 39 11 0
26 -22 -189 0
-61 -84 112 0
194 96 -138 0
161 -52 -44 0
95 -22 -138 0
110 135 -27 0
-116 -7 34 0
-42 155 -66 0
137 89 -51 0
141 -63 -178 0
20 141 117 0
149 -39 -4 0
142 15 -167 0
63 94 -171 0
198 -84 123 0
28 198 -98 0
186 21 -144 0
130 -23 80 0
-126 45 155 0
-117 -122 72 0
-181 194 -79 0
-162 198 161 0
40 28 -80 0
-80 -194 -100 0
-133 52 -138 0
-158 97 -105 0
-154 156 -5 0
-146 169 -99 0
121 89 122 0
49 95 -70 0
-43 21 36 0
-62 -41 -63 0
191 -39 113 0
-181 86 -142 0
-190 -107 -108 0
170 -96 -179 0
99 157 -173 0
119 120 -69 0
-63 -82 -22 0
10 -159 188 0
92 143 127 0
101 -71 -78 0
-171 -97 -15 0
8 159 43 0
-96 20 -63 0
-129 -135 72 0
-170 -165 -76 0
-72 192 133 0
111 98 135 0
130 -168 181 0
-152 -40 9 0
-81 -39 161 0
-199 -68 -88 0
-128 -43 -44 0
-77 13 -21 0
-162 -105 163 0
-105 83 28 0
100 -102 171 0
-59 -30 6 0
188 -13 -166 0
11 -20 195 0
74 78 117 0
186 107 95 0
-168 -7 -132 0
-2 81 -193 0
-40 141 -33 0
-169 67 -17 0
-40 146 173 0
42 -112 30 0
106 -144 -130 0
-141 -144 -84 0
-128 49 141 0
92 -71 35 0
199 -51 -154 0
134 197 -46 0
136 177 -38 0
-155 143 16 0
165 -63 -110 0
-99 137 -149 0
52 -7 108 0
-93 116 81 0
-182 94 179 0
-2 -85 75 0
-199 124 141 0
-58 -172 -176 0
120 82 -171 0
2 -33 -72 0
-39 -160 34 0
-188 -2 -15 0
87 -101 -3 0
-42 -105 177 0
-129 -99 -35 0
-10 61 -141 0
-194 -78 -104 0
27 157 -38 0
-35 106 -158 0
-186 -151 -62 0
14 -43 -129 0
61 175 2 0
-20 149 -7 0
-169 -134 -147 0
92 58 198 0
199 89 44 0
33 179 -168 0
123 -79 22 0
-137 115 40 0
-51 14 92 0
-23 -113 5 0
10 -19 113 0
99 -116 -198 0
70 151 129 0
153 -154 9 0
-133 159 97 0
94 -93 -4 0
-2 136 122 0
152 145 -55 0
-188 -137 159 0
81 26 -134 0
-82 143 -152 0
196 -192 -121 0
-7 63 144 0
186 -13 -17 0
-4 -175 179 0
-128 70 165 0
-4 -152 83 0
-67 -60 -22 0
-59 90 180 0
87 131 -185 0
45 114 -7 0
-149 90 -80 0
-123 32 -82 0
-90 -15 127 0
-33 113 157 0
136 117 -143 0
-108 144 184 0
197 30 199 0
127 -145 122 0
-48 -131 101 0
-58 -171 -130 0
3 131 36 0
-187 -25 172 0
-112 188 63 0
-152 115 33 0
-160 -40 -146 0
-145 -92 82 0
-166 -154 -79 0
69 -180 -64 0
-160 -85 81 0
-130 91 -121 0
-195 -150 27 0
-71 55 91 0
4 -124 199 0
172 -69 9 0
136 79 40 0
-65 -118 67 0
114 -33 -188 0
64 69 -1 0
176 -132 8 0
-54 55 -191 0
-32 104 -155 0
39 121 63 0
178 -55 -81 0
-38 11 107 0
-89 -134 -1 0
121 106 99 0
-151 124 14 0
109 -91 138 0
-60 191 164 0
37 76 -64 0
-42 -115 -80 0
86 2 133 0
-98 -8 -34 0
95 -17 -155 0
-115 124 -99 0
19 -181 175 0
93 -33 -85 0
149 21 -110 0
37 -72 123 0
-197 -7 72 0
-32 101 -105 0
-13 -157 -72 0
-44 29 -150 0
195 124 166 0
35 -40 176 0
91 -153 52 0
4 -158 -142 0
-131 86 164 0
68 75 98 0
-187 165 -46 0
-187 -181 -85 0
