p cnf 200 420
124 99 -53 0
-56 181 187 0
91 148 130 0
198 -168 -167 0
147 104 152 0
186 -41 147 0
43 -120 163 0
-159 -194 161 0
4 187 -91 0
-130 15 -120 0
53 -166 61 0
-76 -120 -152 0
-92 -59 -166 0
-27 30 175 0
-79 78 17 0
-85 172 -45 0
-29 171 105 0
145 -199 168 0
43 -180 -127 0
168 5 96 0
-28 182 191 0
-88 -84 -57 0
160 46 24 0
93 14 20 0
17 -135 43 0
-80 58 -41 0
-66 21 -175 0
157 167 15 0
90 -11 -81 0
113 65 -111 0
45 114 -112 0
-163 139 -11 0
-47 118 29 0
-21 81 12 0
200 10 -169 0
58 -115 54 0
57 -191 -136 0
-186 -151 -138 0
-103 -35 -94 0
99 162 96 0
-133 -178 180 0
125 20 -166 0
-41 138 -168 0
159 64 -182 0
152 3 34 0
125 16 -82 0
189 -38 -105 0
92 163 -180 0
-19 -4 -42 0
190 112 6 0
45 131 -3 0
-59 175 -174 0
-73 94 16 0
-66 95 -178 0
-59 -128 3 0
-77 -104 -191 0
-49 158 -84 0
-65 39 6 0
134 154 52 0
154 -168 -198 0
85 106 -115 0
-27 179 134 0
100 -14 -42 0
-37 -90 51 0
125 68 57 0
-50 -102 -55 0
-158 162 164 0
140 -1 -117 0
135 145 8 0
18 97 -28 0
-5 -186 35 0
177 -9 6 0
-174 -49 -132 0
-190 -102 -180 0
-103 192 -171 0
-134 -182 -57 0
-132 -84 126 0
156 -58 -91 0
-195 83 161 0
-157 -58 73 0
-93 108 194 0
-158 -95 -149 0
6 -130 -72 0
143 124 -110 0
62 -172 165 0
157 -62 -178 0
111 -124 62 0
-120 99 -82 0
8 -16 30 0
-135 -66 25 0
-158 190 -83 0
-5 -134 -82 0
149 87 159 0
-190 -120 185 0
-127 -89 -199 0
-58 70 -160 0
42 -36 -194 0
142 -176 134 0
133 82 -141 0
72 -2 -55 0
-17 -126 -19 0
200 134 -53 0
174 43 130 0
140 -148 -113 0
-82 -182 -199 0
-13 -129 -1 0
-171 196 -25 0
41 -172 -93 0
-114 -135 17 0
-188 148 133 0
-52 26 84 0
195 -134 159 0
104 106 124 0
65 -82 -10 0
-143 -19 -138 0
-122 116 113 0
-31 129 -72 0
38 -47 46 0
200 -155 17 0
-132 -25 -79 0
35 -82 174 0
146 -56 -90 0
93 198 158 0
-91 -11 175 0
-52 -159 -69 0
137 149 159 0
99 172 54 0
-12 116 -92 0
-189 157 -104 0
156 33 -165 0
36 139 49 0
86 -145 -9 0
193 68 -154 0
-43 54 -168 0
45 -194 129 0
152 7 130 0
-34 188 -138 0
177 -145 -112 0
-179 93 122 0
-70 -124 146 0
-182 -90 119 0
-78 -28 -102 0
-135 76 -140 0
121 -171 -32 0
63 -38 -48 0
-121 -69 132 0
27 26 -156 0
130 -30 -4 0
-89 77 -19 0
180 96 -58 0
169 -64 40 0
-153 33 -192 0
92 -20 -39 0
-29 134 5 0
-99 -10 -129 0
117 3 -19 0
100 149 -33 0
191 151 -61 0
119 -170 146 0
25 -119 33 0
48 -85 -49 0
-81 -36 -29 0
-133 -146 -199 0
-14 -2 120 0
34 -53 -109 0
188 -106 136 0
46 -26 40 0
14 102 152 0
72 52 184 0
-156 96 -62 0
156 -84 127 0
92 138 -82 0
-109 -8 -82 0
12 114 -151 0
3 86 -108 0
-191 -62 -193 0
-48 -158 8 0
174 70 -166 0
-184 56 121 0
187 177 1 0
25 194 184 0
-193 -48 87 0
82 116 -92 0
49 143 152 0
-176 178 55 0
-187 199 -47 0
40 -180 31 0
38 -113 -182 0
-106 -189 18 0
47 -185 71 0
-21 39 121 0
144 -19 197 0
45 -44 -172 0
-139 -158 45 0
-148 145 123 0
190 -182 -175 0
162 -85 -70 0
181 -82 113 0
-2 -72 50 0
140 -195 -150 0
78 -96 170 0
-121 -186 190 0
-151 91 48 0
89 111 -13 0
81 198 -22 0
40 -184 36 0
91 99 -153 0
-165 -190 -146 0
188 190 -135 0
130 69 64 0
-45 -6 69 0
-2 -90 -91 0
-147 14 -37 0
-98 -164 -99 0
-183 -65 -44 0
-164 -103 108 0
-163 27 -119 0
-5 -26 163 0
-44 46 177 0
-54 -199 -185 0
-74 18 153 0
-196 -23 -101 0
-1 135 -91 0
-143 157 149 0
156 -84 -38 0
31 -151 -43 0
-136 74 18 0
77 156 115 0
38 107 41 0
-190 157 130 0
186 -34 116 0
-22 7 -133 0
18 24 -73 0
174 64 -158 0
176 150 14 0
-148 68 -58 0
-39 -10 171 0
118 -50 -14 0
31 177 167 0
39 -34 98 0
-193 -129 -175 0
174 -79 -24 0
-68 40 163 0
195 106 148 0
27 -159 -109 0
-58 -51 -181 0
-139 -109 60 0
81 -78 54 0
11 -79 -120 0
-160 53 -171 0
89 -148 139 0
146 166 86 0
82 -98 32 0
-72 162 65 0
-90 92 -3 0
119 104 2 0
198 -176 -135 0
115 -45 -178 0
3 160 -110 0
-88 -166 14 0
-121 -10 -94 0
-163 -152 -186 0
92 82 49 0
-7 198 -191 0
91 155 -7 0
153 91 -134 0
-147 -179 200 0
-161 -50 80 0
43 -144 53 0
48 153 -140 0
-86 118 -7 0
49 77 -153 0
145 143 -54 0
-39 199 139 0
162 -6 38 0
37 153 -165 0
146 -67 -82 0
-135 -75 76 0
112 -72 -2 0
-20 91 139 0
-73 118 -74 0
-79 -48 -129 0
83 -94 -30 0
14 -5 28 0
-120 199 -175 0
-151 -142 -42 0
129 63 192 0
80 13 58 0
169 161 51 0
8 -171 133 0
-103 -130 -164 0
169 -77 -192 0
196 -98 -165 0
-99 169 72 0
-159 178 128 0
10 87 32 0
-79 -49 -88 0
-161 -9 -131 0
148 -65 3 0
-102 119 10 0
59 -151 -157 0
138 -41 160 0
188 -161 -89 0
-81 164 -62 0
102 6 73 0
44 -116 -82 0
-185 -37 152 0
-23 42 -20 0
-112 114 160 0
-62 -128 112 0
-175 16 172 0
141 -95 -145 0
-192 15 -71 0
67 182 -157 0
179 86 117 0
-49 -55 -26 0
-133 17 -56 0
-112 37 157 0
-160 -2 -17 0
28 30 -64 0
174 -78 -90 0
-47 -179 124 0
62 81 111 0
-29 -151 -98 0
36 -90 -87 0
156 -193 -199 0
-195 121 -182 0
42 185 -98 0
195 140 -114 0
-101 -93 -29 0
2 -129 -22 0
-64 97 19 0
14 -27 149 0
19 -11 1 0
-99 29 16 0
29 -54 148 0
184 -27 -5 0
-123 -73 137 0
135 -123 -41 0
161 -121 97 0
3 96 158 0
-112 1 57 0
-190 184 -189 0
23 112 -179 0
179 143 29 0
-102 -117 7 0
170 -166 45 0
-185 76 187 0
-25 -180 -147 0
103 109 40 0
93 -69 83 0
185 -179 130 0
-15 -138 129 0
-16 43 20 0
-105 -161 -160 0
-192 107 118 0
-7 15 -186 0
-165 33 -134 0
-128 143 -98 0
-159 177 99 0
-175 -45 193 0
49 111 -48 0
-47 -112 137 0
-99 97 63 0
-45 186 -161 0
63 -66 175 0
150 -109 -97 0
12 36 -136 0
-36 177 10 0
-43 25 -164 0
94 56 -24 0
78 197 -181 0
-117 -170 85 0
17 42 -39 0
39 -38 83 0
-30 -123 -191 0
80 -46 -65 0
-19 79 -115 0
-64 160 -82 0
-16 -77 -32 0
84 16 -15 0
39 -185 -65 0
-195 115 -62 0
-147 -151 67 0
-182 191 144 0
-170 2 -187 0
140 80 182 0
-121 182 -16 0
19 -143 -182 0
27 134 137 0
104 -125 -42 0
198 -101 142 0
105 183 -114 0
147 -177 140 0
-27 128 -110 0
67 -168 77 0
-96 94 187 0
59 -182 -13 0
178 53 138 0
-102 -74 -6 0
143 -4 6 0
47 -136 72 0
36 33 183 0
-135 36 46 0
-163 -130 159 0
118 -101 -46 0
-41 -47 158 0
86 98 -96 0
116 161 89 0
96 153 -103 0
177 13 128 0
117 -20 -78 0
135 44 114 0
-153 -7 -164 0
-118 185 35 0
197 -156 -69 0
-33 7 94 0
105 -26 -50 0
81 -108 -111 0
-124 -181 -174 0
