p cnf 100 375
88 -81 -11 0
-3 97 11 0
95 50 9 0
-74 21 -13 0
-4 -15 -45 0
-66 -14 67 0
-20 -70 57 0
42 -89 68 0
-79 -86 85 0
92 -66 -41 0
-12 33 -58 0
61 20 79 0
80 -95 42 0
-87 77 19 0
-26 -43 91 0
95 -86 -84 0
84 -67 -44 0
86 15 65 0
80 -66 -24 0
2 17 93 0
-2 -88 -3 0
21 -94 93 0
94 51 66 0
-41 -16 -65 0
-37 -75 -44 0
-42 -55 -63 0
97 -60 46 0
-49 9 -97 0
-91 35 -5 0
78 75 87 0
18 9 -35 0
31 53 -96 0
66 -61 19 0
67 -61 -51 0
-76 -93 6 0
-51 88 36 0
28 -94 -23 0
73 61 -38 0
19 14 -64 0
-99 62 -67 0
-53 80 -31 0
-88 -76 -13 0
-29 -68 52 0
94 75 -66 0
27 51 -61 0
18 19 8 0
-18 74 -8 0
-68 53 -73 0
29 -39 73 0
57 -85 -65 0
-56 22 -16 0
-94 -86 -16 0
19 48 54 0
13 40 84 0
33 -45 22 0
-27 73 39 0
26 -14 43 0
44 -81 -28 0
82 -54 -1 0
24 62 95 0
-96 61 -45 0
8 -58 -60 0
86 26 -44 0
57 -77 54 0
86 31 52 0
59 -23 53 0
-82 -1 86 0
-52 -26 45 0
43 37 -71 0
-59 33 40 0
10 77 -14 0
55 17 51 0
21 24 56 0
44 39 -73 0
-1 13 -83 0
78 5 32 0
9 39 94 0
83 12 58 0
27 -28 29 0
-73 33 -88 0
-36 78 59 0
-22 24 84 0
-4 -72 -67 0
80 -52 78 0
46 8 -70 0
-88 72 73 0
-75 29 91 0
50 -77 -71 0
41 69 78 0
-14 -43 59 0
-62 -71 -41 0
-39 -36 79 0
-51 -67 56 0
-50 -8 -73 0
-79 -82 -71 0
97 66 -79 0
-30 -83 34 0
-8 55 87 0
28 -13 51 0
54 -50 -95 0
-15 8 -91 0
-2 9 -38 0
-2 -62 -44 0
12 -73 56 0
1 -83 -56 0
59 89 96 0
-81 -35 38 0
-63 -16 89 0
-88 14 -10 0
-92 -14 -37 0
-87 73 25 0
54 55 97 0
46 -1 5 0
-97 -5 -55 0
66 -45 -76 0
61 -70 -1 0
-19 -43 -9 0
71 14 -26 0
80 96 26 0
-94 41 37 0
-69 -88 -29 0
50 100 -93 0
49 100 -26 0
10 50 15 0
5 18 84 0
-82 98 6 0
-69 6 94 0
17 -81 -65 0
-73 12 77 0
-16 -75 -59 0
-74 75 81 0
39 57 -17 0
17 25 -82 0
92 -99 23 0
-99 35 -7 0
27 43 -33 0
-97 -74 -95 0
78 45 64 0
-49 13 -10 0
-78 -56 -60 0
32 -74 -85 0
-77 -58 -47 0
63 81 -32 0
-50 12 68 0
44 33 -47 0
-27 29 17 0
-13 86 -96 0
22 90 -84 0
45 42 8 0
-27 32 83 0
-45 -96 -69 0
28 67 -49 0
-41 78 2 0
95 99 -36 0
72 -14 -73 0
95 -79 57 0
-4 -25 94 0
-64 82 87 0
79 -62 18 0
-7 70 8 0
32 35 -87 0
49 -8 -97 0
-35 48 -73 0
-53 -59 -13 0
46 -56 -71 0
-62 -40 35 0
64 -65 78 0
51 -78 90 0
56 76 -10 0
-93 87 44 0
31 74 -62 0
62 -31 24 0
53 -22 -43 0
64 -8 83 0
29 -14 41 0
-51 -23 43 0
-19 -42 -51 0
-93 -51 19 0
-95 -36 23 0
-28 88 -2 0
-92 52 -26 0
8 -77 -60 0
-35 -2 95 0
9 10 7 0
80 34 23 0
80 42 -25 0
-46 28 -86 0
36 29 41 0
30 -40 73 0
41 -62 80 0
-19 -55 28 0
-21 81 -42 0
-51 -42 -89 0
57 -31 32 0
-34 -39 -40 0
-52 -45 -81 0
-59 -82 58 0
-87 -2 -1 0
-100 11 -96 0
41 -9 -43 0
-70 -30 -11 0
-96 40 -1 0
-23 70 -27 0
-48 25 -53 0
23 20 31 0
-8 -40 -66 0
19 -32 53 0
10 -51 -30 0
79 62 -64 0
-22 -11 -31 0
28 -33 35 0
-20 43 48 0
-35 -15 -93 0
-56 -100 -37 0
-5 81 96 0
36 -10 -20 0
4 -72 -77 0
58 4 67 0
-100 -65 20 0
49 -95 15 0
35 14 -28 0
41 45 77 0
-25 -81 -40 0
-73 63 78 0
-27 -98 85 0
51 37 -55 0
-66 31 54 0
67 73 -74 0
44 78 83 0
23 57 -76 0
15 -52 -11 0
31 -80 -19 0
1 60 -74 0
84 28 6 0
21 -35 -40 0
-86 75 32 0
80 82 -89 0
69 -80 -8 0
-28 -88 48 0
-14 90 66 0
-94 -87 -52 0
96 10 -22 0
14 -19 -8 0
-7 91 33 0
41 14 -11 0
-91 5 -22 0
9 73 -81 0
21 4 35 0
24 95 16 0
18 -57 -46 0
18 -71 86 0
58 59 88 0
23 69 -1 0
52 59 2 0
68 21 -72 0
-85 -63 -37 0
-27 -90 18 0
-7 -38 -72 0
-20 88 -89 0
-27 -65 2 0
-11 74 100 0
-50 -60 94 0
-56 25 -91 0
55 81 -39 0
-64 -88 -49 0
-23 -25 93 0
-9 83 -48 0
-56 -9 68 0
96 -28 -48 0
-82 -83 66 0
-11 -58 73 0
-19 -72 -11 0
-54 73 -46 0
-68 -89 36 0
41 -97 -47 0
79 6 59 0
98 5 -88 0
-60 2 24 0
-79 -15 91 0
-30 67 -12 0
52 49 -96 0
-5 -99 23 0
41 -78 -21 0
-46 20 -39 0
31 -20 -48 0
-89 -86 43 0
-71 20 -53 0
1 14 -42 0
26 -85 -87 0
-2 20 -32 0
44 36 68 0
52 30 46 0
-30 54 36 0
-38 85 90 0
14 43 79 0
58 39 -50 0
-53 79 -45 0
76 -55 -2 0
-85 27 28 0
-23 83 -52 0
91 -72 -27 0
65 -93 52 0
65 -81 25 0
59 -64 -15 0
-23 70 46 0
21 52 97 0
-86 53 46 0
-54 -95 99 0
-15 -3 -56 0
46 53 -79 0
-89 -64 84 0
4 -41 -72 0
-90 -42 -19 0
-64 -97 77 0
88 27 18 0
73 -5 30 0
-90 67 -33 0
-61 29 -15 0
-53 -36 51 0
72 76 -11 0
43 11 3 0
97 -49 -39 0
47 75 -100 0
-79 -38 87 0
54 -63 -36 0
43 29 10 0
-48 37 -13 0
-71 41 99 0
-27 68 84 0
-12 -98 -49 0
25 -24 -100 0
12 28 -65 0
-81 26 51 0
-68 69 78 0
-49 -40 52 0
57 17 80 0
-82 -27 -83 0
-23 -73 -11 0
78 95 28 0
24 -46 -7 0
-88 30 -29 0
-64 45 19 0
-64 -50 -30 0
-39 84 43 0
-55 14 -5 0
18 -31 -13 0
-86 -34 76 0
43 -53 -19 0
24 -25 7 0
-75 25 38 0
-37 -98 -62 0
99 -89 -76 0
50 36 26 0
9 55 36 0
-72 36 -64 0
-99 -88 62 0
-13 -28 -90 0
-76 51 29 0
24 -12 -37 0
38 -50 -24 0
10 -92 -9 0
52 -22 -18 0
-38 77 -67 0
-29 6 9 0
15 8 -65 0
54 -50 44 0
89 -79 65 0
79 75 -95 0
44 -49 3 0
4 -59 -26 0
71 -79 48 0
-7 20 -22 0
-52 -15 -74 0
-56 7 74 0
-17 -53 74 0
