p cnf 500 1625
-379 232 155 0
-88 70 -208 0
133 -213 424 0
237 -366 96 0
-173 -450 -325 0
362 338 299 0
121 -466 -107 0
228 -229 273 0
-287 -78 57 0
317 -229 -153 0
-244 413 303 0
45 34 -189 0
-463 352 -386 0
-127 -134 28 0
78 -423 -17 0
429 200 -249 0
15 394 44 0
-436 292 -302 0
-180 472 34 0
-382 112 -313 0
-148 -383 22 0
442 -238 -237 0
273 -432 -446 0
-71 -123 214 0
-60 46 121 0
135 -140 -125 0
-286 -248 277 0
-36 -257 -62 0
-161 2 82 0
-273 -208 356 0
-472 -423 -254 0
403 -414 -241 0
465 -165 -435 0
97 278 121 0
-9 -19 47 0
-291 268 -346 0
469 310 474 0
94 136 156 0
415 264 446 0
351 153 -203 0
260 80 34 0
359 256 196 0
-447 -317 -386 0
-320 -53 -180 0
-342 140 -331 0
-310 56 -116 0
-156 -90 443 0
-94 218 263 0
57 -392 -229 0
88 329 154 0
-419 241 -470 0
-440 -399 31 0
4 227 182 0
15 -54 281 0
319 -24 77 0
468 -102 307 0
381 426 93 0
-19 178 243 0
265 -91 -327 0
-236 496 23 0
175 -226 -247 0
436 -344 217 0
196 478 299 0
144 -398 51 0
262 -461 -309 0
170 391 460 0
-284 -386 312 0
485 252 202 0
65 -449 418 0
102 194 -188 0
-318 -425 -306 0
-402 -375 151 0
-143 -423 168 0
-213 -297 -228 0
486 -259 200 0
249 379 -18 0
86 387 480 0
-328 -331 73 0
-369 170 -29 0
446 59 -375 0
47 -106 -54 0
-412 13 150 0
290 -359 -58 0
-39 332 -391 0
66 -182 207 0
250 124 116 0
-498 -321 375 0
254 -203 473 0
204 -118 -316 0
-313 -495 65 0
470 228 -349 0
170 -386 -63 0
21 -446 469 0
-388 -154 -178 0
269 180 234 0
-354 133 292 0
-138 358 236 0
-492 -211 -258 0
-32 -124 -491 0
487 407 -406 0
-241 273 -395 0
191 -98 -113 0
86 166 -201 0
345 -466 7 0
-308 -1 -287 0
-99 -341 210 0
-40 -179 384 0
463 -283 -441 0
-452 -362 -64 0
364 255 -274 0
114 452 430 0
-364 225 -331 0
-393 332 -10 0
-447 -431 149 0
-108 61 448 0
-69 -447 353 0
337 48 -217 0
-351 -430 -91 0
206 -43 -448 0
-224 -244 -8 0
-418 387 -475 0
-399 346 -303 0
-67 322 -376 0
-443 -24 -370 0
-371 -103 449 0
293 476 -143 0
42 467 257 0
-174 -214 -184 0
-81 -177 -78 0
-165 -422 356 0
214 120 166 0
92 17 228 0
-119 139 294 0
148 -157 -39 0
382 417 49 0
-184 487 -336 0
-346 -344 133 0
193 -273 97 0
436 -471 -125 0
-206 99 -133 0
-377 14 -32 0
149 3 390 0
-125 -426 294 0
261 -88 42 0
-112 154 431 0
362 -202 -117 0
391 -476 201 0
-351 119 47 0
415 92 425 0
-13 -477 33 0
-336 -291 27 0
492 103 -449 0
-12 402 -82 0
354 137 124 0
310 -70 -204 0
286 409 -153 0
-306 349 -23 0
-186 -193 -109 0
-391 -258 7 0
-455 224 289 0
453 -246 -160 0
-57 458 65 0
-211 194 -184 0
-275 -191 269 0
-269 -392 -93 0
307 64 -62 0
-287 43 302 0
-412 -52 317 0
-74 475 156 0
-48 -294 447 0
236 -216 438 0
415 100 456 0
-279 -298 -164 0
-252 194 60 0
396 343 286 0
-99 -466 79 0
-465 478 330 0
493 11 -357 0
161 291 60 0
-226 457 354 0
92 57 -88 0
-101 -182 12 0
-366 258 -155 0
304 -478 -459 0
-81 -190 -69 0
-358 269 70 0
215 -249 -84 0
-278 -218 182 0
350 264 -46 0
-473 124 -433 0
-38 407 240 0
-254 -208 41 0
-179 161 80 0
276 317 -23 0
448 -254 177 0
311 319 -5 0
91 221 -458 0
-436 -252 311 0
350 -96 -341 0
118 473 -341 0
491 -448 236 0
-326 74 365 0
493 453 213 0
492 -219 -43 0
199 -438 -244 0
-236 264 -446 0
-384 205 472 0
-76 -136 126 0
-283 471 15 0
65 53 -475 0
-90 -266 105 0
405 255 -474 0
-393 -290 -306 0
268 -233 -179 0
-469 205 485 0
-3 38 53 0
-418 55 285 0
313 308 -153 0
-95 -286 452 0
-441 -355 42 0
-97 -469 124 0
-253 249 -392 0
-191 195 173 0
176 -326 237 0
133 54 233 0
-348 486 -334 0
349 186 125 0
-138 218 -339 0
-200 -436 -448 0
-294 18 225 0
-189 -228 497 0
176 -83 325 0
-261 -439 -242 0
-497 -413 -351 0
244 -151 -73 0
-494 113 -224 0
-43 -274 -45 0
406 6 212 0
-243 -81 195 0
-256 144 -15 0
-204 437 -257 0
318 -336 -70 0
-61 -234 -421 0
317 223 353 0
266 -195 129 0
27 354 -407 0
356 -412 -228 0
-154 -253 -192 0
-447 330 -305 0
-226 75 -271 0
-312 137 -333 0
444 -466 -122 0
-153 -362 436 0
-458 31 164 0
93 -80 -292 0
-227 12 -73 0
-144 191 404 0
105 88 -344 0
-245 -347 252 0
103 253 223 0
199 305 433 0
-267 414 -140 0
-146 -152 -352 0
73 478 166 0
-227 -237 -219 0
51 38 53 0
-431 -140 -3 0
-234 32 -339 0
-39 -432 329 0
60 497 -413 0
258 -285 -224 0
231 -101 134 0
342 -189 469 0
-356 439 428 0
404 93 -223 0
457 84 -366 0
400 -134 -443 0
327 402 -37 0
-61 230 -103 0
-383 -136 -202 0
394 110 266 0
-402 -440 -116 0
-466 252 24 0
-314 -440 394 0
-371 468 75 0
37 -112 156 0
377 -50 -116 0
354 -111 -114 0
-184 204 431 0
-328 23 -293 0
-483 -265 -42 0
-10 -220 -286 0
-126 256 -102 0
328 287 -220 0
302 388 -310 0
-175 332 -444 0
-262 -490 108 0
-245 -370 82 0
477 -471 -223 0
-453 483 89 0
-191 -351 485 0
-144 -313 458 0
213 460 -287 0
-422 -117 -292 0
-479 386 462 0
-62 -101 -316 0
47 123 -277 0
212 271 337 0
-16 272 333 0
62 -193 -49 0
-260 -367 -202 0
-421 -266 102 0
-398 243 493 0
212 307 330 0
-73 -371 -391 0
-483 -461 262 0
-468 324 -204 0
-389 -401 177 0
115 370 450 0
-231 -274 -399 0
361 -82 124 0
-66 293 -495 0
225 -201 -252 0
356 -219 -188 0
-212 466 -261 0
178 101 292 0
-213 -307 -91 0
451 141 424 0
-304 -91 413 0
-414 215 -404 0
457 -351 209 0
-240 78 -237 0
239 -379 261 0
-455 454 -263 0
-77 -56 -87 0
437 -377 451 0
471 -214 -57 0
-106 -17 -426 0
-492 268 361 0
306 -189 181 0
-113 393 16 0
-57 243 -192 0
26 -461 475 0
169 65 284 0
-256 -403 27 0
-97 424 -461 0
-169 -159 -116 0
-24 396 261 0
-459 -332 -110 0
47 143 -269 0
-249 440 275 0
66 52 -95 0
196 -301 217 0
322 -445 -363 0
144 -184 -429 0
-470 -211 125 0
-279 -20 -222 0
353 -87 479 0
-248 309 -92 0
-344 -32 -438 0
-123 -279 -173 0
-349 -483 85 0
-463 256 4 0
207 -23 467 0
-277 -192 339 0
371 409 105 0
-250 362 329 0
-170 390 123 0
-295 -380 -484 0
-428 338 -292 0
-205 -461 -197 0
-92 -291 -350 0
-335 35 298 0
-14 322 -447 0
234 162 340 0
-390 -195 438 0
-439 48 -124 0
89 356 -382 0
-452 368 458 0
281 -12 386 0
-473 -55 -399 0
2 -371 -279 0
241 -80 238 0
438 -48 -202 0
-164 174 316 0
12 318 299 0
456 251 458 0
43 386 -143 0
-285 -180 270 0
-363 -432 343 0
386 275 -227 0
399 440 41 0
-353 -274 -148 0
264 -438 -405 0
123 -62 228 0
-430 465 384 0
278 479 -129 0
-37 -430 171 0
-253 45 293 0
308 225 424 0
-179 339 340 0
430 289 84 0
81 26 -173 0
-343 -379 359 0
-151 -66 39 0
-320 221 80 0
240 284 332 0
401 -400 -26 0
79 -349 -198 0
156 29 39 0
-161 -297 -128 0
228 -390 354 0
-478 -200 57 0
337 -374 -42 0
-147 237 109 0
338 -36 102 0
-367 -270 4 0
282 -323 -176 0
-15 -34 -459 0
-251 447 -448 0
-485 -280 -81 0
250 445 -110 0
-9 -20 -284 0
-298 18 -261 0
481 -40 -195 0
-452 -272 209 0
-145 -377 -345 0
-441 199 229 0
40 -35 -36 0
-273 16 130 0
-26 -188 137 0
453 -189 -417 0
-213 305 -452 0
-330 -493 -397 0
430 -208 71 0
17 177 435 0
-346 -269 59 0
-465 339 111 0
21 448 222 0
159 -138 -185 0
412 -235 -300 0
-453 -6 428 0
283 -131 -208 0
466 197 -277 0
54 -402 29 0
-227 -198 387 0
212 329 -63 0
-346 355 -358 0
323 -35 -121 0
335 -410 323 0
216 326 -175 0
-67 -292 276 0
190 300 224 0
-154 441 450 0
142 403 -51 0
-197 492 -468 0
459 -87 392 0
-485 472 -360 0
-435 269 -239 0
266 -226 -424 0
-440 -401 -293 0
-143 469 306 0
-456 -382 253 0
482 -274 412 0
-176 -367 -151 0
-102 -479 328 0
63 -342 -195 0
-118 483 -457 0
223 321 -460 0
-59 131 -88 0
130 292 475 0
80 -142 -435 0
61 459 17 0
240 -397 -235 0
110 30 477 0
-183 -278 -73 0
-170 -403 482 0
-341 -246 -195 0
-228 -94 205 0
474 -238 -299 0
188 -59 140 0
-454 244 461 0
-143 -76 154 0
-232 -272 323 0
242 471 -14 0
415 -16 -449 0
215 -297 216 0
45 -257 264 0
355 -268 101 0
-347 170 -462 0
305 -477 -258 0
266 -89 -32 0
-143 -183 -240 0
235 -11 310 0
272 361 -380 0
-336 60 236 0
219 81 9 0
-488 257 429 0
-194 448 155 0
301 -420 -245 0
-7 -76 104 0
292 120 -397 0
210 -239 -107 0
22 -376 -342 0
399 -368 -498 0
-319 -367 -98 0
278 -194 406 0
38 282 -23 0
-31 173 -200 0
-210 -311 411 0
105 -190 93 0
8 -411 -176 0
-144 262 -179 0
-294 125 -36 0
-265 456 -220 0
-290 71 335 0
-315 289 293 0
-59 152 -345 0
284 -356 82 0
-373 141 -302 0
-479 -467 -31 0
461 406 20 0
291 259 -273 0
427 -12 -380 0
125 223 254 0
336 -28 489 0
465 -185 235 0
-175 -351 -208 0
-18 434 -346 0
-198 -178 460 0
-128 387 143 0
-190 -184 235 0
-8 -159 441 0
490 411 -94 0
264 -204 177 0
-127 51 -74 0
-220 -6 -490 0
352 -488 355 0
-116 -198 163 0
-330 396 292 0
450 229 478 0
104 -98 140 0
134 -236 404 0
-228 -110 307 0
-138 -73 235 0
428 500 184 0
328 -484 -287 0
-457 124 -50 0
-309 285 423 0
-211 267 -143 0
35 474 246 0
-390 -147 -28 0
184 398 -179 0
-112 493 73 0
-408 343 -33 0
-138 -223 -345 0
278 -397 -430 0
-489 206 -41 0
-49 265 -168 0
-424 444 -385 0
481 -475 381 0
-278 -287 -331 0
463 400 -75 0
-54 101 -493 0
454 -39 -365 0
472 -339 114 0
-483 189 329 0
-413 234 -13 0
-265 -497 315 0
454 188 -42 0
-92 205 -64 0
-395 26 482 0
482 -486 -18 0
32 145 -331 0
-86 -242 -15 0
301 213 -396 0
-329 95 136 0
30 65 372 0
300 20 280 0
488 -191 -311 0
-234 -372 -144 0
-230 147 330 0
-65 -230 63 0
-161 -240 477 0
22 378 130 0
140 333 -85 0
291 -223 328 0
201 255 -32 0
-188 -89 411 0
-401 494 52 0
-157 316 6 0
-431 9 -469 0
-309 279 -186 0
-257 85 139 0
154 -491 -215 0
215 -154 386 0
-96 273 -425 0
17 -69 145 0
-301 148 -436 0
72 -255 183 0
-262 390 271 0
-4 305 -498 0
201 -215 -375 0
203 -158 -184 0
-489 -385 282 0
110 272 -159 0
350 -445 294 0
-419 248 -138 0
-479 393 -395 0
357 90 359 0
-397 23 283 0
-408 -384 -364 0
-386 201 170 0
32 -171 420 0
130 -379 -184 0
112 -498 -223 0
-351 -29 -480 0
111 -76 -93 0
479 268 -381 0
-497 -499 16 0
377 41 227 0
-499 -409 44 0
92 -361 293 0
-246 -171 97 0
-374 55 -270 0
-229 284 414 0
-11 -10 45 0
-298 -395 301 0
254 274 125 0
394 -112 -21 0
104 -162 -431 0
79 -288 -137 0
-93 -317 66 0
422 78 243 0
188 442 -378 0
-326 -442 -227 0
-4 372 406 0
152 310 105 0
-313 414 -295 0
11 306 -271 0
462 489 -137 0
-137 113 -313 0
-348 411 -162 0
284 -121 -332 0
444 273 -193 0
-477 455 -351 0
-44 128 205 0
383 11 -400 0
84 311 -83 0
155 86 -149 0
-262 -277 -414 0
359 238 306 0
19 -327 -187 0
480 428 390 0
-452 440 228 0
-110 299 79 0
445 362 -145 0
-500 -63 -391 0
259 -74 244 0
-135 -77 357 0
406 -255 -270 0
322 287 -131 0
86 132 13 0
-238 -344 75 0
-66 -296 -485 0
323 310 7 0
266 272 -123 0
448 -439 72 0
-95 266 314 0
361 -264 290 0
-207 -55 -326 0
432 -318 459 0
-15 -271 -394 0
63 19 -371 0
-304 -388 489 0
-121 182 133 0
-160 -33 3 0
225 250 -308 0
-438 122 -410 0
389 397 472 0
198 -77 -221 0
-231 352 -396 0
-101 -221 477 0
-238 -148 332 0
419 468 -258 0
71 -277 348 0
-239 374 489 0
221 70 285 0
487 -410 -399 0
222 13 -86 0
-232 391 161 0
-21 -137 136 0
141 -420 119 0
125 -273 398 0
-234 -164 -292 0
226 153 315 0
-145 -253 -161 0
356 7 500 0
-71 103 265 0
9 241 -73 0
15 -135 -449 0
-270 -436 -345 0
-227 -342 -218 0
-15 360 -407 0
203 335 -208 0
-431 179 -175 0
-234 -254 377 0
164 -113 269 0
-101 -228 -428 0
-95 288 -134 0
-180 403 393 0
342 -48 -81 0
270 90 -178 0
-16 161 -198 0
192 -67 396 0
241 -174 239 0
-400 100 350 0
240 222 -298 0
192 245 243 0
196 -429 258 0
359 -95 -444 0
-144 -211 432 0
-392 396 168 0
-118 268 -185 0
-380 -49 -283 0
424 439 277 0
386 -112 -304 0
148 93 -470 0
346 305 399 0
410 -277 -218 0
210 459 90 0
500 -166 -132 0
287 129 453 0
221 -380 -379 0
-89 312 -451 0
463 37 186 0
117 114 -183 0
-469 -267 44 0
270 359 -77 0
68 191 -338 0
-386 -402 64 0
-282 -111 -149 0
332 394 240 0
-291 -349 -348 0
-247 242 -157 0
-480 -297 -449 0
360 332 -261 0
124 165 -28 0
310 -457 353 0
15 483 304 0
111 -20 -28 0
-11 -423 -496 0
-24 -409 -231 0
442 -242 -445 0
-244 -185 2 0
286 192 -474 0
53 -449 267 0
430 -246 -112 0
-395 -446 318 0
404 -417 419 0
-63 -77 15 0
198 -322 499 0
388 395 245 0
-201 346 237 0
125 127 450 0
-459 -239 174 0
80 396 -440 0
-397 -285 388 0
132 -485 462 0
43 -15 -236 0
-94 237 -197 0
37 -407 106 0
73 433 -449 0
-131 -204 -79 0
-327 25 370 0
-298 443 345 0
-411 -133 -23 0
382 406 481 0
247 -415 -156 0
465 -220 182 0
-341 -91 128 0
-47 380 -497 0
337 407 178 0
435 -381 -490 0
5 -82 -72 0
221 -58 -9 0
-486 -411 -91 0
-334 -115 45 0
256 346 -432 0
94 32 -339 0
-386 445 223 0
481 -237 -195 0
-249 -21 23 0
474 434 -261 0
141 -495 304 0
-383 31 -240 0
-111 297 125 0
166 -145 -278 0
-203 422 -389 0
-110 54 -33 0
-182 -218 430 0
-194 403 301 0
-265 233 268 0
-500 -246 439 0
-328 174 232 0
-470 -335 -167 0
52 215 438 0
29 332 67 0
280 446 -376 0
79 -58 -88 0
-281 -276 -166 0
497 -154 457 0
47 -165 406 0
212 174 162 0
205 -202 387 0
-304 449 144 0
242 -425 -184 0
58 -44 492 0
355 -262 441 0
-110 -499 -60 0
-175 -54 32 0
113 344 89 0
101 -67 -188 0
196 180 -215 0
61 83 289 0
136 401 411 0
-119 -81 190 0
-380 -198 411 0
-305 262 -138 0
90 472 445 0
-257 -249 -426 0
145 334 -493 0
94 392 128 0
382 254 393 0
63 -483 -240 0
89 -402 432 0
-110 -192 38 0
289 151 344 0
-154 45 -283 0
-436 332 266 0
235 486 300 0
465 -185 -283 0
-18 73 -47 0
399 283 344 0
-478 203 463 0
78 326 500 0
-425 -65 -186 0
164 486 380 0
-324 -231 257 0
429 -97 294 0
-362 -293 394 0
-164 -97 23 0
-473 -138 276 0
133 476 216 0
142 202 356 0
-35 -8 -386 0
-378 331 357 0
-56 -203 -269 0
412 27 431 0
-319 -97 40 0
259 13 59 0
-391 -81 -326 0
375 241 444 0
-218 18 -297 0
-214 442 92 0
-138 48 -322 0
-281 -262 -273 0
-440 -250 247 0
385 -103 331 0
169 -158 26 0
154 -374 465 0
66 227 120 0
248 403 -388 0
58 375 -206 0
184 336 -446 0
77 -84 420 0
25 -83 -444 0
-210 366 -142 0
-102 316 -466 0
-12 136 -390 0
279 460 -414 0
-274 -267 17 0
-421 -53 183 0
450 -260 284 0
-220 95 338 0
-298 228 -225 0
-271 18 190 0
-489 251 163 0
-402 235 -331 0
102 -32 -337 0
300 -469 -24 0
460 -447 355 0
488 -19 -288 0
-475 103 393 0
358 -403 -299 0
-421 247 266 0
5 199 -269 0
-62 -433 -265 0
-103 -224 -34 0
-283 -60 294 0
165 159 -385 0
-95 217 447 0
246 33 -300 0
-407 6 253 0
18 -233 -425 0
374 312 496 0
111 420 -486 0
-262 -33 24 0
302 245 -389 0
-259 -344 284 0
468 171 -61 0
-306 -139 432 0
4 -143 19 0
61 112 -209 0
-145 4 17 0
216 -258 111 0
-58 -11 114 0
-223 -454 -441 0
222 109 -285 0
478 130 174 0
453 58 448 0
-435 -288 313 0
242 -470 -384 0
-173 -420 -415 0
496 491 -414 0
175 122 146 0
-368 63 -183 0
-129 344 456 0
-60 -9 72 0
221 369 -420 0
327 128 311 0
-242 -223 400 0
-410 -376 -370 0
435 -98 266 0
-392 77 -253 0
133 454 -456 0
-107 205 -17 0
206 -452 52 0
256 -182 424 0
439 -318 227 0
-260 -268 298 0
200 347 270 0
351 -57 27 0
455 -265 -332 0
293 115 -482 0
478 434 411 0
-242 -212 -356 0
-28 71 276 0
250 -325 181 0
-232 339 282 0
448 34 76 0
-461 434 400 0
182 140 -474 0
-365 431 -94 0
75 -85 410 0
-300 -164 -138 0
183 423 -58 0
280 -382 -200 0
35 -159 -155 0
-128 38 383 0
411 462 -455 0
38 177 489 0
-442 181 -69 0
362 208 105 0
-362 373 349 0
-330 -213 -332 0
-453 366 108 0
-89 363 438 0
57 213 76 0
130 411 -4 0
293 494 206 0
99 480 -95 0
-295 152 -202 0
-185 -2 242 0
443 490 -264 0
-226 141 277 0
1 -404 399 0
-216 304 378 0
451 345 237 0
-125 -16 95 0
-428 296 -299 0
153 363 389 0
82 -286 85 0
157 -14 288 0
489 136 -50 0
313 -483 -114 0
-155 121 -11 0
-229 -463 -15 0
-16 -289 28 0
32 -328 -465 0
256 205 386 0
114 429 372 0
-43 -42 -242 0
302 105 400 0
-246 374 493 0
294 -440 -46 0
137 -480 491 0
-205 407 -480 0
344 265 283 0
481 -191 205 0
-420 -68 -294 0
493 -110 96 0
-237 253 -422 0
-86 34 -418 0
-420 323 170 0
-24 -500 69 0
-376 380 -94 0
-127 197 -119 0
401 -291 313 0
-8 -427 116 0
-185 322 279 0
-56 -405 -442 0
-5 -399 65 0
-101 207 -171 0
470 -282 -158 0
-319 -22 -326 0
434 -175 -235 0
-159 -71 -287 0
468 119 448 0
466 -410 -62 0
70 -314 -239 0
-236 199 -87 0
-78 280 76 0
-27 183 -12 0
-162 -337 -35 0
-375 -173 184 0
-191 -199 140 0
-475 58 -385 0
197 -111 245 0
-405 320 -290 0
-110 287 -14 0
309 -247 296 0
252 128 -40 0
-286 130 -439 0
-125 441 288 0
-309 -101 -119 0
-110 -407 488 0
-304 -241 -424 0
-151 419 -75 0
487 -100 -354 0
207 217 -179 0
34 -280 -90 0
391 -72 496 0
-106 -296 -138 0
375 -270 -225 0
-59 248 -448 0
333 467 83 0
378 268 -276 0
372 -421 445 0
-110 -306 -459 0
-461 469 -427 0
370 465 -243 0
70 -1 397 0
101 -159 94 0
-211 -100 -306 0
120 381 317 0
-203 367 112 0
-171 -148 126 0
487 52 -182 0
-259 190 470 0
-258 291 -268 0
-123 -10 488 0
-281 23 8 0
-461 87 -237 0
-46 131 -262 0
464 -397 21 0
-163 216 -319 0
-370 219 389 0
-10 -403 206 0
2 -299 -200 0
-278 -40 -466 0
62 172 -374 0
-129 -139 -48 0
77 -346 -250 0
-156 -59 -58 0
-398 428 -41 0
455 391 -62 0
-389 -296 -411 0
299 -138 -44 0
295 -498 248 0
127 -106 183 0
-173 149 -53 0
-174 424 -451 0
-344 -407 124 0
-232 -334 -255 0
-160 95 494 0
-370 -174 -54 0
-339 244 499 0
233 302 133 0
-326 -308 276 0
277 393 -174 0
-391 130 -152 0
457 -45 -107 0
-354 -56 443 0
-206 137 84 0
99 205 232 0
-340 -410 246 0
457 -401 -283 0
-306 52 291 0
398 -424 291 0
-262 141 489 0
68 -497 -274 0
-47 378 -291 0
-89 112 327 0
-491 276 -209 0
-239 -424 225 0
-5 269 104 0
471 11 364 0
-461 -314 263 0
88 152 -149 0
-304 435 -487 0
-476 -24 453 0
383 13 269 0
-42 -469 317 0
-444 30 133 0
258 -345 -161 0
-329 -369 316 0
-179 -336 -301 0
-253 -289 -240 0
5 159 -181 0
-235 449 130 0
-75 311 -123 0
12 -434 178 0
-382 281 238 0
366 337 -382 0
-159 -416 194 0
-193 293 267 0
-276 -439 369 0
-243 -60 21 0
68 428 -164 0
-322 484 391 0
446 -116 401 0
-215 279 249 0
-200 -101 334 0
-281 -286 260 0
-29 475 39 0
415 -354 361 0
-85 177 370 0
103 271 -37 0
75 -393 -54 0
-493 -24 -188 0
-451 -231 467 0
-78 286 375 0
493 424 120 0
-40 -194 -336 0
459 -100 -332 0
56 -449 365 0
273 -162 -211 0
167 -404 -76 0
43 -357 -95 0
235 -120 274 0
174 108 153 0
-437 -322 24 0
159 -331 -338 0
343 -16 -33 0
-210 3 -80 0
417 128 432 0
-263 442 421 0
-141 -126 214 0
-97 -304 -147 0
-6 294 412 0
213 41 269 0
-275 -33 -399 0
-131 -198 -58 0
320 307 466 0
-360 -387 -20 0
-164 197 96 0
121 206 185 0
16 106 273 0
-418 -66 269 0
313 348 138 0
-230 -196 419 0
-50 -183 -377 0
-375 -74 -469 0
-25 -76 317 0
-110 73 -347 0
373 -3 138 0
295 80 -400 0
-479 -286 -399 0
270 430 91 0
113 -157 395 0
72 94 390 0
405 -16 -149 0
-438 9 490 0
-194 417 -43 0
-325 -420 -439 0
-74 -13 103 0
364 231 -491 0
346 -414 95 0
-220 428 298 0
-452 -57 466 0
500 445 282 0
130 492 439 0
-324 -277 464 0
-468 -309 105 0
-352 237 90 0
262 252 154 0
-464 -385 -452 0
130 165 206 0
248 441 -313 0
277 -32 420 0
-150 -496 -15 0
-104 -165 496 0
47 -455 232 0
51 6 295 0
475 -152 386 0
-316 430 -371 0
340 -123 264 0
328 169 -392 0
16 164 41 0
-31 -397 318 0
385 182 -48 0
262 217 -386 0
429 -83 145 0
433 415 241 0
-396 -16 47 0
-28 410 160 0
-135 20 142 0
-338 278 -25 0
398 420 411 0
-396 -483 5 0
489 33 170 0
243 -150 288 0
470 -413 401 0
-371 -453 -462 0
-401 167 371 0
-404 292 -388 0
295 472 -154 0
294 32 -21 0
331 -182 459 0
20 273 -209 0
464 213 181 0
-178 -343 337 0
429 -173 -328 0
-451 -353 56 0
-495 251 -242 0
113 -154 98 0
498 -142 367 0
420 -157 -182 0
-308 -102 -472 0
-163 230 -108 0
-12 238 -175 0
313 169 497 0
-251 232 61 0
-6 -138 48 0
-480 -241 -351 0
-44 266 327 0
382 -37 -342 0
-435 314 382 0
-327 -121 -260 0
142 457 -357 0
283 -171 -469 0
-112 427 31 0
-465 256 370 0
443 -468 -146 0
278 -33 -240 0
-125 -157 439 0
435 303 -238 0
-110 278 -336 0
64 373 29 0
373 -79 452 0
496 431 337 0
-366 -189 -302 0
311 6 137 0
186 29 -243 0
172 -39 63 0
63 -163 -165 0
-402 -340 -190 0
-276 -46 -243 0
-107 101 -363 0
3 409 143 0
-449 -100 233 0
384 -236 -371 0
-405 497 -292 0
193 362 -447 0
42 -481 -377 0
-57 -356 -287 0
-267 440 -125 0
220 38 -16 0
301 -78 -355 0
-224 86 -280 0
-459 -259 -333 0
297 -119 68 0
426 234 210 0
-263 -401 -412 0
-441 -401 -353 0
259 325 -371 0
353 -23 -281 0
31 -425 95 0
493 322 -139 0
362 -400 -427 0
133 -446 288 0
-437 472 -126 0
-219 -496 239 0
49 -109 -253 0
-235 -422 -267 0
335 -345 487 0
-151 -400 -439 0
-349 314 269 0
-354 13 17 0
236 -424 -272 0
-373 -332 289 0
-234 -244 -97 0
24 -309 121 0
342 469 104 0
454 -348 282 0
125 -174 93 0
-302 481 367 0
325 414 263 0
413 -308 283 0
174 195 -306 0
41 45 -25 0
-56 -449 -64 0
-115 -201 250 0
385 -137 -166 0
-73 -433 37 0
-73 173 -147 0
429 -242 -54 0
440 377 154 0
345 256 -100 0
324 -6 491 0
301 128 330 0
-23 234 228 0
382 290 17 0
345 -55 -185 0
-418 -256 -407 0
107 -423 -49 0
450 -61 -394 0
-118 158 186 0
-494 443 348 0
148 468 484 0
-266 -438 -58 0
-210 154 -341 0
-327 271 229 0
218 370 -309 0
-381 492 -286 0
34 27 500 0
397 -10 -494 0
-454 -83 -494 0
-495 -300 -276 0
-207 236 148 0
228 340 -175 0
-346 11 -363 0
475 439 -33 0
48 -368 313 0
-491 -308 -355 0
391 -73 -196 0
-258 -493 37 0
-236 89 180 0
-101 25 -336 0
-123 478 -52 0
-296 335 -370 0
-342 -427 -237 0
332 -228 -202 0
232 -425 31 0
303 -364 61 0
433 132 416 0
-81 -268 99 0
11 -207 108 0
-249 -386 -112 0
347 -477 -321 0
441 454 -154 0
-444 124 -148 0
-154 -405 -353 0
192 10 111 0
-233 193 -476 0
-378 423 -431 0
197 -77 370 0
-398 82 431 0
35 226 62 0
-242 221 -187 0
355 376 143 0
145 331 311 0
-261 -225 163 0
356 -329 -425 0
-226 -496 24 0
413 385 489 0
-421 -354 265 0
68 458 350 0
-446 338 -418 0
413 -149 271 0
-122 -89 -247 0
-312 106 -307 0
-132 -495 -145 0
-82 -386 -126 0
-437 92 -387 0
76 185 -95 0
-258 -80 271 0
-247 64 -384 0
-400 49 267 0
48 -182 -44 0
-367 -476 8 0
473 -173 -448 0
-113 391 -266 0
-173 3 -49 0
-158 212 115 0
-184 -63 -79 0
-198 -126 -177 0
301 193 277 0
325 -408 -111 0
128 -51 -27 0
277 -409 -379 0
160 152 -178 0
194 -102 5 0
-4 -98 -226 0
284 -460 -133 0
7 -486 305 0
205 254 -361 0
-278 -477 239 0
85 67 84 0
-196 327 392 0
142 -291 332 0
-218 -29 142 0
6 496 -271 0
63 -376 174 0
-185 56 406 0
-247 -166 -383 0
446 16 -292 0
-29 429 335 0
-363 -178 -19 0
-110 -65 -281 0
326 332 -246 0
-293 -183 -411 0
178 23 217 0
75 -288 -215 0
282 216 353 0
-444 137 3 0
-84 73 36 0
389 352 231 0
-206 371 381 0
-66 -218 39 0
338 25 18 0
248 -483 148 0
-238 -75 -439 0
-176 -282 -252 0
94 321 -471 0
454 40 355 0
-262 36 -340 0
-409 -87 -105 0
-411 110 -47 0
355 -397 -46 0
-12 33 260 0
103 163 -278 0
-373 -406 76 0
445 69 43 0
300 -196 336 0
-188 186 -262 0
223 368 9 0
-17 -410 -71 0
217 -449 208 0
-351 55 -385 0
428 177 118 0
39 -132 60 0
-209 104 -419 0
493 -90 70 0
466 -134 -425 0
214 -380 221 0
24 215 146 0
-221 326 151 0
-14 490 207 0
148 149 -291 0
264 -238 -38 0
-19 220 -190 0
98 400 -131 0
328 -43 -267 0
130 -256 -367 0
218 412 56 0
204 -434 -451 0
460 472 -50 0
187 -218 447 0
305 -406 185 0
481 495 -42 0
377 218 59 0
254 28 -38 0
402 -244 -39 0
378 112 247 0
326 -447 -245 0
-385 -433 486 0
-203 -474 -325 0
-223 -330 131 0
-52 162 146 0
-496 352 -171 0
409 -424 430 0
236 -390 -226 0
-298 407 423 0
-384 209 -440 0
289 37 -418 0
388 459 -132 0
480 -242 390 0
-82 209 388 0
-239 -365 20 0
-61 -477 -466 0
-421 -259 123 0
60 311 154 0
-310 -45 155 0
-407 -112 -461 0
-116 -474 477 0
81 274 287 0
-447 -64 89 0
-128 -171 -180 0
-387 337 -422 0
295 -419 433 0
-172 -135 -162 0
408 465 -82 0
-294 -257 -290 0
336 -386 49 0
250 472 -396 0
390 369 230 0
253 491 -163 0
213 -12 -140 0
85 9 -211 0
-275 355 -450 0
471 -492 25 0
-78 -297 -455 0
-383 -237 -60 0
-119 -333 85 0
429 -300 379 0
405 -228 395 0
-70 370 -299 0
-238 476 -128 0
126 -302 -247 0
-95 181 155 0
126 -124 -198 0
22 23 163 0
-12 305 113 0
-448 -165 427 0
463 166 -213 0
219 390 460 0
374 412 463 0
-229 441 68 0
-357 -143 417 0
-295 205 30 0
-25 433 -52 0
-382 -415 259 0
287 269 39 0
140 -444 -67 0
125 203 61 0
-177 142 34 0
339 -348 -383 0
-349 261 41 0
375 440 -161 0
321 -113 -457 0
-74 180 248 0
-253 482 -428 0
-355 -98 -76 0
-425 -101 -4 0
-193 361 213 0
163 -363 -342 0
415 238 -54 0
308 -77 22 0
-443 235 -317 0
-353 -162 -345 0
-409 100 -351 0
206 -482 -228 0
212 -498 46 0
280 110 95 0
-185 245 136 0
293 -235 -270 0
3 309 -257 0
-224 24 -78 0
79 477 -491 0
397 -398 119 0
155 -280 386 0
192 -434 -56 0
-16 -481 68 0
-141 193 -275 0
-58 158 -12 0
-420 93 498 0
-273 288 296 0
142 73 282 0
38 -393 457 0
71 410 246 0
352 108 -51 0
157 -245 145 0
146 -432 -132 0
145 248 -250 0
-38 421 151 0
-158 205 443 0
282 -233 -404 0
-94 -70 -276 0
-419 -99 -165 0
-413 -384 -32 0
340 157 58 0
420 381 424 0
-221 -78 -324 0
-67 -7 51 0
298 255 230 0
105 -456 334 0
189 -157 -468 0
-327 461 -360 0
-436 109 -266 0
-130 451 320 0
-380 34 247 0
314 278 -207 0
307 -33 -441 0
310 305 -108 0
-214 -420 -316 0
-7 402 288 0
213 -369 -343 0
122 56 378 0
-25 92 -302 0
53 232 -330 0
401 127 -414 0
176 -301 -268 0
409 -8 -406 0
-329 117 343 0
-203 362 138 0
103 495 210 0
-142 -227 -121 0
-228 -85 403 0
-361 111 -252 0
412 -75 -209 0
-6 143 184 0
291 -95 479 0
-79 -265 300 0
342 -441 -327 0
-347 131 -483 0
-369 240 -321 0
71 -6 -370 0
-220 -241 496 0
-338 -21 119 0
-308 -247 132 0
225 71 462 0
-91 207 190 0
-343 -351 232 0
