p cnf 500 1625
231 6 344 0
-206 -85 -500 0
-376 108 -173 0
-78 139 385 0
325 129 -196 0
400 106 -59 0
-47 -497 436 0
357 284 344 0
31 -85 -364 0
-445 411 444 0
265 8 -488 0
110 -158 56 0
124 -13 -83 0
-423 -234 -44 0
367 -405 381 0
463 -372 -102 0
-250 -424 -160 0
-99 15 -370 0
401 -180 -483 0
142 459 -201 0
485 -406 -212 0
106 58 482 0
-450 -65 -255 0
-359 -313 -244 0
477 -490 462 0
434 107 459 0
146 80 460 0
293 -439 418 0
396 78 289 0
-297 477 209 0
-212 339 473 0
268 220 -386 0
-114 373 3 0
254 289 -240 0
-481 2 -209 0
-108 -22 256 0
189 -18 -296 0
-197 425 -45 0
-447 -116 -143 0
376 494 -71 0
90 282 -484 0
398 -482 -221 0
478 -341 94 0
-278 -13 -146 0
187 88 -421 0
168 284 -106 0
-226 349 -151 0
25 234 349 0
-205 -106 7 0
-87 104 491 0
-126 125 234 0
489 -275 -240 0
-333 485 -302 0
-342 459 60 0
426 -310 402 0
-483 -437 34 0
-358 -395 -76 0
-395 216 -249 0
-92 352 102 0
70 -223 298 0
-11 -330 464 0
161 475 266 0
246 279 451 0
425 307 488 0
-282 -258 283 0
3 -165 6 0
161 -39 22 0
-308 337 406 0
-348 -134 250 0
-185 156 -211 0
426 333 133 0
-390 -109 -342 0
-121 136 104 0
162 -154 -374 0
269 -87 12 0
-343 37 115 0
262 -248 -306 0
-200 389 194 0
381 -413 318 0
247 -500 -78 0
-152 -119 -85 0
-273 -81 38 0
349 -306 333 0
-88 369 -220 0
-311 411 160 0
-312 301 -172 0
-87 -215 -211 0
454 325 171 0
7 -467 -168 0
110 -370 212 0
203 -452 466 0
107 -380 -160 0
-272 161 380 0
90 20 194 0
386 366 148 0
451 -435 95 0
-229 155 368 0
110 228 -451 0
307 179 -420 0
199 -259 -216 0
-296 -327 145 0
-243 -103 347 0
-29 -344 339 0
94 -178 -23 0
-58 492 134 0
-478 157 237 0
164 -468 -63 0
-381 410 237 0
-431 -300 -315 0
347 -392 -236 0
-483 -386 56 0
-163 132 -392 0
-406 39 -468 0
-308 -270 -182 0
479 261 -76 0
375 12 -138 0
-38 -96 -244 0
242 345 -15 0
-206 -187 145 0
310 426 88 0
410 -118 35 0
290 208 155 0
421 332 494 0
221 65 -119 0
366 217 387 0
361 -446 93 0
183 255 381 0
-262 -326 -8 0
-79 -293 -118 0
-280 -260 -195 0
-119 268 -315 0
-95 -77 -308 0
493 110 -97 0
103 281 -195 0
202 -185 439 0
399 -100 264 0
220 -357 -370 0
179 -161 -383 0
-216 19 -35 0
-273 423 97 0
-201 301 218 0
91 368 133 0
26 -280 142 0
-258 76 307 0
247 -212 -398 0
143 224 -28 0
75 -287 292 0
-484 401 490 0
-3 202 -279 0
-16 439 -66 0
-488 -234 -263 0
-428 228 -201 0
66 -316 390 0
-383 -480 163 0
179 -496 -84 0
-23 -456 229 0
499 -6 -210 0
226 367 105 0
-79 -232 -190 0
-69 -320 -267 0
-419 84 344 0
235 61 -218 0
-58 160 -478 0
-415 365 275 0
498 -410 142 0
-325 451 234 0
139 -144 -440 0
-77 -247 220 0
75 -94 178 0
201 252 106 0
-332 242 -124 0
257 -138 -73 0
92 -416 -309 0
-93 -283 -58 0
-180 -147 461 0
236 179 -315 0
-97 -294 202 0
383 248 -454 0
-112 -356 -269 0
482 -184 -484 0
242 468 253 0
224 -317 25 0
485 253 443 0
435 -297 489 0
432 -413 -271 0
422 270 89 0
153 -75 -466 0
305 233 -290 0
489 -141 -243 0
2 -307 -170 0
-437 -65 -361 0
-461 -130 161 0
-468 -220 -25 0
157 52 -96 0
-353 -215 272 0
372 -222 -18 0
-417 -259 -167 0
-132 61 234 0
362 332 377 0
-238 -193 436 0
-468 137 239 0
496 -262 -46 0
420 -124 24 0
-247 -242 97 0
-42 -216 4 0
449 -101 -28 0
-202 361 292 0
-25 -75 -404 0
-285 171 -258 0
163 209 408 0
-452 107 -98 0
399 110 183 0
-470 -311 -436 0
-390 -399 -238 0
484 285 -18 0
133 105 -25 0
-465 -49 -75 0
483 -103 36 0
-324 443 242 0
-409 102 149 0
-23 69 486 0
3 -239 447 0
420 -354 496 0
271 252 299 0
-282 242 -269 0
463 -116 -419 0
-189 -153 354 0
156 428 -418 0
-483 -190 -349 0
348 -155 -428 0
-420 -491 -301 0
244 -18 154 0
-488 -183 419 0
-429 -190 130 0
246 -277 -432 0
-181 405 345 0
482 -452 -436 0
422 -187 -222 0
-295 495 -263 0
201 -68 326 0
-316 293 381 0
292 168 -108 0
-109 -356 434 0
-8 337 -223 0
217 251 -16 0
26 -162 486 0
-218 -259 20 0
297 -469 -432 0
400 -431 -53 0
-462 134 -195 0
316 -171 -491 0
-440 -379 -188 0
113 458 -131 0
-469 14 -348 0
469 202 337 0
152 140 162 0
-447 -54 435 0
205 -420 -13 0
278 -217 182 0
136 232 -486 0
376 -497 116 0
128 81 -336 0
323 58 428 0
-194 28 -179 0
310 -316 133 0
-214 477 -472 0
-347 -393 424 0
-403 -498 -182 0
19 -458 35 0
-499 389 197 0
182 277 -98 0
-461 -485 12 0
-124 349 392 0
-287 -122 252 0
297 136 370 0
356 413 -457 0
-370 -4 -291 0
-234 262 -93 0
-69 -276 -292 0
253 -146 -10 0
14 -262 -351 0
4 -403 -191 0
84 -253 -125 0
-414 -410 -77 0
-436 118 60 0
-420 -12 -355 0
-316 297 -382 0
305 -124 -286 0
64 -265 -316 0
271 -329 -31 0
11 28 -175 0
-260 -395 -252 0
18 -373 454 0
-81 -373 -67 0
-229 -121 116 0
-248 449 -401 0
-235 19 -187 0
15 494 176 0
-6 -293 -301 0
-102 -331 -21 0
-261 -486 297 0
-149 113 -499 0
339 202 -176 0
-274 12 -81 0
154 -474 -267 0
-20 -458 -36 0
-68 381 322 0
-203 486 268 0
-237 354 410 0
373 -249 -13 0
-94 -208 488 0
-323 486 468 0
-375 412 -297 0
-325 -185 393 0
-204 -390 237 0
347 -222 -324 0
344 335 -432 0
-198 -207 185 0
-372 -249 -232 0
-28 250 143 0
-360 464 389 0
48 233 368 0
-47 -402 215 0
248 441 -153 0
180 228 -294 0
-202 -217 -252 0
-481 -134 206 0
297 278 374 0
-171 114 137 0
-454 -94 129 0
368 211 -15 0
262 305 -336 0
-190 198 469 0
362 451 165 0
166 224 -363 0
498 413 308 0
348 309 -363 0
475 130 487 0
464 -486 218 0
241 126 -378 0
-16 -337 -380 0
90 469 465 0
69 388 -432 0
-455 -206 -288 0
-460 -62 -322 0
30 -169 -125 0
415 422 -249 0
-338 181 -280 0
-87 -368 -110 0
-350 463 318 0
-390 175 289 0
-278 -77 146 0
-7 61 370 0
-177 -480 137 0
-44 281 299 0
349 30 230 0
-457 -193 -354 0
406 443 17 0
442 -217 -404 0
-107 314 -277 0
-324 359 -241 0
-439 -42 -332 0
214 355 127 0
-187 345 -144 0
-125 414 -491 0
282 77 -290 0
466 15 482 0
13 -461 449 0
-1 -276 -163 0
-433 -377 -419 0
-358 -474 -390 0
-273 416 134 0
-471 -160 -44 0
71 165 -120 0
189 448 -388 0
-131 -107 252 0
408 370 403 0
-366 142 -483 0
-497 -284 218 0
-184 182 327 0
-477 -67 -383 0
-41 -76 210 0
368 263 423 0
-437 369 -55 0
446 500 112 0
323 299 407 0
-226 -165 -283 0
479 462 -326 0
-460 -36 442 0
-394 238 -15 0
84 -331 -298 0
-455 115 12 0
-245 -465 444 0
-172 -140 53 0
185 314 -263 0
-158 -93 262 0
-77 -255 -272 0
-492 -81 41 0
-219 -48 191 0
81 -122 -332 0
207 431 -455 0
222 286 -189 0
-160 30 241 0
342 9 85 0
320 377 219 0
8 -224 415 0
-447 224 95 0
431 -292 -216 0
-478 -96 -296 0
-306 461 172 0
-347 337 -479 0
-255 -313 387 0
-266 160 454 0
344 -37 416 0
-498 -136 203 0
-170 -398 -466 0
244 1 38 0
470 241 -321 0
298 -204 -227 0
-232 -135 333 0
289 278 -182 0
-127 320 192 0
87 273 309 0
-235 -236 49 0
-467 -345 -98 0
-366 292 -475 0
468 364 8 0
293 255 -369 0
-192 59 286 0
-165 421 -167 0
91 231 -97 0
240 253 165 0
-63 288 466 0
434 -420 390 0
42 165 -317 0
387 -393 -472 0
-310 -2 224 0
4 291 -225 0
-458 -25 -197 0
478 -416 414 0
23 107 -314 0
420 -479 -35 0
-204 -110 -18 0
-208 190 -158 0
44 -367 472 0
453 291 57 0
-418 -298 84 0
261 198 -316 0
303 283 -486 0
205 492 325 0
-247 -292 134 0
388 -426 445 0
229 281 413 0
477 6 -11 0
-411 172 153 0
-228 275 -144 0
-347 246 122 0
-16 -205 321 0
238 -236 53 0
400 -384 -114 0
282 -165 -322 0
284 -233 -154 0
367 -280 -246 0
316 115 474 0
471 20 -97 0
-457 441 -310 0
14 -296 -213 0
-295 196 381 0
-62 -423 -183 0
188 -244 432 0
464 -118 -124 0
389 301 -384 0
-441 194 72 0
421 346 -458 0
298 443 49 0
-375 -339 -166 0
304 306 -192 0
65 -48 484 0
-341 -9 -67 0
264 193 -490 0
-211 -94 -83 0
62 221 61 0
-133 -3 -172 0
17 -102 -227 0
-360 -386 -171 0
-487 -437 142 0
-138 494 406 0
44 -328 -434 0
-67 123 -45 0
115 -19 157 0
-393 330 3 0
111 26 -332 0
477 321 -87 0
287 478 119 0
-221 -162 350 0
152 289 98 0
358 164 -156 0
-68 -144 432 0
17 129 15 0
-228 -29 261 0
417 -461 -383 0
450 487 431 0
353 342 35 0
87 -151 -442 0
-90 -89 331 0
415 -162 250 0
-265 -234 -101 0
-168 -214 -419 0
-173 -138 -409 0
-166 88 268 0
-377 262 -352 0
-199 182 93 0
-393 -189 203 0
358 357 -447 0
225 -74 -133 0
425 -208 -87 0
44 99 -120 0
89 -242 127 0
223 -57 183 0
347 -234 265 0
117 -328 -368 0
-28 -95 139 0
-430 -27 -124 0
-73 157 -380 0
-380 335 399 0
142 210 -22 0
252 -74 160 0
390 206 173 0
-124 292 -118 0
210 -235 -196 0
-267 319 311 0
219 29 143 0
-233 -464 157 0
154 -235 89 0
-242 -359 -295 0
484 -377 -461 0
-249 396 -145 0
-270 -453 372 0
103 -339 374 0
-184 -380 -45 0
32 114 2 0
-209 -221 192 0
7 370 355 0
80 -260 -203 0
-321 358 131 0
-218 -135 -267 0
373 120 -197 0
-453 246 -435 0
-437 74 -23 0
-320 158 333 0
-204 -219 79 0
299 -324 482 0
-262 -16 -108 0
-122 -35 -230 0
309 -241 128 0
404 421 -265 0
220 -28 -82 0
3 -473 -80 0
-348 -262 -290 0
458 -31 35 0
-375 -314 -309 0
-54 -42 -493 0
350 -104 -85 0
31 108 117 0
-382 398 -419 0
-482 -280 -87 0
-482 76 -285 0
196 -229 298 0
49 96 204 0
372 -311 -407 0
286 425 -212 0
-128 -295 325 0
-19 -453 -113 0
-399 309 -85 0
-113 -177 -67 0
-73 -113 154 0
300 284 184 0
-121 -456 -290 0
-450 -19 -478 0
390 -30 69 0
172 -166 424 0
-148 -120 306 0
-365 459 199 0
-392 -393 231 0
-456 -489 -230 0
146 239 -279 0
-415 131 447 0
224 470 410 0
-184 -329 -198 0
431 9 442 0
-366 235 -466 0
317 128 66 0
-339 81 358 0
-160 150 119 0
209 215 -125 0
-84 434 399 0
348 -477 -62 0
110 393 -364 0
245 129 -216 0
391 296 285 0
-61 163 36 0
-230 431 -203 0
22 495 -81 0
-225 -253 492 0
-206 149 459 0
66 -115 402 0
496 141 -156 0
-500 328 -303 0
-286 -401 -330 0
216 -27 -464 0
-245 295 421 0
-269 -401 -415 0
210 284 414 0
-489 -78 340 0
-420 64 -73 0
-276 -199 209 0
328 17 202 0
15 27 -481 0
-127 24 -242 0
315 -264 292 0
52 156 -57 0
18 235 441 0
-35 -84 -443 0
115 -211 175 0
90 262 448 0
-140 -302 -311 0
-73 -185 -158 0
-393 29 273 0
59 140 288 0
144 174 -266 0
357 -333 -301 0
489 -47 13 0
-56 -354 -22 0
-399 29 -186 0
-338 -224 400 0
272 -58 105 0
-130 -216 -374 0
148 344 -472 0
-451 -254 -171 0
269 -171 -310 0
-294 280 -352 0
-439 343 91 0
-13 188 64 0
234 -122 -481 0
-356 -5 118 0
-49 -257 -389 0
-423 21 277 0
-146 153 437 0
-472 -112 361 0
347 393 489 0
139 -217 17 0
-481 -329 311 0
441 305 197 0
352 77 72 0
-390 -344 -332 0
-202 320 342 0
230 -437 -249 0
203 -9 -387 0
-457 -199 409 0
407 -251 245 0
309 -324 53 0
223 -195 -454 0
24 345 -135 0
354 476 190 0
182 402 195 0
141 466 -457 0
393 -157 -36 0
386 -395 500 0
-156 43 251 0
235 123 267 0
-93 -296 -447 0
-484 -168 499 0
-4 -167 -68 0
-154 -350 49 0
363 -323 158 0
111 -340 368 0
55 54 -125 0
-437 22 487 0
-339 166 -197 0
397 -295 -257 0
-194 -39 94 0
389 81 -413 0
-348 415 3 0
-186 233 -450 0
124 -119 104 0
-459 -304 471 0
-301 -468 -426 0
-41 391 376 0
351 270 -246 0
-460 334 -310 0
413 90 412 0
11 -292 -147 0
456 -395 -361 0
-263 -304 446 0
35 295 -196 0
-313 28 481 0
-284 -452 468 0
181 -392 419 0
-227 60 -137 0
-378 -315 -170 0
-109 -371 147 0
32 -49 -42 0
-122 121 -26 0
-423 -487 136 0
-249 2 316 0
-484 -121 -221 0
-218 -355 340 0
-168 -406 -286 0
340 66 -201 0
-384 108 -438 0
-321 69 -486 0
-130 -158 199 0
66 -403 175 0
-171 365 -61 0
101 -32 -112 0
-292 -495 103 0
-441 -374 377 0
-101 418 -198 0
-461 -77 -339 0
-295 -6 -405 0
492 8 27 0
237 -229 -80 0
-257 -493 415 0
205 -417 -326 0
2 325 -10 0
-310 -142 -494 0
218 27 -320 0
-268 102 -244 0
450 111 -425 0
247 -322 228 0
-313 -306 -397 0
-87 -265 -355 0
-150 397 -457 0
147 214 -424 0
-120 90 -88 0
104 375 106 0
403 -107 -218 0
-325 214 213 0
298 314 50 0
405 -135 148 0
-186 423 -290 0
-369 -193 351 0
479 -286 341 0
69 142 278 0
412 -284 65 0
-323 406 -104 0
357 75 -93 0
14 138 174 0
89 462 139 0
-49 -499 -488 0
468 481 -175 0
-499 170 349 0
-329 256 -16 0
-404 146 -317 0
378 -368 163 0
-154 498 18 0
201 371 -160 0
-370 374 243 0
132 380 -87 0
483 -415 -100 0
115 311 339 0
-498 208 -34 0
-122 77 -287 0
268 -176 -491 0
-332 453 -165 0
-128 -246 287 0
225 285 243 0
339 182 -44 0
474 449 -172 0
-302 -362 -203 0
-343 -165 325 0
-86 -408 310 0
-387 -250 -367 0
385 76 251 0
-300 -327 85 0
260 -247 495 0
346 444 240 0
164 -188 -28 0
413 -435 -152 0
350 -210 -442 0
351 335 -317 0
-187 -484 -352 0
-263 348 -392 0
445 5 103 0
-410 -226 -43 0
199 -372 322 0
-51 -381 -325 0
476 -497 -7 0
253 8 293 0
-97 -45 -15 0
71 285 153 0
-434 -112 446 0
148 345 85 0
393 -140 197 0
471 -63 403 0
-432 -47 138 0
374 483 -183 0
-383 96 165 0
411 -222 151 0
-153 225 -389 0
96 -342 -340 0
-174 -38 117 0
-46 183 190 0
-427 -476 -224 0
204 -260 314 0
-1 21 -497 0
-253 -409 393 0
-21 238 190 0
-390 -176 -258 0
-468 -211 -226 0
54 167 -342 0
263 226 137 0
-3 354 476 0
55 380 241 0
228 237 229 0
26 -443 62 0
-3 -285 493 0
207 70 153 0
323 -160 462 0
-146 311 -270 0
498 -156 348 0
272 450 -119 0
350 -23 324 0
-122 -267 68 0
67 56 256 0
-421 -297 84 0
230 -360 66 0
-487 -282 -308 0
62 -331 445 0
-81 91 155 0
-174 489 -316 0
-260 -488 338 0
167 2 -374 0
1 -483 -440 0
473 -411 339 0
-67 -490 26 0
169 188 338 0
-281 -272 365 0
-136 151 -116 0
-349 -296 176 0
-13 209 -98 0
13 333 -17 0
407 210 -263 0
-40 -481 380 0
101 -410 100 0
-252 -221 266 0
77 -370 -436 0
247 -423 320 0
432 394 494 0
-483 -217 126 0
264 -462 129 0
-56 -294 -112 0
-389 -17 213 0
58 -226 -285 0
-217 -443 -243 0
-317 -161 82 0
249 199 -231 0
432 273 -304 0
287 291 105 0
491 -237 -474 0
-289 -104 -191 0
456 173 -153 0
-313 -374 -134 0
250 96 -209 0
-156 326 363 0
-447 13 83 0
-412 47 101 0
82 -351 -397 0
187 -175 -269 0
-262 74 134 0
-83 34 -89 0
308 191 359 0
311 -61 -432 0
-34 294 63 0
349 -80 -205 0
-259 -91 -111 0
-322 -127 137 0
358 -54 460 0
192 468 75 0
90 -408 159 0
363 15 -438 0
11 -446 -460 0
-444 304 -60 0
-159 -443 273 0
437 115 -168 0
-101 -12 -38 0
-200 495 199 0
-397 209 355 0
-19 312 8 0
277 51 386 0
165 -139 5 0
-495 58 372 0
-342 442 -426 0
58 321 -50 0
-415 -363 -284 0
411 104 130 0
-455 -187 -174 0
432 -188 217 0
-43 272 118 0
251 -474 -275 0
199 359 -249 0
177 -492 -213 0
136 9 64 0
319 48 -119 0
-174 457 -391 0
404 -351 216 0
272 -371 -101 0
94 -24 163 0
256 -115 498 0
108 -35 81 0
80 -95 -256 0
335 -88 -46 0
-251 324 -141 0
-137 250 -427 0
11 440 -361 0
263 498 96 0
181 41 -93 0
215 -198 222 0
-193 140 319 0
124 -223 -435 0
-109 427 395 0
-36 231 375 0
-370 431 187 0
-401 -427 -432 0
-324 386 -460 0
183 -50 208 0
243 197 -2 0
74 425 -355 0
-297 60 336 0
-99 -129 -295 0
-149 151 -140 0
105 109 -139 0
-314 -325 255 0
-184 -141 -468 0
380 -185 -92 0
-31 -262 35 0
319 -267 -198 0
-365 -301 324 0
287 -252 298 0
37 -207 -267 0
39 -200 43 0
466 299 405 0
-148 -223 -375 0
-93 -91 -500 0
205 -310 -135 0
426 -141 -354 0
-232 -22 189 0
113 4 -160 0
50 -220 -474 0
294 440 186 0
-280 -399 -67 0
229 -418 -53 0
-69 430 43 0
409 -304 -190 0
-292 270 -460 0
-184 172 467 0
478 150 237 0
-406 -497 -184 0
-179 -373 -148 0
-31 35 239 0
234 -274 -495 0
-273 120 147 0
-197 86 149 0
460 -219 -272 0
392 -397 236 0
-343 116 152 0
-217 -393 -437 0
-212 -321 17 0
-385 -268 -458 0
76 -28 176 0
-327 71 203 0
-110 -33 19 0
-201 -495 88 0
103 -289 -453 0
247 260 -327 0
-399 -182 -435 0
428 121 75 0
127 220 -179 0
358 59 -429 0
296 377 -180 0
-187 -318 -330 0
-335 -402 -5 0
-349 66 -163 0
-231 -449 -303 0
-380 352 -322 0
94 253 -446 0
-261 323 -340 0
-442 136 -79 0
-389 -483 -299 0
-356 306 65 0
-232 -384 -69 0
-51 -474 249 0
213 465 89 0
2 132 -201 0
487 489 66 0
190 -435 248 0
379 325 -246 0
475 305 -164 0
54 -194 45 0
26 387 -321 0
166 405 -334 0
419 -472 -360 0
127 81 -204 0
331 484 384 0
491 138 28 0
469 352 -460 0
382 -206 476 0
166 -484 4 0
25 -113 -438 0
-479 366 -180 0
495 225 -166 0
-453 -378 -3 0
215 -397 105 0
-114 232 101 0
199 145 62 0
30 -8 -260 0
378 298 -87 0
-446 -61 -2 0
-365 370 145 0
-64 -51 -40 0
127 432 -174 0
251 -340 28 0
-477 -482 474 0
318 53 -278 0
-53 -436 274 0
238 -273 180 0
-229 -396 -457 0
129 -446 -321 0
433 183 256 0
100 9 -110 0
-210 -7 269 0
-405 14 -413 0
-47 -336 189 0
-391 339 248 0
341 92 -195 0
-56 -279 210 0
159 47 253 0
313 -427 -473 0
470 339 -135 0
-106 422 361 0
-288 116 -4 0
433 -92 439 0
333 -487 11 0
364 -446 61 0
164 376 169 0
88 -123 -232 0
178 390 -346 0
-148 105 -431 0
-449 -393 -289 0
98 8 -214 0
-457 440 -398 0
-283 347 -345 0
43 -458 370 0
60 -161 -51 0
-105 -255 260 0
208 -283 -98 0
29 -80 -208 0
-446 363 360 0
-491 435 -376 0
-135 -130 477 0
-343 320 452 0
-163 -497 -392 0
-160 33 280 0
425 -491 -276 0
359 -353 450 0
-307 -389 -354 0
-127 260 343 0
209 392 -274 0
64 101 -190 0
450 189 -118 0
229 375 404 0
-326 66 343 0
-286 -289 -220 0
-457 -146 328 0
490 107 -14 0
-179 -211 -334 0
-180 125 -285 0
-285 261 -276 0
302 189 248 0
438 5 22 0
306 441 -127 0
-469 -291 -304 0
16 -459 -474 0
198 -99 -336 0
291 -159 -29 0
33 -494 -380 0
-235 463 405 0
292 -298 350 0
-129 -3 363 0
-345 39 411 0
-139 118 -492 0
-242 -288 303 0
359 135 39 0
-329 317 175 0
19 -219 -289 0
-398 -245 126 0
155 458 -52 0
-95 -183 -19 0
19 190 -400 0
309 77 -207 0
171 294 -264 0
263 -75 190 0
-219 380 -79 0
265 8 153 0
268 -495 342 0
-169 -361 378 0
230 -467 439 0
196 -51 -213 0
85 -486 233 0
215 297 -181 0
-343 95 80 0
-211 306 -213 0
-80 -39 -489 0
-106 313 -419 0
-60 418 -231 0
37 124 17 0
129 321 63 0
226 -108 -366 0
-442 -327 -237 0
-329 -106 199 0
-473 386 -426 0
286 223 -230 0
231 -150 -406 0
60 -36 -304 0
35 -468 -287 0
-200 75 339 0
379 62 408 0
-231 -400 -144 0
449 -355 346 0
119 336 -98 0
191 -249 327 0
155 -255 -62 0
325 -482 19 0
340 -179 274 0
202 -489 -471 0
-301 -188 487 0
110 -465 -214 0
59 -78 170 0
15 -379 128 0
-117 119 201 0
358 -310 191 0
-97 -67 -167 0
8 -418 190 0
-148 -375 -153 0
-478 291 -169 0
387 -445 278 0
-371 -370 73 0
407 343 21 0
61 428 -452 0
281 330 294 0
-332 105 -430 0
-108 247 101 0
238 429 384 0
-497 309 -86 0
-18 139 -302 0
-152 -208 -219 0
-421 -94 474 0
-133 29 358 0
-245 -14 262 0
-417 -60 -469 0
90 216 -207 0
194 107 72 0
-416 -486 -349 0
-436 392 306 0
55 498 9 0
-230 37 -151 0
-33 -138 -191 0
111 479 -89 0
-397 -368 -27 0
70 269 -314 0
79 -242 323 0
-271 -305 -12 0
370 -427 235 0
-226 230 -114 0
-186 451 -34 0
1 -380 -176 0
92 -393 -181 0
109 151 -313 0
222 259 276 0
-458 461 -500 0
312 41 240 0
55 -230 128 0
130 -3 -287 0
47 -337 -125 0
-216 470 283 0
-388 372 -425 0
-440 -211 93 0
29 457 -224 0
-197 394 464 0
51 35 -166 0
182 -225 45 0
224 272 491 0
-411 257 177 0
-198 91 -193 0
297 307 -203 0
-203 282 -191 0
182 360 -282 0
-453 -432 283 0
-5 -142 -126 0
-42 369 -309 0
-462 285 -180 0
188 61 -241 0
174 -473 -340 0
-466 448 -400 0
223 -392 348 0
-136 157 52 0
177 290 -293 0
-82 126 -33 0
262 172 474 0
461 464 -410 0
225 402 374 0
-117 -249 297 0
-375 388 434 0
-213 -154 471 0
-11 -242 6 0
425 245 42 0
-404 102 -493 0
48 -355 -366 0
489 -429 310 0
-179 497 357 0
-433 -18 344 0
-109 -435 -282 0
-230 223 190 0
26 -185 396 0
70 30 117 0
-286 62 -488 0
-113 -332 -465 0
32 -154 173 0
2 475 -497 0
89 116 438 0
-219 -76 -288 0
291 -485 -78 0
426 68 190 0
-329 250 -231 0
-164 137 -451 0
-440 187 494 0
-478 249 144 0
271 -136 344 0
461 191 -244 0
450 151 90 0
-136 302 -258 0
-157 1 -269 0
-31 -237 -428 0
-312 498 477 0
-175 -59 352 0
-139 -265 -130 0
48 190 343 0
-14 -205 313 0
-180 -353 -314 0
140 -147 -280 0
-467 59 -193 0
114 -411 -460 0
-95 -70 490 0
119 -97 185 0
-244 413 -121 0
499 -31 -116 0
-143 -312 174 0
207 120 485 0
352 -229 -264 0
-229 -483 228 0
-146 249 -269 0
448 293 380 0
188 -112 273 0
-188 -432 366 0
353 -180 -250 0
141 -459 -265 0
-134 -102 -440 0
111 4 -2 0
-200 194 -112 0
-273 -297 477 0
201 393 -423 0
-61 -103 -200 0
38 179 -276 0
-30 -359 -127 0
152 -332 26 0
362 16 -451 0
290 -20 332 0
90 228 -334 0
-190 434 -129 0
-483 461 101 0
-175 -382 171 0
-225 -104 -198 0
-321 6 475 0
110 -338 -483 0
286 418 296 0
100 -330 39 0
-132 314 -106 0
-337 193 396 0
462 350 301 0
192 -78 161 0
376 254 103 0
-97 109 448 0
3 138 383 0
319 189 -383 0
336 -447 -444 0
-96 471 -326 0
-48 -127 -342 0
-317 -23 77 0
492 223 -224 0
-401 -26 25 0
262 354 273 0
310 235 383 0
-114 -179 265 0
138 33 -156 0
-302 480 -122 0
92 -476 406 0
195 400 421 0
-349 -167 -211 0
62 477 52 0
-191 -141 -430 0
-369 323 441 0
-488 -404 -240 0
-338 310 52 0
-463 -356 295 0
247 306 322 0
-105 -182 -17 0
282 -269 -319 0
135 60 9 0
355 176 -128 0
-490 422 59 0
-189 244 -163 0
-113 324 85 0
144 -205 -457 0
404 -207 5 0
263 -368 204 0
349 174 297 0
-326 451 107 0
252 363 -441 0
27 252 142 0
21 -27 -393 0
66 -366 -285 0
-90 258 401 0
62 -185 -399 0
13 405 185 0
246 193 173 0
409 331 -165 0
16 128 264 0
118 -119 466 0
165 -219 -322 0
-62 -406 289 0
-379 352 -155 0
-385 -59 -122 0
229 300 490 0
-319 461 -51 0
257 90 222 0
371 -276 -110 0
-344 -57 -436 0
-244 260 -361 0
-51 131 -104 0
27 342 324 0
-53 10 308 0
351 140 -14 0
-116 -362 165 0
-210 -19 -457 0
-352 -241 130 0
275 364 456 0
95 473 -4 0
234 -336 -242 0
212 -25 -484 0
348 374 -218 0
5 -470 461 0
123 -279 411 0
139 154 -256 0
210 -459 108 0
-337 223 352 0
-163 354 -200 0
297 130 -15 0
232 323 114 0
150 -119 -387 0
25 489 163 0
-499 -486 353 0
-433 -254 210 0
-205 388 -102 0
113 -359 245 0
-238 91 -20 0
171 491 218 0
387 -282 -475 0
-252 448 -10 0
-225 7 211 0
288 -41 496 0
101 -387 -284 0
-367 -396 -251 0
-169 -209 -30 0
-315 43 -335 0
493 158 -15 0
-253 65 359 0
15 383 423 0
402 483 -418 0
425 313 420 0
-258 -146 -374 0
-362 -13 -189 0
299 -473 268 0
494 69 288 0
-4 -290 -485 0
-469 -490 -465 0
103 -211 -302 0
281 -42 398 0
360 406 -244 0
-312 -16 -41 0
469 -408 319 0
-467 91 478 0
449 499 97 0
241 -54 198 0
150 30 431 0
274 -328 59 0
164 -86 165 0
472 -82 -397 0
359 -394 -266 0
418 -216 -406 0
479 -281 40 0
129 270 73 0
445 -392 472 0
-223 -245 -307 0
227 -236 453 0
233 345 -409 0
-21 220 137 0
-33 -137 398 0
-393 -74 -361 0
320 -50 235 0
331 -442 -140 0
-393 376 246 0
339 429 275 0
-387 255 468 0
13 -145 62 0
103 -165 -328 0
31 312 177 0
390 -380 121 0
-130 -352 293 0
-436 253 -46 0
113 -360 257 0
-299 -17 -346 0
129 -242 322 0
321 326 426 0
-464 -319 -212 0
415 -294 -417 0
98 215 -145 0
387 -434 318 0
226 -174 -474 0
-94 316 44 0
-294 316 -296 0
154 240 -254 0
-175 231 -116 0
24 -358 -460 0
-219 -269 378 0
-333 -137 -74 0
-301 -3 486 0
-465 -258 -114 0
-164 91 269 0
-355 474 -208 0
22 428 361 0
-416 66 459 0
495 -373 -76 0
323 102 290 0
-496 495 106 0
409 21 73 0
-161 -262 430 0
456 173 296 0
322 83 345 0
5 -182 363 0
309 -273 -497 0
163 274 -364 0
328 442 -298 0
76 70 500 0
335 419 -192 0
-337 282 -397 0
-134 254 213 0
-223 -7 322 0
-64 -37 495 0
-432 -481 -186 0
-18 -223 51 0
-280 -238 -50 0
359 403 -250 0
126 380 473 0
-313 267 -332 0
194 294 28 0
202 97 -432 0
232 451 108 0
159 37 -13 0
460 -29 -405 0
184 487 -131 0
168 243 -130 0
-37 -489 14 0
302 -35 -347 0
-485 -194 -376 0
-171 113 338 0
226 -287 -45 0
171 -74 273 0
164 61 399 0
197 116 185 0
135 425 -128 0
432 -292 57 0
-374 316 474 0
450 -266 -469 0
-277 -457 105 0
-172 -103 263 0
273 459 -304 0
57 -389 405 0
-480 -183 330 0
-82 -333 -438 0
453 -49 -47 0
406 497 -52 0
423 365 -440 0
-67 -483 -498 0
-50 461 11 0
305 -185 442 0
-270 -305 -51 0
-275 358 310 0
205 -156 245 0
495 -68 -466 0
-384 461 -88 0
447 -220 24 0
-375 437 271 0
182 -427 -376 0
188 -14 -403 0
148 -67 107 0
205 -234 302 0
-198 -102 -228 0
-191 421 201 0
169 -271 440 0
-424 399 117 0
159 -44 -328 0
-178 494 -438 0
-58 262 322 0
-190 249 -380 0
-354 -30 -342 0
4 226 419 0
-176 310 179 0
382 359 -470 0
-277 -92 192 0
-257 -481 31 0
391 -82 385 0
-460 487 -193 0
-460 25 -77 0
193 291 269 0
87 -231 377 0
-428 -478 -424 0
-248 -476 384 0
88 -477 -227 0
278 -218 373 0
-305 -466 -301 0
449 -50 75 0
151 -51 -352 0
-404 -171 189 0
246 35 19 0
369 292 206 0
144 431 -429 0
4 344 -347 0
355 274 -471 0
224 291 159 0
155 -396 -332 0
-179 -160 -158 0
-190 386 306 0
-393 324 75 0
232 -152 379 0
-106 -153 115 0
489 274 469 0
-470 370 -305 0
-137 -33 236 0
-323 312 -402 0
-455 -160 99 0
-310 278 25 0
-94 -6 -271 0
456 -459 423 0
-7 463 -22 0
52 -252 -493 0
-171 -278 231 0
-113 53 -147 0
-185 -53 -118 0
413 394 -224 0
190 -63 300 0
178 -12 250 0
310 -432 -377 0
-269 130 66 0
399 -90 6 0
243 271 -270 0
478 -190 147 0
409 216 -291 0
-194 -428 -484 0
442 -462 180 0
278 138 -298 0
-125 -134 268 0
-259 -118 253 0
149 -207 47 0
-80 -324 173 0
153 -240 255 0
-130 40 -293 0
-16 94 33 0
-319 -186 285 0
-115 416 -150 0
283 -224 125 0
424 405 -379 0
304 339 -268 0
-115 141 179 0
-345 128 479 0
102 425 -46 0
-240 408 34 0
62 -191 256 0
117 -433 232 0
-234 350 474 0
-419 -7 195 0
-55 -27 -266 0
-268 -271 291 0
-200 -186 -131 0
-324 -165 85 0
-175 67 -477 0
-305 373 57 0
62 161 -257 0
-485 401 -171 0
-238 114 188 0
-335 -269 -27 0
113 -472 296 0
205 -409 -418 0
323 111 -266 0
2 8 321 0
463 -144 -68 0
256 396 -380 0
71 -19 493 0
422 347 -63 0
-89 111 274 0
-130 6 -155 0
-282 -469 73 0
115 276 455 0
-383 -433 41 0
286 -82 -363 0
-434 -94 495 0
