p cnf 100 300
-47 -19 63 0
22 56 -16 0
78 47 96 0
-38 22 61 0
-96 95 -11 0
77 71 -66 0
-77 73 -9 0
-72 53 15 0
86 -99 -34 0
-85 -26 -99 0
22 -68 -19 0
8 80 40 0
14 -57 -54 0
-44 16 -92 0
-56 -52 74 0
81 69 -68 0
63 27 -26 0
52 -29 -42 0
-64 14 -69 0
71 33 48 0
71 64 -3 0
11 -29 24 0
8 -39 43 0
-9 -40 -62 0
-28 -99 -15 0
19 -78 35 0
94 -90 85 0
-27 48 -39 0
75 39 8 0
-36 97 82 0
91 10 42 0
41 50 -75 0
62 9 -45 0
78 -91 -43 0
89 99 71 0
56 -30 99 0
-74 -31 -14 0
-65 -12 -40 0
36 -29 39 0
13 26 98 0
-6 73 -72 0
15 -62 -56 0
-1 -6 43 0
80 -21 87 0
17 -36 -6 0
23 45 -3 0
-92 85 -21 0
-20 35 77 0
71 94 -39 0
94 -44 -26 0
-14 68 42 0
-96 -83 -46 0
16 4 6 0
-53 -2 29 0
-81 37 -62 0
-58 -24 -56 0
-93 -34 95 0
40 -18 33 0
76 -60 -64 0
26 -94 56 0
32 39 -54 0
-34 56 -76 0
4 -45 -14 0
-4 47 96 0
68 12 18 0
-23 33 96 0
-39 -74 -93 0
-1 3 43 0
-81 -42 98 0
64 11 1 0
-69 5 -36 0
-35 -54 81 0
91 69 -29 0
-27 3 -75 0
31 7 53 0
43 26 -34 0
-74 -66 79 0
67 -74 -19 0
69 -73 -68 0
-71 87 -84 0
-41 20 -70 0
-5 -9 -15 0
22 25 -16 0
88 -6 -69 0
-46 -22 23 0
31 14 -64 0
-5 -65 2 0
-86 3 -54 0
94 -60 -30 0
-84 13 -11 0
85 -15 70 0
-17 20 -46 0
-63 16 -26 0
-39 -44 -17 0
18 73 -77 0
-17 -83 64 0
-99 31 61 0
66 32 92 0
-24 -15 91 0
-52 -27 -16 0
-99 -77 37 0
75 90 28 0
28 -51 21 0
-34 79 84 0
8 89 -68 0
-10 93 97 0
3 90 -52 0
23 38 -80 0
41 -24 47 0
83 78 26 0
21 11 85 0
10 23 35 0
18 34 -85 0
-57 74 16 0
-71 61 -10 0
-39 56 75 0
66 -36 -92 0
-75 -43 -83 0
11 68 45 0
-51 -49 -42 0
81 91 62 0
41 100 -30 0
-84 -75 71 0
-70 45 40 0
14 96 -4 0
-91 -97 85 0
-77 12 68 0
-55 -10 20 0
-15 93 -44 0
-57 -77 -13 0
94 -87 -16 0
-2 32 -99 0
-39 89 -28 0
84 -26 -74 0
68 -50 14 0
-28 35 73 0
21 32 -19 0
-93 11 43 0
-66 27 -97 0
-62 -75 -19 0
-18 12 -68 0
-44 86 -27 0
-94 73 86 0
-69 4 32 0
-16 -6 -73 0
-58 -7 -91 0
73 56 94 0
-29 100 -21 0
80 -31 -83 0
-39 99 44 0
-94 -65 69 0
49 -64 4 0
-93 68 -11 0
-90 -6 72 0
35 80 -51 0
-36 53 80 0
-18 -92 28 0
-13 99 -74 0
-41 -33 -35 0
38 66 -71 0
-39 -47 -89 0
53 42 -8 0
19 48 73 0
-79 13 40 0
-80 -87 -36 0
84 -68 49 0
-37 -12 -62 0
40 -67 64 0
79 71 63 0
-95 -16 64 0
-62 74 5 0
-65 -34 -49 0
78 -90 32 0
25 86 23 0
85 56 27 0
-93 -35 46 0
78 80 22 0
-49 35 -53 0
72 69 18 0
15 44 -87 0
-35 78 -70 0
1 -2 46 0
-46 41 -16 0
70 -5 -50 0
-63 -58 87 0
36 61 -32 0
-54 23 -78 0
40 58 86 0
27 37 -49 0
-23 74 50 0
73 34 -78 0
-90 23 -43 0
39 -62 3 0
-88 21 6 0
11 -42 5 0
-17 -9 15 0
30 -50 19 0
48 -80 47 0
35 89 -73 0
-3 -44 69 0
35 31 -43 0
-81 94 49 0
-65 -60 98 0
58 36 52 0
79 -3 -9 0
-68 -99 -95 0
34 44 96 0
-52 1 -43 0
38 -73 27 0
60 96 65 0
-43 -19 40 0
-25 -6 34 0
98 -5 29 0
-69 16 92 0
56 40 -79 0
-45 -16 -20 0
51 93 48 0
38 -17 60 0
6 -1 47 0
-96 -31 52 0
78 75 -90 0
-75 -26 -18 0
86 -19 -69 0
88 -29 65 0
64 63 -8 0
38 71 -95 0
-75 25 -87 0
61 -87 -29 0
-45 3 74 0
-6 -19 39 0
29 -51 38 0
44 -78 48 0
-45 18 -38 0
89 -12 26 0
43 -16 -62 0
49 90 -3 0
16 3 -11 0
-73 -43 -32 0
-44 36 8 0
19 -66 -78 0
68 -23 10 0
82 -58 -25 0
-89 77 92 0
-92 -50 -28 0
85 19 57 0
33 -79 -100 0
73 -31 -80 0
-28 -6 -34 0
97 59 1 0
89 -39 83 0
-66 83 4 0
32 -9 -54 0
62 -2 97 0
-46 -14 -2 0
-6 18 46 0
-65 90 -62 0
-5 55 59 0
-43 88 -36 0
-25 46 -40 0
98 9 2 0
84 11 -42 0
98 -90 73 0
-64 -44 -8 0
-61 -64 -65 0
25 31 68 0
43 -64 35 0
-54 69 -84 0
20 5 79 0
-75 -90 87 0
-40 96 30 0
-26 -29 -9 0
54 65 -63 0
-7 -31 67 0
75 8 -73 0
67 -62 37 0
-25 -99 -16 0
11 -17 -15 0
-84 18 22 0
-32 95 17 0
99 -29 98 0
89 11 -71 0
-21 -99 96 0
-25 -13 -88 0
-21 49 91 0
30 32 33 0
-32 -69 78 0
-83 36 32 0
53 66 86 0
50 87 -29 0
-16 -73 -63 0
97 -70 2 0
7 39 88 0
-45 65 -31 0
-81 21 33 0
-89 20 -23 0
55 -40 39 0
-72 -20 87 0
-23 11 13 0
87 90 41 0
-28 98 55 0
