p cnf 100 300
-94 1 -19 0
-68 -30 -86 0
-23 57 -50 0
-70 34 5 0
67 -85 -47 0
35 33 -63 0
95 -57 75 0
15 -67 -38 0
30 -63 -79 0
-76 -44 94 0
-52 7 6 0
-22 -55 -50 0
-22 -4 53 0
-38 19 -52 0
-44 99 58 0
22 89 40 0
-79 -55 81 0
-97 21 73 0
-17 22 -13 0
-44 6 -61 0
7 -17 -21 0
-30 96 -88 0
-82 34 -75 0
57 92 -34 0
59 97 89 0
-16 -67 19 0
98 71 -47 0
29 86 -37 0
77 -59 84 0
-96 -71 -90 0
-34 -35 -40 0
63 -43 -82 0
-70 -89 73 0
-44 46 47 0
73 -83 -59 0
51 -75 -60 0
76 -31 77 0
-9 8 5 0
19 93 -12 0
-48 -99 36 0
-61 -59 18 0
48 86 38 0
-46 -48 -6 0
23 -58 18 0
-100 -47 -28 0
23 76 91 0
68 -58 -61 0
-46 72 4 0
66 -89 99 0
7 -35 -3 0
-27 79 -22 0
91 14 -58 0
39 -32 -26 0
18 96 29 0
71 76 97 0
-92 -64 -94 0
91 -23 -22 0
62 63 -48 0
-61 40 83 0
52 -6 4 0
-78 76 -79 0
-35 -40 -77 0
-85 -77 -7 0
-56 -74 64 0
-27 -2 30 0
71 99 89 0
-11 36 70 0
36 81 25 0
-58 -47 45 0
91 47 50 0
-59 -38 20 0
-47 80 -35 0
78 -6 50 0
-30 -88 32 0
-67 64 85 0
-48 86 -11 0
-55 14 57 0
93 4 -26 0
77 -96 -44 0
77 99 72 0
-11 78 4 0
-85 23 -69 0
96 -10 6 0
-83 63 75 0
-92 -79 93 0
-69 22 -83 0
40 21 10 0
37 7 36 0
60 90 -40 0
14 69 -17 0
-63 32 4 0
14 -7 -84 0
25 28 -32 0
-5 -89 -70 0
-74 -94 -14 0
92 -67 4 0
-28 69 -80 0
19 -44 53 0
49 4 1 0
86 33 100 0
78 -2 33 0
-64 -68 6 0
-98 30 50 0
24 57 -92 0
92 -69 -61 0
-43 98 -48 0
-57 -70 -37 0
-33 93 -6 0
69 97 -74 0
4 47 65 0
3 45 -27 0
94 99 -21 0
70 -56 23 0
92 -99 59 0
-44 -53 -92 0
-89 25 32 0
54 87 -57 0
-96 40 25 0
-66 70 -22 0
-7 17 -93 0
-69 -40 -12 0
73 -68 12 0
-64 -97 72 0
-21 -85 43 0
70 39 38 0
-58 63 59 0
79 98 -57 0
32 -30 -24 0
-59 11 -18 0
-96 68 21 0
-22 -2 -84 0
-68 91 -48 0
-23 26 35 0
34 23 -71 0
-5 -52 -24 0
-86 97 84 0
90 46 21 0
-8 -62 -99 0
-79 -25 57 0
82 48 -2 0
-48 -82 -94 0
5 -68 46 0
85 70 -29 0
33 -68 -54 0
46 51 -5 0
39 28 52 0
88 75 4 0
-89 -29 -12 0
-36 51 83 0
6 25 88 0
-46 -16 -15 0
-34 82 24 0
30 72 -18 0
-37 54 34 0
11 47 65 0
-85 78 56 0
-49 -53 57 0
-39 -90 96 0
-31 -21 43 0
-9 -86 -68 0
-38 -82 31 0
69 -87 -52 0
-92 60 94 0
99 46 -54 0
-46 -73 -16 0
-7 71 -98 0
-14 58 -12 0
-57 -81 -15 0
99 -68 -90 0
88 -60 -87 0
-10 13 63 0
-25 29 89 0
68 75 -96 0
-80 -55 -97 0
70 58 -63 0
95 97 -38 0
54 87 -21 0
37 -83 97 0
15 -53 -85 0
-28 -62 -45 0
71 67 -21 0
91 -98 -29 0
-86 21 99 0
40 -35 81 0
-63 -40 -69 0
-51 -67 100 0
-90 15 -97 0
91 9 1 0
-82 -3 9 0
45 31 27 0
-89 45 74 0
-44 74 -95 0
77 -59 53 0
-5 -56 -14 0
9 -99 -61 0
-27 50 46 0
20 -64 -68 0
94 52 -39 0
57 -93 -35 0
52 -46 -75 0
18 -81 -51 0
-20 -18 73 0
-97 -69 34 0
-50 68 22 0
-92 74 24 0
-38 -94 -34 0
-28 -99 91 0
35 83 -30 0
-3 2 14 0
36 -48 78 0
-87 -81 99 0
-39 77 72 0
41 -48 -5 0
88 -27 -17 0
-58 71 99 0
-37 -16 39 0
72 -98 10 0
47 54 -3 0
-54 -38 -59 0
77 -54 -89 0
15 89 7 0
62 -30 13 0
14 13 -7 0
88 -45 27 0
-52 -14 48 0
-100 -53 -10 0
-58 29 45 0
61 -18 1 0
-60 93 -7 0
-96 -45 -12 0
28 38 30 0
-53 71 -21 0
28 -17 -7 0
-32 -9 67 0
-40 41 -18 0
-19 35 -63 0
97 38 -39 0
60 -58 -5 0
24 -85 -67 0
91 -31 71 0
-51 -29 27 0
23 81 -61 0
13 60 -17 0
71 -88 42 0
89 21 79 0
97 22 87 0
-16 -75 87 0
-23 -7 -43 0
-18 35 -52 0
34 -60 62 0
-5 72 -15 0
99 -70 51 0
-83 -51 -6 0
42 28 49 0
27 -93 99 0
-4 -20 -22 0
32 77 92 0
-16 -67 -28 0
99 -10 4 0
98 -12 92 0
6 92 78 0
35 85 98 0
-64 82 70 0
70 -14 8 0
-22 -73 -41 0
-88 -57 -49 0
72 27 -55 0
-90 -28 -84 0
62 -89 16 0
-23 77 -43 0
53 65 84 0
47 -61 -62 0
54 20 -30 0
-99 -30 -60 0
87 -66 -82 0
-81 -63 76 0
72 51 80 0
32 55 -92 0
74 61 -82 0
64 97 25 0
-61 39 21 0
85 -88 -7 0
17 -40 -98 0
34 -4 -99 0
69 81 10 0
-85 12 33 0
-57 72 68 0
-34 61 6 0
-43 -27 33 0
-87 41 29 0
-91 79 68 0
9 47 58 0
-54 55 75 0
39 -77 88 0
14 -74 46 0
-96 -87 80 0
73 100 13 0
-12 57 -86 0
68 59 75 0
-70 -20 -39 0
