p cnf 500 2125
175 -458 -68 0
-6 161 202 0
185 263 247 0
67 -4 -414 0
-350 -202 -289 0
-58 -344 -79 0
-284 333 136 0
259 -137 -462 0
422 479 183 0
138 -460 -87 0
42 -147 449 0
-396 181 -60 0
436 -239 -467 0
-416 428 469 0
121 214 7 0
234 314 32 0
284 166 -253 0
-261 254 264 0
354 -154 -490 0
339 488 -189 0
143 168 -290 0
-49 -166 -82 0
-378 328 442 0
274 7 -267 0
344 -3 222 0
-451 -4 496 0
-124 196 -112 0
392 181 -293 0
499 296 266 0
14 -77 -165 0
-495 -445 -442 0
374 306 -264 0
164 -307 363 0
-433 419 435 0
-381 -402 -26 0
-456 371 9 0
-167 -452 -436 0
258 -136 435 0
-313 482 257 0
-97 -340 -27 0
-277 1 73 0
101 -284 -199 0
212 -437 302 0
314 -115 149 0
-47 -406 202 0
-465 -368 -154 0
-56 144 -418 0
-281 453 -48 0
483 -358 -429 0
271 -179 39 0
-261 -330 350 0
385 -28 -447 0
382 83 -136 0
-421 -110 -53 0
-86 213 23 0
190 -363 485 0
-299 442 155 0
-97 -478 -286 0
195 -334 259 0
123 -40 325 0
-143 -275 -176 0
460 -344 -365 0
414 7 392 0
492 338 182 0
345 176 -490 0
44 -442 -499 0
141 9 5 0
266 -315 -301 0
462 -180 403 0
-322 173 294 0
-213 309 -248 0
56 -117 27 0
-455 483 -128 0
203 435 -5 0
-342 -188 446 0
491 -418 -138 0
178 433 -245 0
340 -356 -105 0
455 -249 -301 0
119 -379 -260 0
447 -434 135 0
-390 79 351 0
-473 451 126 0
496 -394 -142 0
63 359 -185 0
484 -391 36 0
153 -444 397 0
-97 71 -111 0
24 281 -197 0
-315 458 189 0
-146 178 -446 0
353 397 339 0
-104 -470 -165 0
46 -58 -353 0
-440 -393 -351 0
-166 479 -172 0
477 191 232 0
-426 -220 -461 0
-290 397 -333 0
-247 -116 476 0
-172 256 -316 0
142 93 262 0
-344 363 -262 0
-251 -294 -303 0
16 -155 -476 0
174 136 -418 0
-35 -418 -470 0
-57 -423 -51 0
-30 -152 104 0
-295 -263 149 0
490 -335 106 0
-57 384 -144 0
124 -218 -67 0
316 247 231 0
59 -393 28 0
-131 -192 175 0
394 270 -389 0
125 -499 -498 0
-429 223 -392 0
387 -498 -423 0
94 -91 -43 0
209 103 230 0
-118 -136 291 0
108 308 -418 0
341 -461 47 0
302 230 46 0
42 -381 237 0
399 137 -74 0
-252 -245 -427 0
225 -144 -14 0
-346 306 -251 0
-476 374 -479 0
-448 228 353 0
-283 -375 -164 0
358 -162 467 0
267 105 -120 0
-141 326 249 0
-428 194 50 0
-13 -65 386 0
-334 190 436 0
47 324 -225 0
-88 -423 6 0
21 -151 -399 0
389 -14 -107 0
-404 -19 108 0
-160 -387 -435 0
238 -233 60 0
170 479 353 0
-482 53 59 0
306 258 -495 0
-404 -436 182 0
-202 336 -282 0
358 -159 -125 0
487 -483 -217 0
108 -487 -325 0
-161 -248 32 0
352 313 -150 0
20 142 -95 0
-95 -498 89 0
196 -13 -33 0
34 -359 207 0
-469 -415 -128 0
-340 -345 -99 0
-116 196 285 0
143 -67 -100 0
217 476 -102 0
-398 471 223 0
44 34 279 0
-111 290 -494 0
415 -342 500 0
-156 -162 -74 0
394 122 342 0
69 208 -181 0
496 443 -457 0
-288 367 482 0
-95 -239 228 0
-218 -291 390 0
23 301 383 0
353 -427 116 0
442 -292 205 0
447 -444 -3 0
405 97 49 0
371 184 -454 0
-124 -378 412 0
154 398 -309 0
-13 -391 397 0
-288 458 39 0
-313 -26 444 0
467 392 -480 0
-107 -137 246 0
-312 -14 -177 0
32 -137 -476 0
319 -79 367 0
266 -338 -427 0
-248 288 11 0
8 -46 489 0
212 -21 489 0
152 -29 -272 0
-17 -317 293 0
-349 -195 4 0
-166 -279 180 0
-2 201 442 0
-129 400 -299 0
328 -204 -234 0
-404 87 -457 0
131 108 -302 0
235 140 -178 0
69 -66 -317 0
29 -3 -477 0
231 -320 486 0
-65 329 226 0
-183 -106 297 0
-286 -163 -234 0
-139 -352 462 0
389 376 60 0
395 106 -377 0
75 212 403 0
225 149 500 0
301 110 -394 0
-489 132 -425 0
309 -226 352 0
224 -291 -56 0
403 -238 -56 0
-435 -466 63 0
460 -98 357 0
390 -459 141 0
-35 -122 36 0
56 -252 347 0
11 -41 451 0
159 492 71 0
-154 156 168 0
-12 -221 -340 0
-238 -2 -282 0
-476 154 -329 0
-409 488 176 0
-283 -43 -25 0
-333 -202 -318 0
-75 -470 -250 0
-188 162 143 0
-126 -366 405 0
400 -423 211 0
488 -262 372 0
154 129 -354 0
-15 -66 -10 0
-300 -206 -411 0
-192 337 -26 0
368 -3 -142 0
-392 -35 -253 0
161 95 -323 0
-350 -397 81 0
315 -197 205 0
-495 148 366 0
-497 181 -144 0
140 -326 -438 0
377 -367 -20 0
88 -441 -377 0
87 41 99 0
-220 373 276 0
236 -479 222 0
163 -265 -50 0
394 -408 -388 0
-303 -15 321 0
386 -305 -416 0
-53 451 413 0
460 -202 -146 0
-11 395 -335 0
-175 302 380 0
-62 -323 43 0
-389 -476 338 0
-258 377 34 0
476 195 -479 0
454 164 311 0
476 -481 169 0
-259 31 -282 0
273 -178 -387 0
-163 -398 442 0
-137 351 -2 0
-495 190 -162 0
367 412 5 0
-101 -460 139 0
428 63 -385 0
-397 -5 -210 0
335 323 -59 0
-368 470 123 0
337 -323 356 0
-347 146 -319 0
18 445 8 0
12 -406 -461 0
-4 -461 396 0
186 293 90 0
374 241 7 0
203 -198 -440 0
37 444 -107 0
236 18 211 0
469 37 -455 0
-488 -273 -428 0
-13 -431 209 0
-475 -176 -219 0
-433 -494 -144 0
227 -151 -460 0
406 -193 405 0
-343 -207 -32 0
-279 -87 437 0
-110 -298 -161 0
-9 -348 170 0
-202 -448 -162 0
-40 -280 -262 0
-187 373 190 0
-441 251 146 0
301 -302 -466 0
297 96 216 0
341 78 -295 0
-15 141 -249 0
153 316 -406 0
224 328 -131 0
88 -398 -61 0
337 114 -447 0
2 -300 339 0
359 341 -28 0
-177 -317 51 0
-147 -298 494 0
-470 371 -134 0
-310 -433 -233 0
233 -142 -253 0
-206 291 -45 0
-375 -310 -126 0
279 233 -377 0
-404 -241 17 0
-171 436 163 0
491 337 -323 0
434 207 185 0
161 -151 123 0
-421 430 -213 0
356 -403 374 0
184 -142 -21 0
493 -229 -322 0
-365 484 116 0
223 -37 46 0
35 -235 315 0
-50 67 305 0
162 -456 364 0
105 -375 65 0
-387 304 -275 0
464 -243 -154 0
191 177 -206 0
468 472 151 0
-365 -302 134 0
-237 -358 457 0
74 37 348 0
104 -43 305 0
-93 -239 169 0
400 455 -460 0
-346 -313 -259 0
-217 -156 -275 0
-279 393 45 0
-356 -466 376 0
238 -278 229 0
109 443 -260 0
-329 -244 87 0
-453 102 -148 0
488 104 190 0
-67 -115 -362 0
-134 -349 45 0
212 -400 317 0
474 239 298 0
-33 -210 -423 0
-341 -387 -216 0
244 -320 -167 0
259 -182 -220 0
-20 -224 151 0
256 -134 365 0
-226 203 451 0
-253 -282 123 0
142 -358 -219 0
-66 -341 -358 0
27 430 -379 0
-111 431 -206 0
383 -328 -288 0
-12 305 -201 0
-158 235 -161 0
345 -223 -415 0
151 -413 150 0
29 -106 305 0
65 -318 -414 0
-95 237 447 0
76 -407 426 0
364 486 383 0
27 424 371 0
100 -44 -420 0
-24 194 -394 0
266 479 -337 0
232 152 202 0
-102 431 254 0
259 211 -305 0
29 -149 247 0
449 -137 -147 0
-307 63 -6 0
-389 -125 60 0
250 -325 481 0
-48 226 60 0
22 -154 -177 0
-294 169 88 0
182 -266 180 0
-81 -128 55 0
207 -322 460 0
-283 11 384 0
127 -400 316 0
-499 -324 377 0
-376 -106 -134 0
-287 469 -163 0
459 -280 -309 0
-24 -266 431 0
-411 -349 -418 0
-314 500 -174 0
26 -219 207 0
-341 -458 478 0
-117 -123 -58 0
-469 -213 -54 0
-122 -66 193 0
-88 72 436 0
300 -316 -406 0
-272 414 -434 0
412 -364 -172 0
-453 -272 -324 0
-226 113 -252 0
-336 -30 254 0
-421 -250 -481 0
-195 273 432 0
315 -362 399 0
-437 -471 404 0
-411 -205 -189 0
-80 -197 -307 0
-275 340 -77 0
-474 -442 -48 0
7 -34 -188 0
412 -72 342 0
147 243 18 0
-167 141 -184 0
354 -124 -22 0
-190 -216 450 0
491 399 219 0
-318 342 -456 0
-2 46 224 0
286 148 423 0
56 350 116 0
-171 -486 -368 0
180 -449 146 0
311 -393 -395 0
387 75 -116 0
-378 74 106 0
240 -66 146 0
5 -275 -25 0
398 -323 -368 0
-130 219 -215 0
195 325 332 0
320 439 -103 0
401 363 -241 0
-350 -125 424 0
-19 -436 18 0
212 -408 133 0
-357 210 -367 0
185 -74 278 0
275 -355 -127 0
26 288 -265 0
-327 154 -270 0
-103 -170 -63 0
-252 -54 153 0
-146 -352 270 0
184 169 -285 0
453 115 126 0
-246 465 -299 0
329 123 -311 0
389 -42 497 0
-269 193 -248 0
-404 -309 219 0
-63 173 113 0
428 283 482 0
33 38 -410 0
-37 117 -482 0
432 68 413 0
-129 -449 321 0
214 -252 -91 0
-284 348 -327 0
126 -220 69 0
348 304 331 0
-470 449 -291 0
464 407 395 0
432 480 -423 0
438 -330 120 0
250 -288 -144 0
294 498 99 0
141 246 -100 0
-30 -364 25 0
-483 21 -264 0
-415 -195 -485 0
-102 2 -140 0
-360 -369 363 0
-405 -56 -291 0
496 420 -112 0
-454 -333 39 0
202 -106 79 0
-118 -117 192 0
-306 -401 -48 0
315 369 -8 0
-250 165 -224 0
-311 -390 239 0
440 395 109 0
-451 -410 266 0
72 56 71 0
-8 -382 -113 0
4 362 -412 0
-176 -292 -155 0
-388 312 287 0
-293 -57 357 0
370 272 144 0
151 366 376 0
43 264 -256 0
-491 -425 500 0
322 -318 -492 0
390 98 14 0
-318 230 297 0
118 105 30 0
203 401 -314 0
258 130 450 0
77 -300 -443 0
485 259 180 0
470 -396 -469 0
18 -124 219 0
-436 -15 289 0
-173 -464 -193 0
-88 -218 250 0
399 -365 454 0
-290 -161 296 0
329 315 146 0
4 160 -336 0
-407 -173 -238 0
206 444 468 0
89 -142 277 0
381 -100 -228 0
238 234 -47 0
170 423 -93 0
-316 133 302 0
-90 -210 -487 0
312 59 -269 0
-197 1 -400 0
188 299 149 0
-485 114 -171 0
188 13 -414 0
484 297 -395 0
496 500 284 0
23 281 325 0
-392 -27 198 0
250 198 11 0
-7 -447 -421 0
320 304 8 0
-21 16 18 0
-436 420 345 0
-411 219 304 0
-409 497 91 0
-84 336 339 0
309 258 -452 0
-412 -87 417 0
368 254 -359 0
-473 -5 224 0
150 -35 -88 0
-11 112 -403 0
82 -438 -64 0
-386 -424 67 0
379 22 310 0
-56 121 -125 0
-474 -29 -20 0
280 -100 -129 0
323 414 360 0
-103 -272 -146 0
-51 82 -391 0
77 -300 293 0
114 180 273 0
-309 -227 -448 0
406 342 -292 0
-446 -486 67 0
79 221 486 0
-78 -455 -405 0
-278 236 324 0
-458 -106 179 0
266 -310 -208 0
-365 -372 315 0
-38 194 -485 0
-406 233 -145 0
76 -220 54 0
401 -80 77 0
-314 -317 -171 0
-316 360 -38 0
-122 -193 -483 0
-433 -7 -467 0
373 -407 306 0
-183 -17 126 0
190 10 295 0
-73 -368 -332 0
381 -497 261 0
-22 204 -175 0
-315 -262 -463 0
444 67 -375 0
-359 77 84 0
-79 -106 468 0
462 -74 278 0
454 68 83 0
169 -136 450 0
-317 -340 -233 0
394 235 -48 0
-89 -444 -424 0
133 -15 -230 0
82 36 5 0
74 419 -434 0
169 -271 143 0
-262 219 -22 0
190 420 -290 0
86 303 241 0
-341 -325 -64 0
84 373 -379 0
335 443 -116 0
116 -98 110 0
493 -234 377 0
173 -403 311 0
-471 -248 -136 0
379 317 115 0
-402 479 170 0
-498 -196 -18 0
-115 -127 -317 0
-334 -150 34 0
-323 466 398 0
412 -309 196 0
323 344 383 0
-138 -263 177 0
-99 -371 240 0
-381 -469 160 0
-175 316 -205 0
159 -263 245 0
-498 -96 -47 0
150 274 -390 0
-313 -368 -186 0
320 -169 -413 0
-212 496 500 0
-33 -64 -391 0
-172 468 224 0
288 -60 106 0
134 196 243 0
-226 -118 467 0
188 154 259 0
-328 158 -415 0
-86 -191 -73 0
132 75 -497 0
36 -483 284 0
-282 147 2 0
168 220 141 0
-1 -358 183 0
-478 -457 72 0
23 -261 -362 0
-222 -479 -319 0
104 433 321 0
399 170 -121 0
122 170 -9 0
286 -104 -334 0
450 -299 147 0
-273 156 95 0
127 -337 -316 0
53 500 -470 0
252 -288 -336 0
460 96 68 0
-36 -60 178 0
-143 -403 105 0
393 -349 432 0
227 253 -342 0
80 -362 -91 0
299 -339 459 0
-92 -325 -26 0
-162 428 495 0
-14 340 -254 0
26 50 214 0
-121 111 17 0
-27 -228 173 0
188 353 328 0
-101 134 -259 0
-93 -161 189 0
-204 -259 111 0
344 139 -448 0
422 148 312 0
94 323 394 0
-213 208 -270 0
22 21 214 0
353 -333 497 0
-486 326 -492 0
89 -66 -224 0
-487 -96 -246 0
-4 446 -441 0
218 -127 -452 0
-60 -145 227 0
-142 -261 -355 0
-137 -177 -239 0
284 398 -440 0
350 175 276 0
-285 401 -334 0
40 -290 -277 0
341 362 -118 0
-423 491 -459 0
-318 -256 273 0
-212 123 343 0
166 1 -404 0
-319 -89 -446 0
460 271 218 0
-59 -287 -205 0
84 -80 -83 0
236 455 -194 0
266 -75 182 0
-298 -499 461 0
-313 343 43 0
363 -351 -84 0
-481 434 63 0
-19 -234 428 0
-328 281 -340 0
-460 -217 -99 0
21 5 -12 0
-389 45 -344 0
34 -420 -297 0
464 -478 -235 0
355 -500 187 0
13 -22 361 0
-146 -461 -47 0
-4 -448 208 0
-114 218 459 0
278 101 30 0
-63 356 227 0
259 -185 400 0
-150 -272 77 0
-374 191 -353 0
382 -158 140 0
477 96 430 0
-122 290 -426 0
-114 -173 -59 0
-148 -379 -127 0
-334 -29 -15 0
-237 -98 69 0
-8 -22 90 0
-82 -31 -436 0
-117 -30 22 0
-344 -29 -303 0
33 -389 377 0
-153 492 203 0
-247 223 -406 0
-116 -289 -137 0
-493 -495 29 0
334 -452 -473 0
-84 155 211 0
-355 194 206 0
-423 -150 -226 0
-317 -55 -358 0
-499 91 427 0
-430 482 308 0
-24 228 81 0
247 -60 -61 0
24 -385 -130 0
-474 357 -166 0
-415 -348 66 0
44 352 -61 0
-316 -10 -403 0
304 -173 -300 0
-484 286 -203 0
-228 -202 154 0
322 -8 349 0
-196 -494 436 0
-326 350 57 0
162 -111 -81 0
110 -146 345 0
-194 10 -96 0
-412 344 -96 0
350 -70 -399 0
-489 -282 -318 0
39 -148 -276 0
-476 149 -214 0
-159 422 -185 0
-202 205 55 0
251 300 -63 0
397 -217 408 0
-323 162 230 0
399 294 405 0
249 282 191 0
225 95 165 0
-190 70 106 0
-68 469 -160 0
-131 25 -413 0
-385 256 -242 0
79 -338 -189 0
428 -62 146 0
-291 464 21 0
149 -17 268 0
-352 75 -220 0
328 225 129 0
220 -55 19 0
473 -317 470 0
-193 146 -201 0
-153 -425 -459 0
232 -137 -294 0
215 -425 498 0
461 129 116 0
-459 201 149 0
433 -257 51 0
394 3 -464 0
-161 -491 466 0
-60 -235 -119 0
54 -445 -95 0
-297 -420 -181 0
46 -27 -84 0
319 -91 -456 0
-239 473 -410 0
-82 447 -453 0
92 -284 -137 0
-256 -359 -188 0
-266 386 353 0
48 472 -461 0
-154 -277 -6 0
-150 -184 348 0
-230 235 190 0
20 103 -338 0
351 -92 -38 0
198 13 365 0
223 -428 304 0
56 -249 325 0
445 -349 451 0
284 14 347 0
-293 208 493 0
-314 -60 -296 0
37 257 56 0
427 -415 -260 0
-226 234 -414 0
-436 246 -165 0
-255 371 -287 0
67 -78 457 0
500 114 209 0
123 -144 488 0
-47 66 -133 0
-446 292 165 0
-374 375 -27 0
417 392 278 0
30 -21 172 0
364 -196 -254 0
376 6 68 0
-275 -298 312 0
-42 -218 -358 0
-392 212 133 0
-222 121 22 0
-219 -483 339 0
238 336 -487 0
-460 -101 -437 0
200 165 -263 0
-22 340 406 0
-246 415 106 0
249 491 248 0
-308 394 -3 0
-392 35 101 0
125 -77 -389 0
55 -287 -417 0
492 -286 486 0
-379 245 244 0
172 358 219 0
141 226 -24 0
-68 -4 408 0
-119 -432 -447 0
478 -441 393 0
155 -476 300 0
-99 -250 -427 0
-126 362 356 0
-462 188 -88 0
-83 -457 417 0
98 -276 75 0
-488 -158 -185 0
-186 -373 -262 0
80 2 205 0
215 386 483 0
423 135 466 0
7 450 415 0
-191 -326 -216 0
172 -104 380 0
-181 374 -332 0
-95 363 462 0
-233 194 380 0
-176 -312 63 0
457 -163 264 0
418 93 -38 0
-137 276 -131 0
-402 -54 -492 0
99 -474 368 0
69 57 -426 0
-189 -200 -155 0
-384 179 178 0
320 148 299 0
-77 10 202 0
-123 -430 190 0
130 -487 -226 0
312 40 181 0
383 154 -352 0
137 -211 453 0
461 -386 239 0
201 -112 -73 0
21 -199 260 0
-405 241 -375 0
307 128 69 0
-153 147 369 0
-402 389 339 0
300 101 -489 0
-249 346 465 0
-232 66 427 0
-73 39 -80 0
-467 405 218 0
99 -176 -76 0
302 132 -67 0
-318 -394 307 0
-346 -18 74 0
24 309 -394 0
-228 -223 466 0
-34 82 -496 0
-495 230 -207 0
439 146 242 0
-109 -47 233 0
-316 -86 164 0
180 269 -125 0
-55 89 324 0
-50 -358 -494 0
465 497 -476 0
138 202 111 0
-392 -328 -270 0
-375 -274 156 0
-66 317 370 0
80 -467 72 0
-56 -53 -147 0
253 458 -434 0
-365 84 397 0
-414 -250 175 0
-290 440 -99 0
268 -230 -440 0
38 -441 -407 0
-248 364 211 0
116 -393 -34 0
-310 -378 -183 0
253 2 182 0
394 392 -98 0
237 -121 279 0
168 364 -28 0
320 40 -452 0
-3 354 -428 0
-287 117 453 0
-411 294 116 0
429 494 -34 0
-124 -73 36 0
-256 295 450 0
210 -472 -319 0
-80 363 384 0
-494 213 -78 0
135 244 -433 0
-79 -437 451 0
352 -289 -217 0
-58 -206 359 0
-252 -142 -109 0
-319 -311 293 0
-353 127 -222 0
-243 -497 153 0
69 375 39 0
-248 -197 -497 0
304 -161 -183 0
409 -51 307 0
-88 -404 232 0
221 -92 168 0
-180 240 -198 0
-217 -141 203 0
-76 279 -464 0
108 -88 34 0
138 456 433 0
274 420 -488 0
30 -216 -133 0
262 392 440 0
81 469 335 0
-184 111 -128 0
479 -463 -466 0
139 145 -298 0
-250 293 29 0
-194 246 -313 0
-373 -408 -149 0
-71 -216 -7 0
353 -13 184 0
-290 -173 301 0
-463 284 -80 0
48 304 -23 0
-18 151 303 0
21 -468 460 0
346 -460 -427 0
167 259 -461 0
346 284 273 0
455 3 -366 0
480 398 426 0
-411 -341 396 0
490 -361 -424 0
-198 -397 -339 0
-328 111 -341 0
424 -214 -61 0
306 -153 432 0
362 -478 267 0
-271 -398 105 0
341 464 274 0
-235 -136 139 0
-452 -98 -126 0
201 161 41 0
439 199 -382 0
-109 -332 -149 0
163 -117 -63 0
-482 -426 385 0
-30 -256 -168 0
-303 -224 185 0
429 -117 -415 0
-59 -141 134 0
-485 41 -105 0
162 296 -137 0
234 -375 117 0
-118 -423 -154 0
87 -175 -369 0
376 21 121 0
267 172 -52 0
135 -212 -173 0
4 474 6 0
110 299 259 0
429 445 348 0
-216 449 -250 0
257 -284 157 0
408 177 55 0
-387 30 484 0
129 -278 49 0
-341 -422 -329 0
418 -62 -471 0
-446 -213 -62 0
49 239 87 0
286 -257 315 0
340 164 85 0
-386 232 -158 0
-412 -286 476 0
334 -121 -389 0
-249 -352 -207 0
-200 -61 389 0
-449 -480 -124 0
31 328 419 0
-264 500 -226 0
-47 -203 194 0
486 -393 46 0
-260 -74 -416 0
425 -58 404 0
326 280 -172 0
145 -353 389 0
295 -277 -132 0
-328 436 32 0
-85 88 -12 0
-225 236 -277 0
443 457 -444 0
12 210 189 0
-57 40 -497 0
-57 -136 -296 0
-42 487 424 0
220 -191 -154 0
335 -160 -476 0
109 189 155 0
-10 -153 -249 0
289 -100 148 0
228 -120 -214 0
-24 -88 211 0
-290 -309 174 0
379 7 142 0
-431 435 -26 0
-424 -33 143 0
67 371 431 0
445 110 162 0
358 199 349 0
-333 216 343 0
-76 -166 352 0
277 -430 40 0
301 -158 422 0
-387 -427 212 0
264 -211 -137 0
-321 297 -180 0
-84 -327 -280 0
-20 -126 -314 0
-92 137 -302 0
172 -218 349 0
103 -41 -282 0
9 448 230 0
436 159 325 0
238 237 -471 0
-293 -2 -271 0
-295 -90 17 0
-190 -51 -28 0
-337 248 -179 0
356 414 53 0
-403 -231 -57 0
108 -294 336 0
150 -409 208 0
-460 37 -85 0
426 -337 -291 0
-260 -390 -61 0
397 -109 -3 0
-364 -403 58 0
58 -391 -124 0
269 337 -37 0
-259 -37 327 0
-358 -172 302 0
155 -317 -247 0
360 -38 40 0
291 444 -434 0
-293 434 -500 0
-158 46 -477 0
79 93 475 0
103 -277 482 0
10 239 -306 0
-299 284 170 0
-275 221 428 0
416 -222 102 0
-40 259 95 0
384 -196 145 0
221 217 484 0
443 -212 -236 0
158 207 9 0
-411 361 352 0
237 -27 -107 0
285 82 -405 0
-299 456 -486 0
-347 124 463 0
-181 440 -467 0
71 84 -146 0
-110 -127 -245 0
-281 229 152 0
-330 422 -412 0
-170 -135 17 0
489 -84 -368 0
-427 -51 -176 0
358 -81 -313 0
-491 -334 118 0
-138 -432 392 0
282 -137 -108 0
-285 86 70 0
-384 401 186 0
-461 165 -397 0
-92 -47 -37 0
391 188 -366 0
98 -75 -172 0
-359 18 -151 0
-169 -447 78 0
491 456 281 0
162 73 260 0
187 -72 -260 0
89 -499 346 0
-121 -317 260 0
-55 482 -262 0
104 -330 -63 0
-200 -299 -201 0
65 -356 404 0
184 407 445 0
372 86 -277 0
-474 266 -327 0
449 -41 -382 0
16 -48 42 0
352 -322 -425 0
449 -26 -320 0
-274 -271 -117 0
350 -73 -317 0
370 -253 -416 0
301 421 -480 0
379 229 41 0
98 -58 -50 0
403 -394 484 0
-249 223 -267 0
294 -4 -320 0
435 -115 -231 0
241 157 -408 0
-298 -24 142 0
158 -152 412 0
500 -9 288 0
481 464 494 0
171 266 -54 0
-477 -217 -348 0
-146 168 76 0
-296 298 307 0
361 100 -338 0
37 -426 -245 0
-258 256 -422 0
-407 -472 -158 0
-415 -281 -313 0
191 -27 -16 0
188 -444 -125 0
-333 -248 497 0
78 447 147 0
-300 -183 155 0
-165 373 197 0
-294 -207 176 0
473 -461 -389 0
-494 223 -413 0
-192 258 441 0
-230 122 203 0
378 457 70 0
-372 163 148 0
-87 -21 -185 0
-232 -181 397 0
-201 -78 336 0
58 492 293 0
-433 -394 -390 0
-98 -339 458 0
-373 -89 -177 0
-95 461 162 0
-119 -52 203 0
-465 -226 55 0
-347 -220 139 0
-282 173 -470 0
-354 225 236 0
-116 294 -117 0
-74 -187 72 0
-225 427 279 0
-495 -493 366 0
406 -178 -190 0
-59 -365 -383 0
202 -415 368 0
14 214 422 0
490 376 270 0
-373 272 213 0
450 -331 -372 0
-404 -200 26 0
372 -462 -108 0
198 -71 484 0
71 -361 -238 0
-221 41 351 0
-229 409 -124 0
143 -321 411 0
97 407 110 0
162 -291 78 0
354 -69 374 0
488 467 -425 0
389 -168 180 0
-467 75 -49 0
-471 -294 461 0
123 -59 -271 0
-243 397 -348 0
-261 143 -215 0
-325 -436 190 0
19 -114 195 0
-88 81 -404 0
185 -158 -9 0
60 -211 -365 0
-464 385 373 0
-447 59 248 0
91 -211 281 0
-4 -95 397 0
-387 -447 -407 0
-288 -15 393 0
-370 -109 360 0
-49 2 401 0
258 -277 -486 0
-95 -112 -27 0
-142 -402 41 0
480 -477 -74 0
-264 -144 225 0
-43 -395 305 0
53 -476 74 0
-228 17 263 0
-445 -176 -92 0
384 -299 -54 0
-36 150 -156 0
-243 195 489 0
266 344 -34 0
-484 247 -163 0
496 231 444 0
-322 236 40 0
51 -356 -194 0
239 -343 260 0
119 174 -122 0
164 -146 57 0
71 -486 -198 0
285 -70 212 0
486 -65 -385 0
148 -68 -476 0
-349 90 334 0
-124 -345 361 0
-334 233 62 0
362 -173 219 0
65 -426 -444 0
132 -491 410 0
315 -170 -99 0
206 335 -280 0
431 244 209 0
-288 227 -237 0
-137 -289 123 0
486 -77 9 0
456 186 -410 0
-269 -133 297 0
287 47 451 0
381 -357 -28 0
275 77 -157 0
-287 493 107 0
422 126 -206 0
-309 395 185 0
179 -290 209 0
-314 401 206 0
-277 155 116 0
312 31 -212 0
82 73 202 0
278 482 377 0
334 204 418 0
-353 -323 -27 0
-435 33 304 0
-481 -90 87 0
140 -289 283 0
417 -478 -78 0
275 165 239 0
299 -489 443 0
-375 184 98 0
-366 -394 -183 0
20 143 -207 0
-308 -57 153 0
-420 432 324 0
407 -80 319 0
259 264 184 0
-43 268 -450 0
-452 -182 82 0
-258 -406 -200 0
34 -143 83 0
-443 -168 -456 0
-455 258 -260 0
-117 144 384 0
-424 338 -28 0
51 475 207 0
357 -288 256 0
302 -317 185 0
-37 -111 57 0
-342 -341 -200 0
194 -11 -282 0
-447 -417 -308 0
-204 261 -227 0
298 375 -343 0
207 470 454 0
131 338 -166 0
-372 -25 -430 0
28 -8 -193 0
102 495 10 0
223 -374 306 0
280 187 388 0
-24 -238 -449 0
-281 -301 406 0
-237 116 85 0
-95 -300 128 0
116 -65 243 0
-266 -265 -218 0
80 -3 -484 0
-489 -13 -66 0
310 -57 292 0
385 -44 -338 0
77 444 -484 0
-81 55 -411 0
404 -281 -140 0
-437 139 -62 0
224 303 -422 0
97 -282 -435 0
224 160 -445 0
27 -202 -102 0
-314 278 56 0
-68 308 465 0
-235 187 -419 0
364 -289 372 0
-403 -56 -30 0
312 253 -3 0
-109 59 398 0
195 -362 -203 0
-156 324 -40 0
-348 119 -78 0
-291 -92 66 0
-23 -121 -321 0
194 -450 -225 0
-82 109 480 0
52 442 -340 0
408 -377 423 0
119 189 54 0
203 -201 237 0
459 -313 284 0
375 -76 306 0
451 -379 -159 0
-272 441 -265 0
303 329 -271 0
-105 140 465 0
-180 -15 -47 0
224 -464 429 0
-174 411 -199 0
-164 14 -483 0
338 -70 218 0
-304 105 -339 0
146 -5 375 0
286 438 -205 0
238 -158 -212 0
175 232 164 0
10 344 374 0
-66 190 251 0
-467 -463 230 0
192 -42 -111 0
302 399 107 0
69 2 -157 0
130 141 359 0
-193 180 -352 0
128 375 460 0
302 -254 -311 0
348 -282 -494 0
-26 -154 120 0
23 385 -280 0
-306 87 -71 0
-281 329 478 0
-299 -263 114 0
138 -113 -476 0
82 -45 -386 0
-136 454 318 0
-131 -446 139 0
-212 243 -488 0
-310 -79 236 0
-109 -24 120 0
-38 267 181 0
-382 229 -241 0
-347 224 371 0
141 -480 -435 0
499 60 137 0
235 -433 -334 0
-433 322 -275 0
-4 -326 274 0
-5 61 79 0
310 131 276 0
-72 173 -481 0
-282 82 -305 0
211 205 429 0
116 -465 371 0
260 -167 89 0
57 472 -361 0
279 324 467 0
-164 -233 -96 0
237 385 -92 0
446 -244 364 0
-396 202 -23 0
82 -341 241 0
21 173 246 0
44 266 447 0
-224 -311 229 0
-25 318 -131 0
256 425 -246 0
-488 -174 -368 0
472 42 -377 0
168 -13 405 0
271 -254 407 0
396 34 -203 0
101 500 15 0
-260 -359 93 0
442 -74 232 0
470 129 395 0
-246 -208 255 0
184 -367 203 0
-104 495 -256 0
-313 318 69 0
-365 -259 356 0
-495 407 267 0
383 183 -62 0
-139 203 -286 0
-499 191 -390 0
-282 173 -75 0
-300 -489 -112 0
263 428 381 0
-395 -228 -292 0
-221 421 301 0
468 158 -18 0
-241 398 318 0
-20 242 122 0
248 -83 229 0
-39 334 67 0
-125 -84 -148 0
-363 487 -350 0
352 392 243 0
205 239 -78 0
-471 452 -3 0
102 -431 492 0
-53 -396 -392 0
-142 70 -357 0
495 -149 89 0
242 -461 -465 0
16 185 499 0
257 431 41 0
285 -176 -415 0
-37 -205 443 0
-486 451 314 0
363 284 119 0
26 470 262 0
-339 -411 346 0
197 -196 440 0
-386 -30 -343 0
73 422 -100 0
-82 485 379 0
488 376 -14 0
-422 -132 57 0
91 -490 468 0
89 -242 496 0
61 437 -120 0
354 -94 -266 0
284 -451 -228 0
-480 165 -262 0
-478 -448 430 0
-437 -215 -131 0
355 483 -73 0
-231 -321 50 0
-436 -459 -242 0
-478 296 -317 0
459 50 -10 0
346 -70 459 0
305 -101 2 0
367 147 -33 0
-408 363 -135 0
-213 -471 70 0
169 -441 381 0
41 174 135 0
204 478 282 0
159 204 -160 0
243 270 467 0
-325 119 -404 0
57 11 109 0
364 378 165 0
133 162 -489 0
212 15 80 0
372 497 238 0
269 -331 -384 0
195 274 -482 0
-124 -69 -431 0
264 -456 368 0
98 -375 -63 0
-185 291 -444 0
443 -109 189 0
-78 -160 64 0
-403 228 412 0
28 -330 -205 0
-31 -58 -197 0
39 27 114 0
-278 377 284 0
-198 -479 364 0
358 -52 472 0
-409 14 233 0
-197 405 -265 0
-274 35 -154 0
60 -487 424 0
-410 -231 -255 0
120 -170 -463 0
99 495 -188 0
-158 318 -293 0
90 240 297 0
-413 319 167 0
-478 -178 179 0
162 372 108 0
287 -96 314 0
-205 403 -227 0
316 -100 126 0
493 -256 -124 0
-424 -19 -415 0
165 416 -197 0
-201 3 -463 0
-494 253 134 0
386 -61 -466 0
-177 470 -29 0
-251 349 463 0
-363 -4 117 0
-492 148 375 0
-215 439 149 0
-231 173 -383 0
-291 -282 473 0
-33 -330 -149 0
368 85 -103 0
254 451 -13 0
-476 166 142 0
-301 353 -27 0
-482 -174 295 0
407 -227 -282 0
-436 -354 486 0
207 -55 480 0
156 394 -411 0
-264 -186 -194 0
197 177 -119 0
253 -163 -179 0
-104 486 -344 0
146 -306 -208 0
-159 107 -494 0
-97 -277 -72 0
354 88 496 0
-110 -228 -472 0
-260 -431 426 0
-380 123 -3 0
353 9 254 0
122 -196 128 0
492 -34 271 0
330 475 408 0
-192 -340 -416 0
-92 365 -252 0
-94 -405 261 0
264 286 -54 0
44 -461 -437 0
-489 -185 29 0
-288 -489 285 0
223 -445 -231 0
-250 344 155 0
-187 60 -127 0
136 -402 175 0
-367 433 -33 0
-174 -375 313 0
46 67 -266 0
120 -41 -103 0
367 -65 23 0
-164 -387 370 0
-176 -1 -186 0
-390 356 128 0
198 -357 495 0
-189 102 305 0
67 158 -39 0
200 -184 -30 0
-2 388 400 0
-42 117 484 0
44 298 427 0
-274 -168 286 0
227 366 -405 0
385 162 5 0
-48 315 77 0
436 370 -67 0
335 -484 214 0
117 20 293 0
69 -473 -103 0
78 -107 -299 0
-243 -99 -21 0
-339 -47 -161 0
-12 -459 -429 0
-297 332 465 0
155 92 145 0
-285 424 210 0
-412 -371 106 0
-317 -333 -206 0
25 -32 -481 0
162 210 26 0
327 257 -89 0
177 -262 -2 0
273 184 488 0
359 -26 280 0
-180 -452 -43 0
333 -166 456 0
398 250 -445 0
-6 360 -448 0
-344 -432 -268 0
27 390 341 0
297 -474 -182 0
-368 -41 383 0
426 211 -189 0
-273 480 -454 0
68 37 357 0
-288 -353 -57 0
-199 189 -449 0
-310 228 79 0
-309 94 271 0
99 -197 140 0
217 -168 459 0
97 234 489 0
89 -159 95 0
162 -87 -287 0
270 -482 -339 0
228 312 -12 0
356 491 64 0
-401 -380 -291 0
-256 -261 234 0
358 -54 -448 0
233 152 274 0
-440 460 -29 0
255 128 -302 0
-437 -487 136 0
348 -482 -3 0
-28 -135 -59 0
94 444 195 0
-373 -3 -84 0
475 55 -108 0
192 -383 -416 0
-395 225 -133 0
142 365 226 0
251 -482 -68 0
179 -280 -116 0
445 -86 427 0
254 -128 485 0
-457 -127 359 0
-169 -106 -25 0
-245 -117 335 0
-269 397 370 0
-54 175 -298 0
-34 -310 -101 0
-9 -7 163 0
-324 105 421 0
17 122 214 0
-445 -499 458 0
-24 477 407 0
302 481 408 0
-20 -287 213 0
-432 -349 -303 0
479 -395 -176 0
-443 -129 -383 0
50 -410 216 0
221 -82 499 0
-160 177 132 0
408 472 -249 0
-107 212 -196 0
232 469 -202 0
407 -479 12 0
-357 323 438 0
478 -477 -265 0
-457 266 466 0
42 -384 395 0
-170 -263 376 0
-1 -235 -6 0
279 -306 390 0
-34 497 147 0
-35 -495 -419 0
327 -466 -116 0
175 -218 425 0
344 126 232 0
354 114 233 0
-238 167 -293 0
-240 274 -13 0
345 115 -287 0
-115 -76 -188 0
46 141 -222 0
238 35 76 0
-80 426 -244 0
241 -500 -381 0
-177 -117 131 0
-81 -426 -349 0
123 -178 122 0
105 -408 -121 0
101 -448 290 0
-245 -134 156 0
165 264 186 0
205 -210 -244 0
132 -39 305 0
135 414 214 0
-401 -60 -488 0
-127 -72 118 0
310 -261 18 0
-104 331 -457 0
267 -17 -189 0
-373 400 -230 0
51 213 418 0
221 181 -118 0
300 -246 303 0
-312 -36 361 0
-372 -43 198 0
499 -347 376 0
171 -360 -155 0
129 -426 -454 0
-136 235 -264 0
106 -474 357 0
266 -344 -111 0
217 373 334 0
-447 -347 485 0
58 168 33 0
-304 274 -430 0
-91 -371 -34 0
381 242 12 0
-424 118 -378 0
343 157 490 0
-6 -413 -397 0
209 472 -403 0
-116 395 32 0
354 145 -371 0
391 160 334 0
-35 -327 -392 0
-139 -39 116 0
-165 296 18 0
-25 -466 397 0
477 -371 -41 0
302 201 -451 0
-334 -489 120 0
361 269 371 0
282 414 -74 0
105 329 20 0
204 209 -455 0
-494 -296 412 0
-423 -130 212 0
-446 88 -272 0
445 222 -360 0
438 -500 43 0
-100 351 389 0
415 128 177 0
421 39 -247 0
-352 418 -455 0
226 -170 342 0
-188 -500 158 0
197 41 316 0
-376 405 -105 0
-32 47 61 0
258 348 500 0
-473 -438 -329 0
222 -354 441 0
-96 -310 -390 0
205 -460 -180 0
17 228 -220 0
107 301 -169 0
-192 -306 -426 0
-198 -431 34 0
-149 55 -168 0
78 -52 482 0
-346 397 -253 0
69 117 -106 0
89 410 239 0
437 262 -177 0
314 -15 437 0
-478 -68 -127 0
112 -399 292 0
158 -286 -470 0
300 -375 -487 0
-11 382 263 0
-172 -18 -274 0
-303 -121 -446 0
12 -13 417 0
460 -231 -147 0
249 -28 -175 0
96 493 112 0
-2 -200 153 0
171 -379 -296 0
447 -462 -212 0
-391 -458 423 0
-322 113 463 0
487 248 116 0
484 -221 -338 0
122 -287 -205 0
-217 490 93 0
-346 63 109 0
-465 222 -255 0
230 -385 -462 0
-87 -20 -235 0
439 313 443 0
-73 -304 183 0
-56 292 -72 0
305 215 208 0
442 -420 455 0
-364 168 165 0
286 39 142 0
-359 -118 -326 0
-303 -91 -102 0
-118 281 67 0
-195 473 23 0
430 363 -226 0
-45 -41 -335 0
-167 410 49 0
-149 -138 175 0
-472 -56 66 0
19 116 -169 0
-195 382 308 0
-475 -340 -342 0
-84 -468 186 0
213 97 38 0
253 -362 -130 0
-236 -309 -435 0
-489 -173 -211 0
157 -254 205 0
-128 -273 44 0
-458 347 462 0
-29 -357 -398 0
-260 34 249 0
265 415 -398 0
-232 -366 -311 0
-393 -351 215 0
-76 -91 -478 0
68 -104 295 0
410 -480 138 0
131 -423 -310 0
9 485 -428 0
319 328 476 0
163 -308 -343 0
215 -291 -454 0
42 -98 -254 0
-115 394 -374 0
-172 -374 127 0
-138 -322 -75 0
457 -288 -406 0
-53 -454 -208 0
330 -147 88 0
-237 493 57 0
128 -292 -116 0
-500 -33 -384 0
-66 -289 -29 0
-381 162 -228 0
106 232 -250 0
168 169 -45 0
-413 -117 -184 0
405 207 -68 0
-45 -25 -439 0
405 264 -229 0
477 218 -133 0
-497 -43 376 0
68 -152 -49 0
-294 -262 118 0
-309 434 -446 0
327 -337 -126 0
-320 362 -260 0
291 -213 -304 0
-149 -201 4 0
-433 347 -74 0
-277 377 -88 0
490 197 462 0
-451 -281 31 0
-329 -196 381 0
-322 256 -171 0
456 -9 -61 0
29 -93 -160 0
-158 -3 -283 0
445 145 -195 0
36 -384 7 0
348 -273 -371 0
246 -291 7 0
-76 156 -52 0
-134 485 167 0
-373 180 -209 0
123 314 -452 0
308 -384 -178 0
259 -320 195 0
-193 -202 -231 0
-237 468 -73 0
-42 -177 409 0
-406 -86 -251 0
280 -447 189 0
-283 -110 361 0
-202 -34 139 0
-353 121 334 0
349 78 -12 0
143 -288 84 0
446 249 219 0
7 8 -182 0
205 5 35 0
-111 -475 151 0
74 353 -370 0
152 55 -441 0
-100 383 -84 0
254 246 430 0
-253 -21 26 0
-296 -178 132 0
83 -45 -265 0
393 -111 287 0
-9 348 -143 0
112 -476 495 0
-480 -6 -12 0
332 -329 122 0
-150 -406 -212 0
-15 -286 -413 0
425 451 -195 0
-411 -237 261 0
135 -328 -327 0
-244 123 -195 0
153 13 35 0
-90 321 142 0
-388 326 146 0
480 -206 -242 0
-422 -399 -309 0
55 52 474 0
241 264 439 0
138 359 38 0
-94 138 205 0
247 -60 -125 0
140 -6 329 0
-354 167 475 0
-307 306 459 0
357 -218 -443 0
-376 -19 -498 0
371 -129 280 0
35 -188 111 0
259 446 182 0
211 -387 413 0
482 -346 -444 0
-489 -488 492 0
-360 -280 -330 0
80 126 -11 0
-456 -307 334 0
-362 202 52 0
-327 57 -446 0
-225 400 -413 0
282 436 -279 0
-4 403 -421 0
123 58 -153 0
107 367 276 0
439 382 -90 0
138 -159 334 0
-462 -23 130 0
70 -482 453 0
173 -464 376 0
-275 -32 470 0
-189 292 -149 0
120 -425 -414 0
-161 -316 390 0
257 139 -309 0
-105 90 -7 0
124 -184 317 0
218 -336 -497 0
-472 -379 58 0
-50 -16 -128 0
-82 -316 -462 0
-89 -450 451 0
460 466 281 0
70 -371 -173 0
280 -316 -367 0
-49 -416 6 0
-420 -196 139 0
-424 -380 -222 0
367 278 -284 0
233 -386 -467 0
-490 -99 -112 0
92 219 -255 0
272 244 -188 0
253 362 -90 0
-418 201 -144 0
-93 64 420 0
-99 425 266 0
-442 -37 209 0
239 -107 287 0
-373 -193 434 0
266 -139 -330 0
29 257 192 0
134 7 -490 0
266 212 114 0
341 293 -231 0
-456 -352 144 0
-168 -91 -292 0
125 -420 -23 0
103 -100 491 0
-300 -75 144 0
-491 -86 273 0
134 -313 -70 0
64 208 80 0
-163 -254 21 0
-270 -102 -260 0
-407 71 -482 0
-422 -500 -447 0
-321 -209 137 0
-457 -489 223 0
-423 -163 478 0
-37 -450 13 0
-384 -428 -291 0
334 332 275 0
-86 148 -51 0
66 -80 -211 0
-334 381 -233 0
-236 83 357 0
-250 352 -149 0
419 455 229 0
302 130 263 0
-385 -435 311 0
-2 340 140 0
-405 -227 -442 0
227 -43 468 0
289 457 379 0
-387 -268 -229 0
-408 -39 -241 0
-229 29 -177 0
-237 346 456 0
-436 -351 426 0
-111 -69 197 0
116 468 467 0
-255 168 -325 0
-335 -197 -433 0
90 -426 297 0
-333 -43 -220 0
-90 10 -91 0
345 381 491 0
316 -425 448 0
-226 -364 -191 0
119 402 477 0
183 396 220 0
273 11 55 0
-19 -386 -484 0
-164 -61 -244 0
123 306 51 0
337 -316 -364 0
390 86 335 0
-255 -4 79 0
-310 -420 -72 0
333 -48 -287 0
-158 76 -497 0
180 -195 77 0
-422 -495 -299 0
147 102 -256 0
-55 349 11 0
-283 -89 210 0
238 81 292 0
-313 -7 -455 0
470 -172 -332 0
-102 -4 -297 0
-191 -472 -426 0
389 -258 -344 0
267 -244 453 0
480 116 63 0
99 405 328 0
-479 -213 -41 0
323 -380 228 0
193 113 -294 0
177 -109 -383 0
468 -425 438 0
-61 451 87 0
-84 4 -320 0
305 -311 -104 0
-454 -392 -98 0
88 323 -472 0
38 356 -6 0
-22 383 178 0
257 -340 -423 0
-89 488 -414 0
161 -449 31 0
230 -186 150 0
451 236 329 0
275 -36 1 0
-56 -376 -25 0
250 -490 -438 0
-137 -157 85 0
150 232 -499 0
-201 419 177 0
136 -421 -430 0
-421 -196 208 0
15 -471 -8 0
-260 216 131 0
-323 249 -228 0
-35 -221 -205 0
