p cnf 1000 4300
282 198 654 0
-99 -787 306 0
-687 103 -500 0
-201 993 -706 0
614 -519 885 0
956 -137 741 0
-484 984 87 0
-16 763 -624 0
-936 -758 233 0
-108 -60 769 0
727 -1000 109 0
23 -935 -59 0
20 876 -137 0
732 -428 -469 0
828 968 -556 0
-717 -594 -302 0
-589 417 360 0
-80 -76 665 0
-980 -457 -959 0
-636 -9 864 0
-892 357 410 0
880 520 -183 0
93 495 561 0
726 460 475 0
-570 -14 -239 0
-33 -903 -41 0
-192 -774 221 0
-997 363 -244 0
118 804 -852 0
262 638 -700 0
483 594 -436 0
-750 796 695 0
-829 393 -407 0
82 -494 208 0
454 491 280 0
428 -553 555 0
-951 125 367 0
-63 -717 -72 0
242 794 382 0
-267 372 -424 0
247 32 519 0
309 199 -896 0
-940 -119 -972 0
-101 -443 413 0
-518 949 834 0
107 -195 -894 0
-494 -724 -644 0
774 961 -532 0
-87 528 310 0
-522 256 -553 0
-723 713 488 0
-702 -127 -383 0
939 719 333 0
503 705 951 0
529 867 -753 0
-196 973 -45 0
197 -839 31 0
524 969 114 0
-448 -930 87 0
-923 655 -186 0
-858 -741 -754 0
-875 171 84 0
111 -687 -758 0
-466 411 -705 0
-192 -614 -701 0
55 999 -445 0
978 682 581 0
-523 162 -242 0
413 240 -160 0
-96 -304 152 0
-188 -768 380 0
-370 570 745 0
-35 638 -786 0
815 933 -261 0
461 429 372 0
989 795 -107 0
-191 -600 -398 0
470 -890 -951 0
-962 -703 416 0
-784 -668 -920 0
-955 631 -532 0
-825 525 -564 0
552 -352 404 0
-492 879 -319 0
985 -874 231 0
707 390 740 0
719 -949 294 0
880 -111 179 0
-588 133 839 0
-168 -904 263 0
-837 -295 301 0
870 37 367 0
416 -655 288 0
732 545 753 0
-768 -483 633 0
26 248 -181 0
-507 72 -990 0
523 478 242 0
-915 -171 -767 0
-719 -702 105 0
-600 640 77 0
780 277 591 0
762 348 923 0
-105 501 280 0
2 -919 -686 0
-103 967 -215 0
310 75 857 0
-241 -212 -719 0
938 -123 -64 0
-308 -786 -541 0
-175 -180 819 0
185 -648 -460 0
911 541 -866 0
-391 -708 236 0
41 -360 129 0
70 -547 500 0
486 -108 84 0
965 -724 104 0
-517 333 471 0
610 -218 183 0
-731 342 -867 0
-946 -131 -301 0
-837 -966 -479 0
-350 -110 998 0
-685 -337 -420 0
-659 -5 833 0
-499 -526 -633 0
-842 147 46 0
946 961 -124 0
890 948 -20 0
872 -906 391 0
671 832 -809 0
975 -972 658 0
478 -251 933 0
439 544 242 0
-982 81 242 0
174 843 -825 0
-690 -278 185 0
-340 777 -685 0
-910 -841 -369 0
493 94 192 0
-678 792 624 0
836 -20 -686 0
-306 -387 -781 0
987 -293 239 0
-197 -345 500 0
982 -330 456 0
-699 941 -727 0
-827 -607 -785 0
-399 -217 621 0
890 -162 -107 0
552 -510 -237 0
978 963 -658 0
21 -3 -189 0
-993 -734 576 0
32 838 -266 0
932 -748 482 0
-776 -14 -763 0
875 -565 141 0
413 -813 490 0
-140 -995 -600 0
957 349 552 0
-342 -617 816 0
722 -335 92 0
-13 3 720 0
-99 486 250 0
-566 719 -427 0
-746 998 408 0
-140 -877 748 0
877 -583 694 0
166 -69 198 0
556 -755 369 0
178 229 -254 0
331 -853 -714 0
-531 269 -779 0
877 -816 -120 0
-472 460 -779 0
837 163 -832 0
614 867 917 0
723 -730 292 0
-338 267 633 0
-790 690 414 0
340 -99 -212 0
-731 741 196 0
-114 9 -602 0
278 289 563 0
-170 -973 -384 0
187 472 854 0
-791 -969 -13 0
-491 -732 920 0
175 491 868 0
-321 821 756 0
585 491 447 0
-216 901 -239 0
973 601 -856 0
198 422 54 0
336 -221 703 0
-281 756 -626 0
961 888 -508 0
99 113 176 0
111 868 -32 0
-89 909 -643 0
-436 333 -366 0
-852 126 -480 0
466 -815 916 0
996 498 -695 0
621 -771 -115 0
-368 331 -685 0
491 -203 -787 0
392 699 -517 0
-740 583 -860 0
161 632 318 0
-786 -516 -470 0
-400 158 795 0
-846 97 -459 0
-675 -471 931 0
-643 786 927 0
-833 521 -791 0
110 920 -550 0
-109 852 -440 0
-645 -756 -669 0
685 299 454 0
-858 54 216 0
-105 702 63 0
79 -940 -747 0
192 200 -840 0
-891 274 578 0
-793 961 83 0
-455 674 458 0
-938 598 -419 0
-595 -256 -753 0
-197 -188 391 0
-485 -999 418 0
-655 -208 -233 0
771 831 317 0
-158 -628 -294 0
181 622 510 0
855 -826 -134 0
833 479 319 0
-358 765 243 0
336 -246 5 0
316 -662 -790 0
346 344 -672 0
236 -757 -154 0
-246 -647 -909 0
290 774 -131 0
-398 -333 -871 0
-75 -949 137 0
-62 -47 -466 0
260 -754 855 0
83 -438 786 0
257 -420 495 0
312 472 871 0
438 427 -219 0
413 739 827 0
-979 -376 -798 0
946 354 787 0
841 -278 967 0
748 -299 -443 0
-831 -920 -60 0
-538 491 -221 0
-276 -229 -656 0
894 -197 -772 0
-854 851 -809 0
24 -917 -772 0
469 -847 -232 0
230 -689 165 0
-161 899 636 0
-974 -946 347 0
-155 -669 15 0
405 629 -698 0
370 153 915 0
-784 582 -262 0
-409 185 -957 0
835 252 215 0
133 876 335 0
111 887 479 0
-128 235 592 0
699 -800 37 0
-925 650 -391 0
-107 -559 862 0
251 970 904 0
-222 478 921 0
-844 533 -13 0
-699 -497 -129 0
941 800 424 0
747 -374 -446 0
427 508 738 0
384 899 -731 0
-767 -548 -829 0
876 143 290 0
-608 79 -180 0
700 85 918 0
490 -486 -337 0
-878 338 -898 0
313 -778 -824 0
-132 -620 -621 0
-975 882 -209 0
335 897 -209 0
238 -683 876 0
762 -47 -305 0
-195 -806 21 0
608 302 800 0
307 561 569 0
-542 -440 462 0
-333 53 -636 0
13 480 -791 0
663 609 -54 0
953 980 112 0
-765 728 -469 0
478 817 -604 0
833 -899 234 0
-170 -157 -527 0
-452 -77 -395 0
153 717 -694 0
773 172 775 0
-395 723 327 0
-40 365 835 0
839 -627 368 0
-407 46 -168 0
-321 -905 624 0
-814 540 74 0
465 -991 -811 0
-672 -123 411 0
798 -126 911 0
-141 356 -848 0
-630 539 -994 0
-912 -207 724 0
-586 -1 218 0
-365 -665 585 0
-638 -613 -327 0
63 -739 -471 0
-838 177 -723 0
-850 207 348 0
-711 -292 95 0
-923 308 619 0
-453 488 686 0
-521 606 510 0
-802 -82 -807 0
-935 959 -264 0
-549 -868 -183 0
538 30 -184 0
-129 -637 586 0
871 911 931 0
-683 -498 -887 0
159 252 346 0
637 -71 -91 0
764 779 518 0
-856 -195 -512 0
-62 672 721 0
-853 -376 -2 0
-896 -792 -153 0
946 -671 -997 0
-224 -581 878 0
567 737 938 0
-302 -139 -584 0
-183 717 995 0
-195 -377 886 0
972 685 -403 0
-992 -186 -577 0
268 -685 73 0
-235 842 493 0
-453 -188 539 0
-660 622 962 0
202 -381 769 0
-142 305 -771 0
-45 519 494 0
-320 220 -388 0
781 -778 -679 0
-802 908 -111 0
815 753 806 0
596 947 -44 0
305 -550 -224 0
-508 -971 -918 0
870 937 287 0
449 514 -180 0
-6 148 -728 0
706 695 853 0
-316 -784 266 0
72 -583 359 0
697 359 -267 0
520 122 -574 0
-145 991 -42 0
-945 -358 340 0
230 -559 295 0
71 -368 -749 0
745 -171 694 0
402 427 -715 0
-562 551 -896 0
873 157 633 0
-864 838 -813 0
-249 788 728 0
-257 -6 283 0
899 6 -489 0
359 318 499 0
-989 893 830 0
464 214 -7 0
-761 136 -290 0
837 581 -839 0
675 -687 -160 0
-806 748 -52 0
861 736 -549 0
799 -210 8 0
-380 -761 -214 0
-730 -936 346 0
909 -144 -320 0
-47 898 -90 0
-35 361 804 0
840 114 -827 0
399 -207 -401 0
135 -267 625 0
844 -777 119 0
550 -630 -209 0
392 -401 -830 0
-967 904 -225 0
-734 -859 915 0
-542 -89 -178 0
-483 408 501 0
394 558 796 0
626 -130 -211 0
-439 -267 947 0
-391 488 540 0
-657 693 859 0
-20 478 -351 0
-432 -265 -315 0
544 -724 97 0
554 -396 5 0
512 -598 -702 0
-73 -651 -691 0
493 -212 -967 0
880 560 163 0
-367 330 878 0
363 104 -887 0
505 242 197 0
580 325 -19 0
120 -436 -246 0
-78 82 610 0
-117 -978 258 0
-171 439 -752 0
-988 915 -356 0
525 -545 193 0
751 602 757 0
-816 -214 -180 0
-228 -93 -656 0
-672 574 158 0
704 437 -642 0
-838 -274 220 0
-564 -299 736 0
807 598 -362 0
-62 -817 -129 0
-700 316 264 0
-932 -923 -686 0
13 237 196 0
879 -142 970 0
-474 -285 -832 0
-427 133 -625 0
-688 -448 -880 0
803 6 660 0
514 -315 14 0
-153 324 506 0
-738 -787 191 0
892 -34 879 0
-192 225 -871 0
645 658 -270 0
-526 908 -75 0
-283 -827 995 0
766 -13 675 0
308 999 996 0
914 273 172 0
-664 313 113 0
914 -304 -294 0
874 -153 549 0
900 63 207 0
-568 -270 743 0
-508 419 384 0
-410 958 -132 0
-846 -917 -735 0
-793 -669 890 0
-510 746 109 0
225 751 744 0
-784 779 244 0
390 -900 795 0
-688 -684 -593 0
-238 -936 -404 0
-976 -935 94 0
-237 -147 -77 0
-118 778 -858 0
150 -213 751 0
-214 -347 -609 0
-798 -992 -192 0
425 524 -331 0
217 -828 342 0
797 165 -361 0
-606 -217 789 0
-230 812 775 0
479 -709 544 0
820 -309 469 0
-448 -724 372 0
542 -680 701 0
-582 689 322 0
-330 -464 -919 0
778 756 -51 0
-316 -921 16 0
774 -270 486 0
72 548 213 0
49 115 375 0
-12 601 -232 0
-778 -768 753 0
-622 -394 46 0
-887 -711 651 0
-208 -928 251 0
698 -991 448 0
-34 964 235 0
-42 649 170 0
990 -835 -163 0
823 754 -289 0
-185 -118 958 0
139 684 -868 0
284 857 -648 0
-399 317 739 0
-424 -697 303 0
-464 900 -42 0
-862 372 -737 0
71 842 -500 0
637 874 -404 0
-497 615 725 0
-237 -4 627 0
450 352 -227 0
471 -713 -716 0
-642 824 -603 0
70 679 932 0
696 -489 -865 0
523 -5 616 0
738 361 550 0
154 581 -582 0
-23 -83 -326 0
-310 176 -437 0
310 -909 -505 0
126 500 -497 0
-297 -888 -268 0
372 121 -444 0
2 -311 228 0
-422 -319 956 0
836 332 -971 0
897 -752 -59 0
-81 495 906 0
-332 -27 189 0
806 124 -956 0
-215 758 132 0
966 936 915 0
-943 -606 -694 0
842 931 -896 0
14 334 957 0
-773 490 -597 0
-840 952 637 0
-187 -715 981 0
-275 793 -218 0
-132 -386 -656 0
181 316 919 0
-11 616 934 0
-117 -346 95 0
-343 885 239 0
-759 362 -411 0
-714 423 233 0
91 -846 -93 0
147 376 -595 0
18 -619 -755 0
-97 -450 241 0
356 -432 765 0
80 -232 -251 0
340 905 990 0
-937 -353 609 0
-378 -248 449 0
609 657 410 0
77 43 944 0
19 -673 -896 0
-621 519 522 0
-204 -362 -769 0
-197 -679 91 0
-673 -761 -403 0
344 -816 902 0
81 20 543 0
125 -436 678 0
-109 13 775 0
818 -191 -594 0
97 500 673 0
12 113 -431 0
349 457 280 0
47 -161 631 0
910 -516 771 0
679 -63 -97 0
823 -201 -709 0
520 -991 130 0
-612 -775 -251 0
577 -15 258 0
-209 -242 202 0
840 -343 -62 0
-688 585 211 0
684 -48 39 0
-653 583 -437 0
57 479 809 0
593 -832 639 0
-525 287 -751 0
28 570 -687 0
199 441 -538 0
431 968 383 0
641 468 557 0
-253 -373 452 0
-244 933 -325 0
-655 345 -830 0
749 -563 794 0
726 544 239 0
-836 347 157 0
972 -272 541 0
576 -410 -168 0
-799 -251 757 0
-764 -601 -709 0
-863 330 -599 0
-637 300 -763 0
-252 376 -313 0
-956 923 104 0
-502 856 -795 0
394 342 669 0
-717 960 183 0
883 745 -836 0
441 -904 -422 0
-291 -209 283 0
892 815 -961 0
582 737 -128 0
71 516 64 0
843 361 -450 0
693 -357 872 0
-296 -76 -612 0
688 706 958 0
333 694 -7 0
352 126 692 0
-840 -293 -772 0
710 -844 -903 0
864 -649 896 0
663 439 -921 0
-833 -890 -560 0
-589 -840 875 0
-521 -79 -247 0
-976 -171 -198 0
846 976 -774 0
8 -425 -639 0
424 31 409 0
-530 -814 -976 0
186 5 185 0
-454 500 333 0
-130 495 -134 0
-947 -908 767 0
523 358 311 0
401 130 -416 0
633 -516 -885 0
65 252 343 0
-692 314 -722 0
596 796 -654 0
-247 -49 949 0
-249 -432 886 0
-17 779 500 0
-66 -1000 -399 0
527 -91 821 0
424 -667 -824 0
-103 -404 -948 0
786 126 -85 0
-899 454 316 0
427 244 574 0
554 471 -843 0
492 -877 28 0
-418 829 588 0
-385 475 415 0
-786 12 -916 0
335 911 -4 0
37 523 177 0
-464 760 486 0
-492 -603 70 0
310 -434 128 0
687 919 -307 0
841 28 -542 0
231 -130 -243 0
16 -497 -219 0
875 -789 12 0
485 344 -14 0
-810 498 -673 0
642 261 449 0
897 618 -915 0
-115 -619 -478 0
-272 278 29 0
-437 -415 569 0
-38 -472 -111 0
277 902 -685 0
-341 -343 -385 0
-485 201 777 0
-423 -441 -733 0
-552 363 78 0
19 -420 862 0
-796 -748 -746 0
87 253 567 0
-324 -823 -854 0
-717 -616 762 0
-309 472 -93 0
732 -727 266 0
608 193 -1 0
536 -262 -199 0
696 362 -534 0
957 454 803 0
556 719 -731 0
40 476 -123 0
554 882 358 0
-492 -625 -279 0
-148 -29 535 0
870 -483 -790 0
-87 642 -872 0
-392 -792 -639 0
-515 817 542 0
-758 297 -979 0
-646 796 -516 0
-151 -699 -366 0
323 92 197 0
-316 44 121 0
711 -154 -966 0
-138 -997 -482 0
-468 281 -822 0
-187 -697 -951 0
-319 201 -290 0
-190 -308 673 0
918 388 324 0
539 -181 -647 0
814 -195 120 0
461 343 510 0
374 366 -274 0
168 36 366 0
884 164 525 0
665 -501 -224 0
-584 -32 -39 0
133 447 -704 0
-20 904 109 0
-553 886 -944 0
-916 -700 -239 0
-63 505 -946 0
805 -530 -223 0
748 -712 -61 0
-812 947 -715 0
552 -684 674 0
175 897 -371 0
448 -929 727 0
-695 509 78 0
-153 962 -127 0
292 -488 -432 0
914 -453 499 0
332 242 521 0
268 -222 300 0
685 -415 -255 0
429 404 193 0
564 28 26 0
-822 984 746 0
-91 -573 536 0
-445 73 988 0
-441 -697 -108 0
590 920 -472 0
-30 787 -406 0
-68 -92 -757 0
541 554 -39 0
680 -855 537 0
472 -659 -150 0
-478 33 -149 0
645 808 -285 0
404 -230 -431 0
222 -242 -279 0
349 22 100 0
-778 188 -749 0
808 -58 339 0
863 -884 140 0
-431 379 472 0
-749 254 547 0
949 306 -926 0
-671 -988 -66 0
17 692 -895 0
355 -562 941 0
-174 105 -916 0
549 -14 934 0
49 247 344 0
-320 185 826 0
-366 394 -54 0
372 603 -170 0
-439 -929 -939 0
143 862 -946 0
-720 413 607 0
-990 38 892 0
989 -937 -795 0
-919 -895 938 0
-629 -741 -384 0
275 103 535 0
-470 -666 -881 0
473 373 165 0
613 332 -311 0
-249 -222 -248 0
-207 -731 597 0
91 -320 421 0
-243 -825 -302 0
338 -869 -308 0
653 -901 -621 0
753 378 -2 0
-503 765 -335 0
-523 84 -807 0
985 -459 -574 0
-475 439 -870 0
281 -736 234 0
923 326 -272 0
-413 -366 835 0
799 819 445 0
-968 -908 562 0
253 795 -924 0
-643 124 -51 0
-502 -283 -569 0
769 -303 668 0
434 43 -914 0
-354 925 -5 0
-407 16 136 0
-396 -945 -316 0
177 64 -815 0
-205 -132 546 0
-634 746 132 0
304 -149 -576 0
32 741 874 0
58 624 -661 0
-463 -96 265 0
360 683 136 0
-537 -576 -904 0
887 49 28 0
648 982 -629 0
98 576 -615 0
200 81 -518 0
-63 529 781 0
-599 -516 -978 0
-567 -984 702 0
-617 982 -807 0
-160 -222 639 0
-114 109 927 0
681 248 -405 0
857 -263 -410 0
-633 -553 -685 0
431 -840 927 0
-385 335 -468 0
-893 -588 -387 0
-794 -769 739 0
-713 318 270 0
-14 443 533 0
-918 472 303 0
76 112 866 0
-834 -876 587 0
-930 176 518 0
45 471 -288 0
-325 99 173 0
575 -963 -854 0
-443 -153 -739 0
310 -799 -486 0
-398 -736 326 0
-107 -61 693 0
-26 -3 114 0
299 402 -208 0
558 -721 594 0
-664 -234 66 0
-683 229 -712 0
356 645 158 0
653 -562 -547 0
57 -280 22 0
-381 -118 -441 0
899 245 -207 0
20 23 -575 0
-548 -115 -966 0
385 131 23 0
-64 578 -497 0
321 851 -600 0
91 905 -160 0
-555 -966 -634 0
-469 -695 -693 0
937 664 79 0
760 939 -681 0
741 260 -707 0
-934 708 643 0
285 -236 -915 0
617 -948 -979 0
907 -527 781 0
-574 56 130 0
-51 198 929 0
-547 692 -504 0
841 -519 572 0
-423 4 -208 0
-987 -535 943 0
-417 990 923 0
727 465 -66 0
-105 726 -350 0
509 -713 -32 0
929 930 -589 0
-192 805 694 0
215 -978 -894 0
226 528 -416 0
913 701 23 0
29 -162 356 0
-628 -279 -817 0
380 -619 511 0
-91 319 456 0
14 388 -182 0
-184 365 952 0
93 154 832 0
789 -811 -78 0
390 259 -614 0
951 8 -130 0
-957 -541 981 0
-976 -872 626 0
-993 897 236 0
-555 -608 -33 0
-695 387 -441 0
-545 414 -430 0
535 -498 -756 0
499 242 167 0
326 -986 -798 0
20 -287 -232 0
-242 -609 -345 0
-451 531 411 0
-364 907 -794 0
407 238 -258 0
909 -519 -525 0
948 30 -552 0
-451 603 -292 0
349 224 -944 0
926 479 593 0
715 -741 -133 0
861 -225 -675 0
-868 -926 -966 0
84 452 676 0
352 -260 -338 0
750 -896 -73 0
990 -767 39 0
-461 487 826 0
-48 748 -246 0
-644 -876 -756 0
744 -209 491 0
923 -104 -149 0
741 -226 231 0
372 898 -390 0
-941 -362 -608 0
538 -136 -461 0
823 263 -897 0
345 -492 537 0
-406 -186 -669 0
806 757 678 0
-367 -454 -34 0
525 115 -935 0
454 -850 1000 0
406 -922 -813 0
-267 659 -361 0
-816 -510 -955 0
215 -712 719 0
954 732 539 0
-231 108 -788 0
894 849 375 0
-519 283 -972 0
859 27 -604 0
122 -438 822 0
-152 560 35 0
958 -853 -211 0
-36 -900 454 0
19 278 -970 0
-964 -523 -519 0
17 662 -908 0
76 -679 552 0
552 871 831 0
740 76 -859 0
799 216 -680 0
-56 -707 508 0
880 961 -529 0
-514 -230 973 0
143 712 944 0
-232 546 362 0
493 795 529 0
-909 -288 361 0
185 63 263 0
-209 -25 -380 0
-460 -782 971 0
-809 181 157 0
-960 -141 -845 0
787 898 -25 0
22 -122 -656 0
-34 -731 -292 0
399 514 -387 0
-623 -936 141 0
34 -686 -112 0
29 -66 290 0
297 -98 644 0
582 -25 -287 0
623 446 -501 0
-185 323 13 0
652 475 257 0
-509 826 721 0
-344 -89 -12 0
-427 234 -677 0
-195 467 65 0
-813 92 396 0
347 999 581 0
282 -703 -229 0
-29 -333 -621 0
-699 886 256 0
-927 475 -448 0
-645 -166 707 0
120 433 -764 0
-66 641 -197 0
827 131 -728 0
764 -409 -798 0
880 -647 -956 0
366 -545 -802 0
-292 -874 907 0
86 514 5 0
-143 -211 359 0
-150 -301 402 0
-773 162 -8 0
-238 -563 -144 0
-814 77 204 0
906 471 316 0
974 882 356 0
639 282 -449 0
704 531 -6 0
-133 97 -100 0
-517 283 77 0
935 706 440 0
-324 951 -567 0
-595 80 449 0
-143 -106 -759 0
747 244 -138 0
-101 34 -451 0
690 -997 -518 0
-229 335 956 0
260 -322 221 0
479 11 -647 0
818 254 -207 0
-845 -282 809 0
-352 400 -482 0
-25 147 -414 0
835 637 -448 0
-737 -7 -28 0
529 592 368 0
-257 241 -547 0
-446 -808 -139 0
475 -483 -698 0
751 288 164 0
48 341 597 0
36 587 -289 0
-546 -706 -683 0
-946 226 -934 0
-398 -728 -811 0
-113 73 -683 0
554 68 -538 0
-389 340 -802 0
53 561 -282 0
930 592 324 0
-255 846 -1 0
-461 707 639 0
-304 -619 419 0
789 -190 -714 0
601 453 -221 0
470 211 -607 0
774 633 -939 0
877 904 -930 0
-21 812 -857 0
-967 -624 -730 0
-743 -821 -685 0
-531 507 -231 0
-841 165 -51 0
25 602 -604 0
503 -31 -870 0
-814 424 603 0
-563 942 -542 0
-297 -142 37 0
898 -177 206 0
126 -455 907 0
121 186 -875 0
-108 -871 -660 0
-323 -177 -924 0
553 -792 -632 0
651 766 867 0
597 719 892 0
527 41 104 0
988 74 757 0
-691 -843 400 0
263 76 -747 0
-714 39 -799 0
-626 -676 516 0
59 -181 -168 0
-201 -873 -68 0
-730 580 -914 0
213 -687 751 0
-335 -162 209 0
-764 838 -765 0
964 -997 356 0
-731 937 533 0
275 -763 -680 0
160 -379 30 0
910 882 700 0
492 303 -141 0
-63 111 -579 0
594 -808 924 0
-46 362 21 0
397 66 554 0
11 491 -624 0
-267 36 -106 0
463 110 -426 0
-450 -819 539 0
658 540 -878 0
708 122 -231 0
930 -639 661 0
-20 -517 893 0
833 694 372 0
-656 123 929 0
-95 -379 -414 0
278 -19 -298 0
425 511 125 0
-641 -613 91 0
-661 -99 -712 0
993 -978 557 0
-300 815 -883 0
647 677 -140 0
-427 848 45 0
420 552 534 0
902 432 313 0
158 -509 247 0
258 -478 -418 0
832 368 -715 0
734 -311 54 0
-329 -639 369 0
-396 717 527 0
-403 194 -838 0
235 399 -148 0
-842 336 -711 0
-835 373 699 0
959 -44 2 0
993 698 -513 0
484 -318 81 0
-915 134 573 0
-966 233 732 0
675 -238 513 0
316 -210 -960 0
-353 -537 121 0
-223 612 -533 0
-160 896 854 0
211 504 -71 0
73 -372 -505 0
823 -337 527 0
-685 -250 -510 0
-446 200 -954 0
496 -529 -426 0
508 996 -749 0
468 -275 -320 0
-993 -229 -925 0
-966 -728 206 0
432 588 -328 0
652 735 604 0
927 -207 577 0
-273 991 -732 0
-338 -725 93 0
-998 -797 925 0
-72 908 989 0
-601 334 -124 0
740 109 -652 0
183 132 -303 0
-999 -85 797 0
672 -214 -781 0
93 96 601 0
211 -982 -898 0
-804 184 -490 0
224 330 -126 0
-571 -786 236 0
-754 523 -676 0
-748 883 905 0
902 817 -277 0
-26 -326 675 0
-690 -996 652 0
-124 219 -575 0
551 887 -736 0
-588 -346 -453 0
262 64 -197 0
-186 948 142 0
-438 -335 9 0
164 -88 596 0
-704 -194 -372 0
86 -942 -431 0
772 228 928 0
-398 -72 -597 0
678 -456 -754 0
-810 -162 987 0
515 -878 -860 0
979 414 131 0
-721 -701 984 0
835 -597 274 0
653 -986 997 0
-968 -240 146 0
-616 24 727 0
398 -875 18 0
615 -746 -139 0
436 -248 -92 0
473 -915 -900 0
-223 -468 -311 0
-689 -402 -487 0
-14 387 -493 0
-336 466 -169 0
-447 87 -580 0
-53 389 -590 0
-684 118 567 0
-12 -937 854 0
-434 -123 75 0
556 20 848 0
289 198 -244 0
332 870 -685 0
518 325 58 0
-439 540 785 0
-640 30 -440 0
547 -969 574 0
-423 201 445 0
61 -41 289 0
964 299 -302 0
420 -405 971 0
233 -980 -989 0
-207 -627 601 0
416 -684 443 0
594 176 -923 0
570 422 228 0
-967 -553 383 0
-93 -328 156 0
-988 -229 -773 0
890 -520 354 0
304 -660 539 0
-225 241 5 0
-364 -232 -404 0
999 917 -201 0
-290 -516 966 0
363 509 693 0
499 -971 426 0
663 -906 821 0
-88 -590 179 0
401 702 -464 0
-937 -255 -394 0
-639 942 777 0
-508 633 -383 0
300 -540 -854 0
14 979 -750 0
-826 607 -533 0
-282 114 -352 0
333 -56 938 0
627 522 523 0
533 106 -796 0
-523 563 -966 0
536 31 -393 0
20 941 -670 0
679 844 -664 0
48 -119 686 0
-155 378 -480 0
335 -376 -899 0
-135 -320 -370 0
773 791 153 0
-404 -725 685 0
152 -669 -527 0
640 -950 152 0
-688 -76 825 0
880 -350 -677 0
-730 753 -835 0
-369 -742 632 0
-50 -140 -666 0
131 648 485 0
-60 268 899 0
-465 136 -862 0
-185 -629 -191 0
-716 -371 374 0
90 51 -893 0
210 827 460 0
778 737 996 0
-491 -305 11 0
-650 587 338 0
694 958 701 0
369 -160 370 0
-757 -801 -58 0
-692 750 246 0
-400 988 420 0
888 -340 -637 0
-270 518 903 0
506 -784 -324 0
-881 -499 909 0
687 -867 298 0
-691 483 773 0
545 -62 -842 0
-816 315 123 0
922 151 -537 0
-515 -581 -429 0
-448 -465 781 0
-761 480 421 0
-606 -974 818 0
647 496 939 0
363 304 600 0
-469 431 479 0
-952 -558 467 0
-287 485 -820 0
-124 -286 503 0
-456 -651 780 0
-654 380 435 0
-672 -859 198 0
374 344 284 0
37 742 472 0
89 -35 743 0
593 524 -501 0
659 -160 -302 0
202 996 -634 0
-881 292 658 0
605 833 373 0
-175 -893 -297 0
-278 -269 -562 0
301 -282 -928 0
61 726 93 0
918 278 -230 0
209 610 -740 0
-890 190 -261 0
838 -177 -610 0
633 752 962 0
-786 -739 -536 0
735 397 -700 0
647 249 167 0
157 909 -972 0
807 -729 874 0
-434 -351 -530 0
-714 -860 -924 0
-146 -164 890 0
-84 -790 -91 0
940 -769 569 0
364 -875 464 0
214 85 -597 0
957 -708 889 0
-740 860 684 0
-504 -555 -366 0
-750 -797 159 0
907 941 864 0
-880 54 -219 0
575 502 40 0
382 801 240 0
604 -682 -317 0
115 -261 -88 0
795 223 -910 0
-532 -27 -226 0
-882 832 67 0
647 -504 -159 0
338 -84 644 0
720 -993 -438 0
844 273 -897 0
-357 -690 -29 0
-304 -514 408 0
372 -464 809 0
-531 -479 608 0
-363 365 -87 0
965 602 998 0
-284 758 113 0
-232 907 -891 0
-406 -994 302 0
141 47 -340 0
-510 675 38 0
280 -386 -381 0
999 -170 -12 0
88 -401 27 0
229 -547 -837 0
580 244 163 0
-47 -180 710 0
410 600 -1 0
56 523 -517 0
691 -813 -385 0
-72 310 272 0
287 826 -836 0
852 -881 -405 0
-36 -441 925 0
-61 -965 -537 0
-781 -743 -853 0
-201 -686 339 0
734 568 878 0
380 314 -101 0
-27 -77 537 0
801 -829 414 0
427 -101 -412 0
-743 -705 -731 0
690 -85 407 0
172 575 -74 0
-931 -601 -108 0
272 977 20 0
-862 19 -419 0
254 902 354 0
186 840 796 0
604 482 -907 0
879 214 -64 0
-203 -481 -992 0
-405 -750 -495 0
582 466 136 0
-532 -399 487 0
872 -486 40 0
-440 -332 448 0
-257 838 -247 0
-941 -282 -501 0
-958 -475 311 0
615 -287 706 0
-58 713 -686 0
350 -483 607 0
-604 609 -982 0
-590 -230 790 0
252 646 -35 0
815 -883 -531 0
102 917 450 0
-372 -115 220 0
634 753 -537 0
532 -664 -382 0
849 -619 -276 0
-627 859 -684 0
-419 -35 360 0
557 896 -878 0
-926 587 358 0
-140 52 -874 0
467 -702 35 0
-229 595 267 0
441 716 -678 0
-108 919 -123 0
538 118 651 0
214 -425 -422 0
774 -89 664 0
-624 357 302 0
-368 642 803 0
388 265 801 0
-779 -667 -346 0
-682 910 -567 0
85 974 559 0
278 181 55 0
-431 829 552 0
-132 196 555 0
-683 -609 634 0
-829 -253 564 0
319 -217 460 0
935 144 -96 0
-39 669 -875 0
999 -464 -864 0
985 8 -505 0
-401 325 -424 0
-857 123 544 0
-493 510 574 0
-692 -475 -344 0
439 52 378 0
157 647 436 0
-778 664 639 0
-586 374 781 0
551 -142 -370 0
-311 652 -222 0
126 530 -158 0
-237 -440 -640 0
-22 997 136 0
798 -169 476 0
57 143 -714 0
974 867 291 0
391 637 -783 0
-124 -709 -569 0
143 -49 -921 0
-882 -294 480 0
209 -298 365 0
587 387 -614 0
-490 498 143 0
-993 -985 816 0
-755 695 -212 0
-296 385 -638 0
37 619 -62 0
976 -746 -183 0
313 -947 713 0
34 -79 -536 0
805 428 -2 0
669 -882 -159 0
502 76 -787 0
-100 432 -192 0
-561 43 -454 0
957 899 346 0
-851 -359 -757 0
693 -118 -440 0
75 530 -211 0
-86 -536 27 0
-434 -996 -189 0
-477 -988 171 0
535 868 597 0
868 -841 815 0
-719 -271 101 0
197 695 -837 0
-715 -889 -572 0
332 441 -580 0
-852 -942 -747 0
-779 -790 390 0
-696 248 -222 0
-241 251 926 0
930 -238 -300 0
743 -883 736 0
-330 20 -670 0
381 -703 -872 0
6 248 534 0
408 -37 -233 0
941 808 -715 0
-668 604 -245 0
-260 -903 -344 0
-533 195 -438 0
133 500 917 0
-964 -681 -528 0
-340 -127 -600 0
-263 321 58 0
-558 921 601 0
-814 77 824 0
473 982 -419 0
350 -235 -724 0
-816 575 127 0
-994 572 -677 0
-959 -117 843 0
-237 -595 -504 0
-900 361 447 0
-820 -654 419 0
30 -516 399 0
-423 -900 177 0
98 -649 -334 0
740 139 -288 0
604 -598 -843 0
-969 -998 -63 0
149 -20 -398 0
778 883 959 0
-727 379 -892 0
598 530 856 0
237 866 -878 0
-692 840 -510 0
351 -74 -344 0
-163 753 289 0
590 659 70 0
766 -18 30 0
929 310 -399 0
820 -373 101 0
336 -363 789 0
731 -391 133 0
-476 -176 480 0
303 -966 -179 0
-963 798 -145 0
135 -333 -667 0
728 -160 791 0
-642 -333 777 0
-772 625 -627 0
-273 -914 344 0
257 -890 -704 0
-318 526 736 0
936 6 815 0
30 288 621 0
-638 921 -202 0
-561 553 993 0
-401 -526 -857 0
286 618 -65 0
-805 -512 -593 0
515 -422 -228 0
-690 897 -124 0
-668 -88 -183 0
830 557 -57 0
-915 -186 816 0
-175 571 -425 0
-958 104 -925 0
-346 291 175 0
231 -757 -475 0
-731 -224 -346 0
606 35 61 0
756 -699 -249 0
505 403 -98 0
886 -885 445 0
-759 694 629 0
731 -210 320 0
620 -43 -215 0
753 457 225 0
-39 -379 -588 0
-448 -170 -276 0
-436 -542 623 0
983 264 -507 0
488 -860 950 0
154 390 -332 0
-511 863 -518 0
685 -128 -797 0
83 -528 -259 0
-260 53 190 0
599 814 440 0
-173 110 200 0
-626 -700 461 0
-225 738 637 0
-429 -930 -871 0
-421 -324 250 0
698 -788 -651 0
-421 593 405 0
-934 -798 -373 0
-944 -953 -166 0
-989 -687 606 0
-672 416 318 0
-427 143 62 0
346 -417 221 0
-217 -429 -627 0
247 -922 -898 0
-896 -474 -469 0
-325 317 -383 0
936 809 -965 0
-9 -364 -903 0
800 493 -828 0
-837 -347 403 0
178 -50 586 0
367 -962 -358 0
491 547 -599 0
-245 854 714 0
-145 -410 472 0
708 800 459 0
-344 301 -857 0
893 -935 -924 0
546 228 605 0
142 -268 559 0
803 577 -44 0
56 -669 -925 0
-495 -104 373 0
517 -722 330 0
369 54 685 0
-673 285 -793 0
-879 -645 665 0
-166 229 -513 0
18 757 438 0
-445 739 177 0
-188 600 -392 0
589 -421 -133 0
-598 500 -302 0
188 -609 -559 0
-968 -440 240 0
-447 5 -387 0
-384 243 122 0
188 -789 -462 0
696 -451 -545 0
272 -854 582 0
-127 -196 28 0
-608 909 27 0
437 230 348 0
524 623 45 0
491 981 511 0
-808 -30 367 0
833 674 521 0
134 -943 -941 0
137 742 -498 0
-343 801 193 0
-159 -681 -112 0
739 80 855 0
-29 -380 212 0
850 599 -89 0
-482 39 -802 0
423 -522 -683 0
-926 221 -801 0
-31 -275 -89 0
536 -643 7 0
-630 209 631 0
-80 -218 -943 0
872 -616 -282 0
-208 -87 -362 0
-511 -652 -984 0
990 -661 -343 0
168 618 379 0
-524 942 714 0
-271 518 -950 0
404 -133 -909 0
153 -484 804 0
-543 263 -266 0
987 -709 253 0
-580 804 651 0
-566 -254 -996 0
462 405 273 0
621 -218 671 0
712 976 -111 0
-92 283 -905 0
-101 10 -710 0
563 -850 -537 0
434 -246 -915 0
-642 564 989 0
-72 794 634 0
-328 640 -44 0
203 668 -860 0
329 -144 456 0
-108 318 687 0
526 -995 -414 0
167 219 -993 0
955 -542 61 0
34 -739 33 0
481 -204 297 0
-50 -834 -767 0
-4 -253 401 0
-478 -514 -433 0
358 -830 565 0
617 491 -136 0
-104 -979 -603 0
23 668 707 0
-467 -626 846 0
-627 -218 -179 0
-669 -444 -608 0
-193 519 -70 0
-238 572 -148 0
786 852 -432 0
453 -830 -346 0
-887 -385 -834 0
394 476 -54 0
258 732 110 0
36 -939 -907 0
-807 -113 761 0
402 336 -173 0
-134 -801 117 0
249 -773 770 0
790 110 -994 0
213 -526 -450 0
-385 525 927 0
-818 71 -787 0
867 198 -996 0
132 -679 39 0
-600 -512 -499 0
-879 -584 935 0
402 -46 -860 0
-840 738 -816 0
164 108 755 0
931 958 -210 0
-848 -536 -909 0
527 -629 678 0
413 -786 -670 0
-456 -188 -837 0
577 453 400 0
-512 60 522 0
184 -965 712 0
915 261 -886 0
-616 690 102 0
189 3 974 0
468 308 918 0
557 736 496 0
-955 -934 -461 0
-878 675 33 0
448 638 911 0
60 81 -436 0
883 409 -235 0
-629 -873 -242 0
80 993 -676 0
700 -637 267 0
775 -55 -344 0
364 970 -150 0
-518 948 -566 0
-512 -805 137 0
-599 753 -187 0
-909 356 -279 0
383 928 -532 0
-224 37 -123 0
-544 -78 243 0
590 -80 582 0
29 -827 -621 0
247 186 -708 0
-54 739 827 0
60 858 -88 0
699 183 -471 0
-82 -290 -815 0
-439 -195 154 0
-145 584 -848 0
-828 989 -728 0
23 539 -191 0
208 -191 -247 0
618 590 246 0
988 -238 -25 0
-923 -344 942 0
33 -617 778 0
-741 -286 688 0
461 193 -623 0
14 25 -274 0
-428 328 -1000 0
502 929 901 0
-221 -661 324 0
-582 63 340 0
980 935 -22 0
-128 744 602 0
-801 340 -922 0
752 64 921 0
-674 -323 391 0
577 -789 396 0
-816 -522 -894 0
92 552 -181 0
-26 -517 944 0
440 617 -872 0
227 50 611 0
918 391 644 0
-53 610 211 0
110 96 135 0
882 -963 -985 0
707 479 -293 0
-609 -149 -58 0
-878 244 971 0
-439 -448 115 0
-298 -893 -434 0
31 -164 538 0
-352 672 160 0
-815 -49 -898 0
-525 -917 405 0
963 884 -180 0
-763 984 -587 0
-394 670 383 0
-958 55 -87 0
555 413 851 0
732 255 46 0
769 -763 -13 0
169 -299 -819 0
-806 -333 161 0
584 -333 521 0
201 23 93 0
366 -936 -196 0
-331 637 38 0
-630 54 -968 0
649 329 665 0
477 56 764 0
927 -968 -816 0
-468 985 -820 0
860 -538 756 0
-239 -300 839 0
560 36 -960 0
56 177 86 0
661 35 413 0
315 -247 195 0
954 612 105 0
406 681 164 0
817 -278 701 0
316 360 419 0
-815 -547 254 0
-842 542 4 0
-606 -929 -985 0
333 874 691 0
-772 -616 561 0
-472 -717 -150 0
84 -572 -995 0
-223 860 560 0
303 -528 68 0
321 -123 -685 0
571 -992 -665 0
481 -571 -339 0
834 640 99 0
-219 406 591 0
-713 254 -295 0
755 201 46 0
-971 398 -545 0
-225 282 838 0
-423 632 2 0
989 -367 927 0
639 83 -212 0
957 584 602 0
522 308 -545 0
-414 -510 -742 0
-941 -18 375 0
929 -528 -78 0
614 583 -57 0
-997 755 -880 0
-515 993 -626 0
953 -92 -103 0
293 865 130 0
-977 -492 709 0
-935 -477 919 0
-294 789 -190 0
-254 94 -343 0
-854 -851 -337 0
-236 -66 687 0
-320 -480 -558 0
-663 -417 -813 0
101 -674 150 0
585 -610 -287 0
-898 -178 -442 0
-360 -881 -928 0
-671 -207 -288 0
-764 23 -461 0
706 -773 553 0
787 -125 334 0
9 675 -480 0
-517 280 -63 0
455 192 774 0
863 922 694 0
-864 -246 -126 0
-190 720 -107 0
-944 -867 -67 0
292 -459 -139 0
865 -216 -729 0
-704 -890 319 0
-12 320 592 0
-402 23 506 0
-681 -767 -919 0
-161 865 940 0
-628 -404 498 0
-417 -258 -833 0
59 -625 -300 0
665 -651 -3 0
-264 441 597 0
395 876 985 0
595 -869 -617 0
-169 187 762 0
141 939 -880 0
151 -842 149 0
-810 -594 767 0
829 -47 89 0
475 365 587 0
505 694 608 0
-666 -536 -824 0
-205 305 78 0
9 -636 -683 0
-897 -989 398 0
-475 884 582 0
-215 985 -321 0
-117 -379 394 0
427 691 -234 0
702 151 -844 0
-197 312 878 0
85 990 978 0
-454 -115 665 0
768 187 204 0
796 710 353 0
458 -491 -149 0
-692 378 637 0
627 789 319 0
-39 868 -80 0
546 785 417 0
-28 203 -942 0
905 585 -918 0
-856 723 -448 0
-43 -96 813 0
-415 899 -299 0
-76 -385 552 0
400 -412 -398 0
-267 -423 -460 0
-639 -810 331 0
-344 503 -879 0
988 594 -777 0
-717 -576 -331 0
820 557 425 0
250 -184 492 0
-207 -805 -35 0
826 201 -587 0
559 509 -317 0
860 342 476 0
-299 869 -829 0
-675 454 100 0
-225 251 -924 0
-961 -833 -811 0
859 863 -452 0
486 -515 258 0
-585 377 -810 0
-280 769 -474 0
-70 158 -133 0
558 -796 -958 0
-746 -769 695 0
158 700 775 0
-974 -576 -741 0
343 605 -467 0
-706 835 60 0
-946 -203 765 0
-860 -526 -453 0
-235 -636 -12 0
54 -227 -559 0
522 271 921 0
-398 -611 657 0
-532 -315 -244 0
-501 -701 799 0
-291 830 -611 0
-188 -618 -6 0
25 424 -472 0
502 661 332 0
-376 319 330 0
-289 -905 -298 0
531 -762 306 0
-478 361 -399 0
778 167 651 0
711 -149 -422 0
386 768 758 0
792 236 224 0
781 350 -18 0
765 -972 660 0
-697 -940 913 0
-975 162 15 0
-58 -263 -474 0
118 982 -553 0
7 771 -190 0
-905 766 409 0
-670 -956 984 0
-232 -108 131 0
810 389 -794 0
-117 -189 877 0
117 -209 -513 0
-55 833 705 0
573 68 779 0
-861 146 506 0
-482 418 267 0
-880 -397 638 0
-601 613 -9 0
247 567 -884 0
738 910 -394 0
163 37 852 0
-612 188 16 0
-914 574 -368 0
589 -920 -192 0
-387 -214 -692 0
-445 -915 732 0
939 884 -35 0
-650 -126 54 0
-720 -790 835 0
384 -573 234 0
-383 -660 332 0
-769 -413 945 0
-393 -195 -971 0
-876 905 120 0
-607 -266 897 0
-991 -303 -490 0
471 183 398 0
458 -574 90 0
707 584 -99 0
907 759 330 0
709 263 256 0
-185 -887 655 0
284 803 -552 0
-221 515 -668 0
-727 -586 502 0
614 -333 321 0
551 650 450 0
342 -201 -489 0
-184 -593 597 0
-186 -37 887 0
187 785 -208 0
890 659 -438 0
-230 576 -906 0
-128 600 -458 0
-174 278 541 0
902 -209 279 0
-764 -760 -364 0
764 -277 -402 0
-556 696 55 0
776 272 -855 0
189 -335 -453 0
-150 -758 -474 0
459 312 -614 0
-512 -374 -715 0
547 -478 323 0
446 998 -347 0
297 -522 419 0
-240 932 -59 0
-202 -731 -792 0
-906 303 -650 0
-235 -225 382 0
-45 -511 233 0
563 533 485 0
715 775 -864 0
603 -495 269 0
-503 187 -651 0
-888 612 -884 0
452 -89 934 0
355 791 837 0
666 564 -928 0
-431 -960 -589 0
263 -90 -857 0
-282 331 -153 0
87 812 670 0
-272 12 900 0
146 899 -143 0
-935 517 478 0
-760 -636 675 0
-513 -383 884 0
189 974 186 0
-118 31 -848 0
-350 -562 -756 0
211 -816 885 0
-878 -801 117 0
-140 -848 -37 0
-743 935 729 0
548 184 -266 0
234 679 -683 0
163 623 -736 0
768 996 6 0
466 289 274 0
815 41 -560 0
513 629 820 0
702 -364 -403 0
432 -839 922 0
-354 9 -979 0
703 -286 -935 0
680 -790 935 0
942 -5 -127 0
831 -585 -351 0
146 870 933 0
706 368 -509 0
722 -510 -59 0
724 352 130 0
-479 -749 75 0
-598 746 100 0
-281 -259 488 0
32 -308 -13 0
-893 -274 179 0
-266 -172 792 0
-459 298 -913 0
784 -908 -779 0
562 602 968 0
-859 220 -771 0
198 -939 162 0
277 992 -246 0
940 392 465 0
322 540 811 0
-641 -838 -270 0
165 116 362 0
-478 -242 917 0
-431 -21 663 0
602 195 -260 0
889 566 -524 0
256 211 -190 0
-945 -970 -67 0
459 880 -640 0
-178 -737 -872 0
298 -777 248 0
159 895 -905 0
-338 401 -445 0
-535 -255 -521 0
-156 -648 -585 0
-135 -481 -193 0
10 -796 -928 0
-821 944 -457 0
-612 -392 -400 0
-341 732 389 0
582 -546 220 0
217 817 -456 0
24 945 -653 0
773 -643 877 0
-491 363 -893 0
712 -189 -427 0
683 825 -629 0
471 -993 -827 0
146 -243 -296 0
-948 433 716 0
-914 645 -164 0
113 535 6 0
29 936 -222 0
194 141 -510 0
303 -56 -778 0
629 981 293 0
176 601 -130 0
-867 317 -954 0
407 -565 127 0
-688 266 -680 0
-377 796 -803 0
268 -319 -55 0
-898 -467 822 0
653 594 216 0
-361 930 -958 0
58 -805 -628 0
364 935 -391 0
182 -527 -886 0
972 312 -626 0
472 62 256 0
679 151 -931 0
-591 132 -378 0
-878 295 120 0
-10 614 -924 0
-464 -87 354 0
-695 932 630 0
680 403 237 0
-186 -752 -925 0
684 -373 -884 0
-268 -662 -630 0
-90 -115 249 0
861 966 -545 0
-581 -477 416 0
-196 314 -518 0
-938 34 493 0
828 -942 -456 0
234 214 -189 0
652 -437 -649 0
-176 -667 -919 0
757 521 -567 0
196 -748 534 0
-238 -828 -850 0
-208 705 -616 0
-998 -114 -647 0
298 -387 26 0
275 -504 -181 0
-856 -489 -430 0
287 489 -76 0
-451 -924 -344 0
-81 456 -220 0
-896 -830 -740 0
415 -739 -191 0
-117 470 401 0
350 -144 615 0
760 -355 667 0
603 622 -625 0
429 169 300 0
448 431 921 0
369 698 273 0
964 529 295 0
-801 119 -247 0
855 -343 586 0
-414 -932 790 0
-436 201 970 0
-403 -291 -850 0
-282 284 -60 0
-415 849 221 0
636 -328 640 0
683 -824 667 0
936 225 649 0
-620 -994 189 0
-861 390 -2 0
39 624 -320 0
-377 107 -591 0
-738 -990 795 0
603 597 693 0
427 -622 -725 0
-174 142 -81 0
865 -786 747 0
792 -250 587 0
58 294 378 0
653 937 748 0
-68 -124 72 0
-336 -850 184 0
770 920 253 0
202 -292 -968 0
601 44 729 0
-134 -275 548 0
222 -991 583 0
573 -344 -493 0
-940 990 368 0
-614 -104 556 0
874 -95 633 0
284 888 684 0
315 332 750 0
409 -985 468 0
901 370 234 0
946 981 583 0
-406 -651 357 0
-730 -784 -453 0
688 -901 543 0
-250 -459 522 0
-20 111 -28 0
115 -665 -44 0
-998 -694 -777 0
-831 750 310 0
-771 192 -160 0
-393 -35 -570 0
57 -529 562 0
-330 -78 981 0
-806 288 -500 0
-645 -798 786 0
343 -724 -992 0
-743 487 956 0
136 -251 502 0
-375 -541 271 0
-67 280 809 0
312 -487 343 0
731 -705 613 0
-357 -770 854 0
485 712 -984 0
-919 -284 848 0
966 -879 16 0
-949 95 905 0
456 -161 133 0
364 -957 -369 0
-194 873 -807 0
235 504 -51 0
-120 308 -955 0
-233 474 33 0
-835 -593 219 0
-443 504 296 0
-213 -33 -525 0
-801 -264 966 0
-810 -293 -331 0
-86 -417 -796 0
244 421 -742 0
695 -548 641 0
268 -958 -338 0
-432 767 -742 0
65 175 -248 0
-229 -826 973 0
159 -469 589 0
-694 -465 -305 0
-833 -299 -748 0
-869 283 243 0
-802 271 -456 0
488 848 -611 0
-97 -129 -131 0
382 186 -277 0
919 -542 -321 0
-399 -490 -709 0
-343 962 -697 0
-60 -891 -580 0
145 718 802 0
962 -572 -310 0
-807 997 5 0
915 -822 -775 0
-434 11 331 0
205 911 -506 0
-723 392 866 0
783 -985 5 0
24 696 934 0
149 -371 -1 0
480 635 771 0
793 14 -214 0
429 -846 392 0
-726 389 224 0
316 956 -641 0
-303 -47 -721 0
96 -355 -71 0
-227 -196 -924 0
-339 -838 -499 0
719 42 587 0
-790 -814 698 0
-998 -603 -40 0
672 273 -873 0
-631 288 -180 0
316 897 -847 0
-775 872 -794 0
-410 785 492 0
877 686 -676 0
-139 541 228 0
-999 781 440 0
-793 -314 508 0
-970 279 -205 0
17 120 438 0
-717 -938 216 0
408 -621 -234 0
38 -159 -796 0
669 897 573 0
22 840 -841 0
822 536 -564 0
548 -830 539 0
70 -484 -546 0
430 623 -353 0
-178 688 551 0
990 765 223 0
11 -958 802 0
-609 518 -797 0
-908 -768 -823 0
-265 795 177 0
-625 524 391 0
-964 -536 -423 0
-3 573 -567 0
-206 573 -468 0
-569 -973 -975 0
657 607 411 0
-282 109 -234 0
971 -377 -999 0
416 202 -985 0
588 -720 875 0
997 175 -187 0
-460 596 438 0
458 -68 -740 0
655 -831 283 0
-702 474 559 0
164 819 -969 0
704 -909 685 0
-630 62 337 0
314 -842 -867 0
-94 911 806 0
514 85 -948 0
-29 412 937 0
-571 -864 998 0
145 413 271 0
-335 -493 498 0
632 572 772 0
728 434 520 0
-407 731 528 0
-241 917 517 0
944 189 92 0
929 636 457 0
-259 -666 565 0
-558 -125 -530 0
-610 716 -903 0
366 876 164 0
-820 -701 -902 0
-220 2 -558 0
-791 -974 -664 0
-783 338 300 0
-888 -495 -236 0
-783 -486 845 0
716 44 28 0
535 -976 -783 0
-234 160 -223 0
607 387 -676 0
-699 -69 -962 0
19 52 -124 0
929 -884 -430 0
68 -455 938 0
291 -7 -58 0
150 883 -718 0
555 -471 46 0
-461 12 520 0
-807 728 19 0
677 829 910 0
-775 780 -450 0
-165 486 692 0
623 -2 164 0
747 -10 -710 0
-778 227 -974 0
-758 816 915 0
-778 845 79 0
168 -348 486 0
12 -984 -102 0
442 488 757 0
190 287 915 0
-1 -179 883 0
-812 -197 -123 0
-119 -978 -582 0
189 338 812 0
93 794 -74 0
974 686 19 0
13 -572 788 0
-214 867 238 0
-209 -279 144 0
947 308 -209 0
-574 858 104 0
741 569 -304 0
51 -546 -925 0
-256 544 227 0
705 -922 599 0
628 554 601 0
-300 -975 -637 0
434 905 845 0
256 -432 -185 0
-482 495 485 0
938 -702 -810 0
-463 535 -326 0
-856 121 -129 0
218 -24 49 0
-970 336 -919 0
747 181 582 0
-513 832 -615 0
294 -251 -865 0
-746 810 96 0
508 855 652 0
-607 92 -179 0
218 208 729 0
-315 324 45 0
279 -844 -990 0
557 241 226 0
950 -547 -73 0
341 -331 514 0
-169 646 -215 0
-893 304 -12 0
-13 -73 -405 0
-381 595 -6 0
-632 479 -956 0
994 858 -405 0
-399 416 655 0
-714 -634 976 0
970 -829 -770 0
746 -627 -740 0
1 482 555 0
215 192 -303 0
-166 587 -765 0
-712 296 338 0
483 400 786 0
-470 -606 -95 0
618 520 933 0
-19 -833 -568 0
678 865 -613 0
-157 -762 -57 0
-694 -451 -85 0
207 -155 -46 0
643 44 590 0
-177 800 -175 0
111 -209 356 0
48 -513 966 0
384 414 -568 0
-154 949 601 0
785 -137 203 0
-683 -968 -147 0
-742 649 -741 0
-277 562 -399 0
-799 739 380 0
320 -974 385 0
197 706 -987 0
-734 -943 207 0
637 -478 539 0
31 -742 -635 0
-170 -803 801 0
361 782 -338 0
719 152 197 0
186 212 -982 0
378 -618 619 0
-639 -399 356 0
155 -143 -198 0
106 -412 -312 0
-93 -142 -358 0
48 -437 -967 0
273 151 -410 0
76 -650 383 0
-518 -328 -273 0
953 -187 -488 0
497 -237 -822 0
-723 121 732 0
559 -805 -263 0
-711 753 -920 0
310 -288 -434 0
-839 404 -461 0
636 309 693 0
113 314 62 0
367 -614 -88 0
697 698 848 0
382 660 944 0
-48 458 -779 0
-639 -293 -252 0
-371 708 63 0
669 -65 -75 0
560 -508 505 0
-24 -567 -764 0
-763 -68 977 0
-787 -739 -126 0
-577 -871 43 0
547 -515 148 0
796 416 -993 0
-987 -183 673 0
459 -375 148 0
325 51 -318 0
898 -466 -396 0
-807 -830 943 0
491 644 420 0
838 67 771 0
-135 -151 -759 0
730 -1000 -274 0
379 -5 338 0
-746 730 -904 0
-545 -924 469 0
231 -837 -905 0
852 969 259 0
-681 -349 11 0
-516 -494 -597 0
1000 300 -390 0
686 736 -524 0
-193 793 -834 0
-88 216 220 0
-233 -676 -447 0
528 -113 208 0
393 559 -631 0
-772 396 -959 0
-833 955 -915 0
-816 -671 122 0
-737 903 -902 0
-348 -642 -848 0
-770 -20 644 0
-882 -578 745 0
-285 -981 389 0
333 10 946 0
-978 941 578 0
336 61 313 0
988 -762 741 0
670 -449 673 0
595 136 11 0
-553 -967 -781 0
-168 961 -915 0
732 230 -968 0
546 -348 -321 0
-103 -24 713 0
-55 -176 -972 0
375 600 95 0
890 -295 -215 0
-95 466 -878 0
-620 998 -58 0
-441 -691 -458 0
-118 -497 633 0
928 555 -269 0
547 -938 528 0
-140 496 -788 0
-942 -58 -959 0
-900 -975 234 0
51 13 -561 0
-652 -514 567 0
-11 -653 -150 0
-926 387 -728 0
792 761 -932 0
-639 -30 306 0
-869 880 -823 0
-300 392 21 0
-741 604 511 0
669 144 642 0
751 -912 -945 0
883 -988 -385 0
729 -856 -654 0
-863 755 -501 0
-534 860 35 0
261 556 593 0
-938 -322 -984 0
-866 434 391 0
700 -86 943 0
-911 -768 803 0
-57 -255 -347 0
-385 786 758 0
-115 -985 114 0
-69 -642 -340 0
-435 485 -635 0
-577 700 742 0
55 995 405 0
-50 -929 -722 0
-904 56 617 0
-407 701 -795 0
-641 -183 630 0
-509 -910 647 0
226 988 -979 0
745 806 -996 0
-882 776 -871 0
-560 -230 635 0
775 741 -516 0
-928 -966 -265 0
-359 363 -601 0
-596 -223 -517 0
-104 78 777 0
552 527 -226 0
190 504 744 0
-743 -242 -437 0
387 707 -683 0
527 237 -163 0
51 -532 767 0
-335 -750 -161 0
-99 -19 -153 0
-795 -76 -995 0
-197 -511 -108 0
847 857 -791 0
-143 538 -89 0
844 -851 -238 0
473 -815 -949 0
100 -252 -109 0
-621 154 -826 0
922 668 -113 0
737 606 -777 0
-122 -741 -959 0
232 567 -512 0
908 -712 652 0
-497 -204 -877 0
13 -545 -657 0
-412 -810 566 0
155 967 -363 0
-467 -949 -708 0
-982 -2 -132 0
-405 84 -332 0
810 -217 675 0
207 -534 568 0
-791 -688 -615 0
-223 337 -732 0
-721 763 -276 0
-455 -294 -995 0
-51 242 -302 0
-335 -935 469 0
-805 -259 -548 0
-994 -896 444 0
-335 -77 54 0
395 -477 -629 0
196 719 453 0
-686 -435 883 0
162 -399 867 0
28 517 537 0
245 -422 -12 0
-669 754 424 0
226 454 366 0
785 -150 -607 0
287 -919 -860 0
-182 327 138 0
350 306 -162 0
127 784 355 0
-933 -187 -654 0
-424 893 -253 0
-613 -820 -254 0
-470 -280 771 0
-988 485 -817 0
-569 -364 979 0
850 798 -648 0
30 -989 -89 0
-969 -401 68 0
-699 -530 707 0
-53 794 -851 0
498 -423 983 0
-386 827 -276 0
-272 -518 45 0
-702 -316 -981 0
-988 807 -721 0
-944 624 -109 0
-459 86 -574 0
-661 -765 215 0
-38 666 -921 0
25 206 829 0
-89 121 796 0
-881 -16 -705 0
-895 154 -870 0
-115 707 147 0
-249 -552 -238 0
183 -397 782 0
-431 -864 -194 0
566 507 -201 0
-136 -149 976 0
370 927 40 0
573 -454 757 0
-594 -285 -50 0
-446 598 -898 0
-305 -395 -114 0
612 -447 721 0
-570 -963 -470 0
916 212 62 0
21 -119 902 0
-814 -54 971 0
-607 788 538 0
880 -78 -939 0
221 564 -175 0
840 -743 -451 0
194 875 845 0
-200 -472 936 0
124 -667 -452 0
825 632 -407 0
980 747 -671 0
806 -784 569 0
459 414 501 0
-795 -983 930 0
146 308 -890 0
-224 997 -365 0
-13 -651 -98 0
852 850 -618 0
-755 -629 -988 0
584 864 144 0
-1000 240 928 0
-142 154 600 0
240 -843 730 0
-171 -333 -207 0
769 -854 -393 0
-1 768 837 0
-105 586 431 0
78 891 -17 0
596 -273 788 0
-790 524 783 0
320 955 -354 0
-619 711 -193 0
400 660 -958 0
-700 -368 759 0
713 427 531 0
-473 81 -716 0
-549 739 -99 0
54 576 876 0
-86 180 827 0
898 664 853 0
188 596 -366 0
-4 506 952 0
666 -143 -166 0
-61 929 -782 0
-403 780 425 0
-903 302 108 0
860 -530 -407 0
110 801 -203 0
342 491 108 0
-714 141 956 0
-53 -999 683 0
481 -276 -557 0
-531 168 528 0
-549 -359 994 0
709 -812 -308 0
227 513 -205 0
-808 567 382 0
617 566 179 0
929 51 -446 0
955 508 575 0
-913 949 -472 0
-280 -957 -522 0
734 33 -887 0
69 588 -922 0
-714 730 -42 0
290 -960 -645 0
-211 -243 209 0
-957 -706 693 0
211 19 582 0
513 -898 -947 0
-394 950 -342 0
375 739 -245 0
-166 442 -250 0
160 332 249 0
830 969 -22 0
-870 -350 -607 0
-890 988 981 0
733 726 -892 0
-151 -836 340 0
-965 779 -660 0
-326 -441 99 0
759 387 72 0
397 -20 562 0
-570 -645 540 0
246 652 805 0
-174 -396 -482 0
-150 -132 300 0
287 -649 -645 0
392 817 806 0
-160 511 838 0
689 -340 -708 0
682 -54 614 0
775 -501 -927 0
823 -79 -238 0
71 551 563 0
-195 -157 205 0
625 82 -328 0
-867 637 996 0
700 211 -185 0
-226 100 -663 0
550 -737 104 0
808 219 -324 0
619 745 577 0
453 -749 912 0
649 170 -214 0
-605 -711 74 0
-443 788 539 0
831 -123 -566 0
158 957 626 0
-567 103 543 0
-488 -207 -802 0
-891 800 -219 0
996 684 451 0
733 606 338 0
-117 269 272 0
766 -25 922 0
-503 401 -439 0
-610 -337 564 0
46 -489 228 0
268 -465 -933 0
619 -558 -136 0
294 -905 -159 0
260 733 3 0
600 308 613 0
-640 44 -72 0
-704 15 313 0
-642 52 761 0
103 655 558 0
-378 497 334 0
-495 321 331 0
-129 202 519 0
-81 316 -307 0
120 940 -744 0
-913 -930 726 0
-411 -817 -974 0
390 763 187 0
286 824 107 0
24 434 66 0
246 624 -602 0
-773 716 -232 0
416 795 -417 0
723 -904 -205 0
-378 536 -993 0
-149 -91 -315 0
-650 97 38 0
192 -198 110 0
-489 -602 404 0
-535 800 635 0
612 27 -705 0
-439 -35 159 0
816 -198 199 0
-19 -938 180 0
906 -680 60 0
-725 161 -403 0
632 -944 -449 0
-370 202 188 0
-171 -713 452 0
579 303 -89 0
-47 -678 841 0
980 -655 447 0
-962 -447 380 0
-45 55 -214 0
661 931 643 0
-3 -388 314 0
735 -653 -719 0
-442 490 -61 0
-196 -377 405 0
615 846 18 0
626 543 -374 0
228 -36 9 0
613 -15 -918 0
-948 -342 179 0
909 29 660 0
-49 -754 558 0
-488 688 236 0
-533 847 771 0
96 -584 -554 0
819 167 517 0
-219 730 -709 0
765 649 -419 0
207 -187 875 0
40 978 569 0
-839 -948 -339 0
-760 192 424 0
961 757 290 0
931 565 816 0
-77 747 -22 0
-916 823 -641 0
-280 810 -725 0
268 -101 972 0
745 -121 807 0
324 685 34 0
-878 -19 -141 0
-553 -927 415 0
-478 -63 984 0
-851 -315 326 0
-832 705 -150 0
268 103 397 0
295 845 -134 0
-127 42 -212 0
-176 329 -799 0
323 -142 48 0
321 119 -132 0
-565 135 197 0
-759 901 576 0
-261 -910 -496 0
887 427 455 0
-562 686 -373 0
-86 -999 736 0
257 541 603 0
-137 -970 -421 0
897 -621 949 0
-934 -625 -626 0
183 -701 -641 0
179 432 -33 0
-715 381 -766 0
-359 -627 -484 0
-729 293 355 0
-567 379 168 0
-435 -768 -453 0
568 -216 60 0
-217 -195 -472 0
505 108 -463 0
268 -164 400 0
-637 -942 650 0
-921 379 -779 0
699 -404 158 0
-643 118 -255 0
811 378 -662 0
375 813 -139 0
-180 564 -726 0
999 594 878 0
346 251 -811 0
-520 467 -628 0
468 889 753 0
-27 -416 -876 0
-384 853 -649 0
562 212 -772 0
-868 130 -316 0
923 871 509 0
-832 -307 -965 0
-12 -460 928 0
459 -486 527 0
-305 -192 -848 0
93 -190 692 0
-694 -542 87 0
66 742 869 0
-649 -865 -723 0
-825 -546 606 0
-780 -857 -272 0
383 -64 534 0
-960 -644 -556 0
-239 142 858 0
-250 -682 532 0
-65 981 -309 0
184 -925 -705 0
-903 -248 119 0
-117 -739 -655 0
805 -76 126 0
101 732 -70 0
177 -78 421 0
336 434 810 0
-432 -529 -761 0
-996 -887 -103 0
996 793 -608 0
380 737 -942 0
473 -210 -420 0
387 989 -809 0
360 606 -917 0
-163 725 -965 0
-287 -884 -550 0
-103 -190 -240 0
116 944 320 0
694 -674 -789 0
-483 715 319 0
-383 -983 7 0
195 411 110 0
-895 550 -672 0
-630 -285 500 0
-402 -773 881 0
-576 666 591 0
-783 774 -307 0
520 -369 -658 0
-985 583 296 0
503 332 402 0
-942 675 379 0
-359 609 993 0
472 697 437 0
208 210 536 0
399 629 -872 0
90 -548 331 0
933 130 329 0
-85 316 -960 0
486 -804 -623 0
-728 -841 298 0
295 -359 475 0
-108 247 206 0
654 -602 -795 0
18 216 -1 0
-435 123 987 0
-569 -901 -829 0
599 331 669 0
-246 304 -700 0
-514 188 -178 0
-182 -733 827 0
-953 124 -20 0
-487 518 130 0
364 97 -131 0
584 758 481 0
-414 -861 -925 0
-157 916 51 0
-382 -636 389 0
189 107 337 0
-189 -742 -415 0
933 156 152 0
659 -564 751 0
597 821 -583 0
-73 626 -561 0
435 -510 -306 0
-98 192 -948 0
61 6 -394 0
781 -775 690 0
-910 -413 446 0
-103 -3 -897 0
259 507 349 0
-947 531 -230 0
809 -220 692 0
-169 656 -428 0
252 120 -401 0
5 -812 540 0
593 -574 -143 0
530 273 -930 0
-38 -555 -511 0
-728 989 340 0
95 -699 998 0
-802 -736 -239 0
-912 45 632 0
604 591 -86 0
-949 413 746 0
-293 214 710 0
-323 -79 330 0
721 902 -94 0
-376 -511 -909 0
-614 -899 -375 0
-902 548 -766 0
183 726 -329 0
592 451 833 0
-769 634 647 0
-761 -632 -210 0
615 901 83 0
163 -456 275 0
-729 -350 135 0
508 -949 -578 0
116 -55 -126 0
-388 262 -803 0
-470 405 982 0
445 804 115 0
967 -308 699 0
-17 96 -383 0
222 -107 -696 0
553 335 -278 0
-572 -709 885 0
-849 -242 -990 0
-103 648 -37 0
-604 99 63 0
-913 -101 730 0
389 -175 -802 0
-499 380 169 0
175 888 -591 0
264 -594 641 0
956 -225 516 0
354 974 -359 0
326 160 818 0
204 -162 159 0
-683 423 -782 0
960 428 315 0
-596 592 61 0
-938 116 147 0
-37 808 -961 0
101 886 863 0
725 880 -779 0
937 -66 -58 0
-396 -677 -968 0
218 950 883 0
978 -787 -984 0
-31 365 318 0
-796 937 -326 0
-356 211 922 0
526 -205 334 0
604 459 416 0
867 -987 145 0
173 -214 -174 0
328 108 972 0
-422 -868 -603 0
950 -687 723 0
-863 567 254 0
445 -741 -555 0
-335 -466 -185 0
-638 307 611 0
280 546 -626 0
640 571 361 0
690 155 -203 0
-885 80 932 0
361 -809 -323 0
782 489 -753 0
519 148 14 0
283 262 -88 0
-670 -94 831 0
605 273 -337 0
-219 416 431 0
332 -400 -86 0
158 -55 945 0
371 -858 603 0
-841 282 532 0
366 -148 547 0
-98 -929 -261 0
-585 293 3 0
-129 -354 -439 0
-773 -337 503 0
811 189 125 0
942 -225 -683 0
832 -717 -683 0
-369 635 -898 0
937 -524 899 0
114 527 -586 0
-224 377 487 0
841 -400 550 0
628 -906 -578 0
-845 -198 21 0
163 932 674 0
-171 772 -224 0
1000 -206 -404 0
-632 -919 405 0
167 587 117 0
655 -278 108 0
767 -135 566 0
472 681 -680 0
-194 -79 464 0
370 193 -945 0
-330 -716 -402 0
-52 -25 59 0
-234 -682 836 0
355 633 213 0
61 -695 462 0
755 662 -199 0
-679 720 576 0
469 951 -641 0
255 343 -98 0
682 -613 -57 0
723 506 19 0
-491 274 -703 0
-630 326 481 0
252 -493 633 0
-245 80 840 0
161 -800 860 0
742 992 653 0
952 962 -82 0
934 -9 744 0
837 691 655 0
-989 -216 -94 0
328 -1 544 0
-907 -556 -495 0
38 151 -797 0
-418 -484 -839 0
649 54 -443 0
-359 -557 -86 0
-906 901 690 0
-644 -408 -461 0
-275 711 363 0
-776 -192 -336 0
46 -574 177 0
-923 -825 -943 0
-156 514 396 0
131 927 -698 0
-28 977 -162 0
-101 -963 -533 0
-340 -520 -547 0
-606 912 -934 0
-311 221 -114 0
-623 303 -774 0
-432 58 892 0
-48 -110 -464 0
-973 -800 43 0
373 487 -891 0
613 -992 -736 0
-777 576 690 0
869 259 -363 0
-279 971 -731 0
533 994 -817 0
-990 -158 -128 0
838 472 -2 0
-150 57 -782 0
-553 -899 -984 0
869 -152 -458 0
-655 690 -377 0
706 189 521 0
-273 -837 -528 0
356 -601 514 0
-69 271 -644 0
-27 -304 -710 0
79 -179 -927 0
-758 -43 -684 0
954 -36 -58 0
202 691 -928 0
-640 -146 -548 0
-856 -545 -799 0
460 -276 -63 0
-431 367 -131 0
-72 831 180 0
-840 425 299 0
-753 -693 -660 0
-454 -171 -27 0
241 21 -413 0
199 25 -160 0
165 90 32 0
-297 -821 -999 0
170 -13 180 0
695 319 -593 0
916 -218 363 0
678 855 417 0
-33 151 756 0
81 860 991 0
-573 -833 744 0
84 -387 -255 0
-53 122 -607 0
625 -450 -152 0
674 -846 420 0
-250 -823 -905 0
430 623 -753 0
854 328 -68 0
-428 -74 -468 0
484 -133 -690 0
286 -466 -737 0
-17 -835 197 0
-919 -192 356 0
689 580 371 0
446 -967 180 0
540 -932 246 0
844 -6 -127 0
-501 -740 982 0
548 972 501 0
926 -834 -808 0
-768 -614 101 0
160 -261 -399 0
240 925 -207 0
-526 923 32 0
549 -98 -85 0
-883 -581 -422 0
571 -269 375 0
-196 -409 -455 0
565 417 611 0
-346 23 104 0
175 389 -846 0
354 176 -780 0
-606 503 -758 0
-124 -381 714 0
415 -759 5 0
-218 719 848 0
994 517 -286 0
-484 924 519 0
947 278 -537 0
-581 753 910 0
-313 -166 -8 0
-406 980 716 0
777 952 42 0
716 901 -515 0
213 -738 -169 0
292 653 921 0
413 -359 333 0
574 -166 -987 0
-863 -477 -920 0
139 354 -595 0
-460 587 514 0
-930 -462 892 0
-410 82 120 0
599 592 -573 0
513 -108 -626 0
-797 35 275 0
521 253 720 0
201 -394 149 0
740 426 870 0
409 -917 750 0
585 -513 288 0
-334 205 -75 0
70 36 -948 0
56 486 240 0
-988 -625 683 0
906 376 -530 0
-930 -416 -367 0
626 141 -416 0
617 969 -428 0
-636 24 10 0
-793 -520 583 0
693 462 -249 0
-928 -433 583 0
-751 -155 123 0
510 -160 532 0
-358 -17 -820 0
-542 -749 599 0
205 -460 711 0
-575 367 934 0
-504 -673 207 0
504 -650 45 0
-979 -40 758 0
450 -960 215 0
14 315 -238 0
-13 -53 -777 0
370 -993 143 0
-238 446 716 0
-179 652 -172 0
-576 -298 699 0
-755 419 560 0
655 -431 -603 0
331 -91 222 0
279 686 -804 0
-326 138 377 0
-200 378 -906 0
-343 -578 361 0
521 329 -380 0
792 -580 -302 0
569 -22 -814 0
565 619 674 0
-25 -89 -910 0
-34 714 -814 0
439 -482 743 0
-189 835 631 0
825 -676 815 0
405 444 751 0
-430 291 950 0
528 931 -906 0
633 894 127 0
-756 992 443 0
537 75 -395 0
-422 -659 856 0
-156 -871 947 0
-375 548 -95 0
830 -350 -941 0
-43 -321 -433 0
524 -268 830 0
-731 -142 -540 0
-619 396 -260 0
-616 92 162 0
841 628 935 0
-539 -808 707 0
209 -514 106 0
463 883 -952 0
-827 -585 702 0
153 367 -88 0
-399 130 -810 0
425 852 -265 0
144 -497 -201 0
-661 -218 -274 0
247 -454 -845 0
868 -545 -440 0
743 822 -512 0
-298 -438 142 0
721 -562 358 0
-560 -501 -122 0
-981 217 721 0
342 350 59 0
-12 151 -869 0
448 -988 -470 0
-250 -67 -14 0
698 786 -432 0
238 -759 443 0
-19 -143 -799 0
16 204 226 0
916 768 772 0
762 884 557 0
-161 782 -471 0
-464 697 -559 0
-137 946 817 0
606 720 806 0
71 536 943 0
398 944 -694 0
-73 -775 -784 0
199 -531 -335 0
-837 515 989 0
-974 211 432 0
716 -925 -281 0
751 616 -346 0
-270 -227 784 0
231 156 -524 0
685 826 837 0
-158 871 358 0
-235 109 -792 0
-564 -667 416 0
-515 661 904 0
-124 -463 488 0
-747 -148 -660 0
-334 -894 -890 0
-699 715 -232 0
-617 399 546 0
852 -844 -406 0
388 90 449 0
-871 -957 -825 0
740 -415 -174 0
-241 -700 -611 0
-913 -892 245 0
-441 -169 -562 0
-874 34 978 0
615 -170 178 0
-936 430 855 0
-673 724 -311 0
972 -525 -351 0
390 689 199 0
-515 256 72 0
5 351 77 0
-684 519 62 0
927 947 437 0
-275 532 175 0
491 697 -784 0
250 -263 437 0
-834 942 696 0
-339 -300 332 0
806 44 466 0
-738 -110 921 0
-852 160 104 0
-208 -381 706 0
67 -125 -839 0
376 -42 969 0
85 -220 -571 0
836 -654 -527 0
-243 -565 598 0
805 -738 719 0
-790 350 -817 0
-758 689 -933 0
-959 172 -125 0
-91 -403 -664 0
-358 601 -285 0
-64 183 -654 0
263 704 836 0
471 -331 501 0
73 261 301 0
-352 400 453 0
853 -900 -599 0
449 -169 156 0
-382 -436 -649 0
-503 250 -401 0
101 172 -970 0
256 492 452 0
-772 -532 60 0
491 21 51 0
-499 -141 746 0
875 527 249 0
-479 925 -723 0
705 569 475 0
624 -768 -665 0
397 -729 -976 0
486 -157 -145 0
257 440 -975 0
-452 523 -788 0
117 -3 -586 0
765 -637 -419 0
467 449 -583 0
549 -545 784 0
-485 -823 810 0
-731 935 754 0
476 99 -256 0
-139 350 -633 0
428 598 -508 0
38 681 349 0
522 375 813 0
-137 354 -417 0
605 46 740 0
-40 814 -640 0
-197 -161 -973 0
170 -413 740 0
497 285 958 0
-490 977 418 0
399 -201 166 0
558 980 857 0
-77 -478 955 0
-106 469 780 0
66 -538 283 0
-412 998 -593 0
-368 274 142 0
244 349 -106 0
-436 488 999 0
956 562 643 0
-807 787 -161 0
252 -176 -647 0
807 -331 649 0
89 754 -191 0
-203 -913 910 0
959 542 -559 0
954 -503 -158 0
-310 34 -570 0
379 95 -446 0
-36 -16 -722 0
-439 -393 -516 0
644 767 639 0
-634 -78 146 0
752 -291 -121 0
-456 -622 -78 0
-423 -496 -271 0
430 -752 953 0
212 216 285 0
991 -588 -43 0
934 553 -342 0
-28 -622 514 0
752 923 -947 0
595 346 -713 0
-841 -414 683 0
-620 -510 572 0
-513 -625 -14 0
-18 117 -208 0
913 59 -427 0
977 -426 913 0
485 -529 -428 0
628 -997 -535 0
383 892 533 0
-506 -31 517 0
-603 408 -745 0
843 362 -278 0
-489 -214 -10 0
-727 -142 -963 0
-332 459 961 0
826 44 -757 0
-117 881 355 0
-168 -837 -858 0
-53 -754 -633 0
789 -136 201 0
958 -950 34 0
523 648 -333 0
81 834 -698 0
-80 -302 231 0
913 -700 594 0
-468 464 -247 0
-876 -432 595 0
635 860 132 0
80 -233 361 0
643 -160 93 0
-722 -449 -38 0
-687 -252 695 0
48 428 642 0
742 -340 520 0
8 52 -869 0
662 -60 174 0
909 707 -788 0
684 352 -22 0
309 -28 995 0
-368 781 -783 0
556 71 949 0
907 745 -958 0
938 -397 589 0
520 314 -324 0
514 -625 -890 0
-495 963 -95 0
35 590 467 0
-650 256 9 0
-771 -684 -999 0
-844 84 -227 0
924 -285 -831 0
-138 281 -650 0
224 -98 -803 0
-852 41 600 0
80 229 -813 0
-990 784 223 0
-954 -78 -548 0
628 648 540 0
-438 524 -727 0
311 -355 -30 0
-802 -119 653 0
647 -534 154 0
273 -59 -412 0
-660 -707 -868 0
530 829 191 0
-718 -271 660 0
-589 -182 -134 0
267 454 524 0
184 -841 -381 0
-728 -822 821 0
623 715 130 0
-789 575 250 0
298 -944 543 0
-926 24 559 0
398 957 -430 0
614 -245 921 0
-858 682 -357 0
-947 236 -439 0
372 -807 -861 0
682 -170 113 0
-519 330 558 0
-878 -667 926 0
749 -898 -602 0
597 758 -928 0
953 -355 -948 0
-542 -387 516 0
-401 -340 78 0
71 -573 764 0
-756 -423 -357 0
-418 -624 245 0
421 -10 156 0
983 674 19 0
-894 -235 -143 0
-56 853 94 0
-17 -35 435 0
795 472 915 0
231 -896 446 0
-853 538 -634 0
-538 433 79 0
482 880 934 0
-169 999 -944 0
564 -230 499 0
-128 599 979 0
-424 902 -989 0
-473 330 513 0
-719 951 839 0
586 372 684 0
271 -727 472 0
-211 -509 -244 0
-368 -139 -965 0
-954 -158 -853 0
678 -832 -174 0
-449 -518 -76 0
-428 361 725 0
447 -593 402 0
-769 945 -426 0
-340 -573 907 0
-83 72 -2 0
743 869 -77 0
-187 870 882 0
-40 38 821 0
147 -135 -451 0
722 -582 -881 0
-202 -614 -979 0
883 -719 -767 0
290 -574 -582 0
-482 -41 697 0
214 -671 -434 0
-952 -542 555 0
125 466 -592 0
403 522 -965 0
-918 -229 476 0
76 -933 462 0
978 -215 -961 0
946 -869 -565 0
63 67 -980 0
633 485 686 0
786 -818 750 0
488 558 -386 0
-236 469 -975 0
331 113 820 0
-289 -47 -388 0
-289 565 753 0
50 -587 -6 0
-739 145 -263 0
-542 232 402 0
92 -165 -139 0
-930 -600 -847 0
-601 332 850 0
692 -598 -849 0
-559 -721 916 0
26 780 551 0
389 -522 195 0
150 -831 680 0
112 -39 527 0
567 496 -789 0
-184 666 753 0
24 313 769 0
-649 12 644 0
405 -698 -89 0
-310 -387 -903 0
32 -809 678 0
-178 445 -524 0
-13 -473 609 0
780 -970 -218 0
-609 641 -269 0
674 265 -572 0
745 541 -310 0
236 -982 250 0
237 -688 620 0
-841 -504 767 0
-634 633 440 0
304 170 -173 0
502 -274 559 0
947 -8 -250 0
481 -405 -976 0
885 220 -460 0
-161 205 -273 0
-147 934 423 0
966 509 907 0
-189 -786 -646 0
10 -648 -787 0
243 279 -950 0
672 249 475 0
-531 768 622 0
-129 699 931 0
1000 866 -555 0
-45 774 526 0
-419 -319 -597 0
-575 520 -645 0
593 -29 36 0
834 -883 -541 0
-753 -236 -890 0
554 -143 -980 0
401 216 -431 0
675 -919 377 0
963 -582 -197 0
2 -957 -648 0
-746 805 -17 0
-127 479 -945 0
-422 -320 628 0
832 561 293 0
-263 608 -101 0
98 -881 -883 0
32 -897 -627 0
606 582 213 0
930 484 -438 0
182 657 778 0
514 -39 -396 0
599 -505 213 0
391 -578 -978 0
-988 130 212 0
-621 75 391 0
879 -112 767 0
-699 719 -582 0
-279 -786 571 0
737 -925 15 0
914 229 -581 0
586 302 -381 0
-157 -772 -904 0
335 -863 166 0
-87 -157 1 0
729 651 763 0
436 287 105 0
-340 -162 91 0
573 -305 -173 0
-875 -612 101 0
-720 260 55 0
-166 627 -443 0
267 -711 -299 0
791 -786 -566 0
253 295 398 0
-96 -210 166 0
506 338 -559 0
914 287 973 0
842 609 433 0
-832 604 -636 0
-66 792 337 0
-71 -219 175 0
154 -189 -579 0
-298 -640 -217 0
-60 -929 462 0
-573 905 856 0
60 -670 793 0
465 946 731 0
-620 243 443 0
-265 626 939 0
-783 911 -171 0
51 -824 984 0
488 -112 -820 0
-841 338 584 0
89 -469 708 0
886 563 976 0
-635 213 -972 0
-391 720 -116 0
602 818 -572 0
-988 -762 815 0
-792 -148 917 0
-237 -831 -947 0
-819 448 -815 0
708 -456 118 0
420 768 805 0
234 578 -618 0
-30 715 503 0
340 683 -705 0
222 -243 911 0
756 335 751 0
-106 772 -944 0
434 220 484 0
338 -270 -327 0
770 -993 686 0
839 549 -498 0
789 933 -853 0
-683 -774 438 0
329 -991 -15 0
-999 682 810 0
-804 518 790 0
-111 -891 748 0
-47 967 -708 0
553 -26 -851 0
463 -694 532 0
-377 -502 891 0
-971 396 976 0
477 -642 494 0
319 241 316 0
993 -920 -756 0
-872 155 -643 0
-924 -681 -244 0
-945 -38 -135 0
-140 515 334 0
38 -931 -611 0
878 -933 -335 0
2 -396 897 0
-603 -900 -415 0
-693 -226 -895 0
732 -525 -393 0
-749 -577 921 0
-612 -548 405 0
-363 646 -614 0
664 813 311 0
-40 164 -315 0
89 -821 406 0
-527 899 371 0
-930 163 41 0
-397 391 855 0
-220 759 475 0
853 -411 -949 0
812 902 -692 0
-626 812 782 0
-651 -729 224 0
252 748 508 0
540 562 865 0
-371 875 262 0
-581 -220 420 0
84 707 -578 0
134 895 156 0
-960 128 -108 0
-89 -646 -73 0
-103 -867 -826 0
684 -315 -396 0
10 -805 902 0
-352 -944 -634 0
234 -399 852 0
-374 726 822 0
-806 172 -473 0
-22 -65 188 0
-285 -27 917 0
-225 -771 157 0
-840 -132 773 0
-235 365 -978 0
779 -379 971 0
-318 205 727 0
-92 560 916 0
220 762 938 0
860 307 -133 0
-100 -35 -740 0
-282 -575 -661 0
485 -952 1000 0
860 598 235 0
174 963 496 0
-446 629 59 0
943 -992 -320 0
878 -125 911 0
-407 -681 370 0
-83 -683 -896 0
-727 6 342 0
-601 12 -555 0
802 178 -592 0
-575 -4 798 0
116 -123 440 0
458 200 889 0
213 527 -158 0
-59 -258 283 0
-822 462 460 0
-277 108 388 0
735 -552 -196 0
240 -897 81 0
402 131 740 0
970 -373 26 0
470 343 -925 0
782 -887 674 0
-509 251 -545 0
-636 505 -649 0
356 -84 563 0
-43 211 910 0
-182 -23 757 0
-548 -992 -615 0
46 -382 187 0
456 -767 -828 0
-371 -933 392 0
-721 -793 154 0
845 15 -319 0
221 174 186 0
-933 53 494 0
-286 605 -730 0
454 -971 -531 0
-749 340 -468 0
-254 -164 -960 0
705 -308 244 0
340 882 -295 0
822 229 -81 0
471 461 940 0
771 -855 -818 0
34 -447 741 0
573 -414 896 0
205 754 -392 0
-410 -116 273 0
28 244 -790 0
-852 521 -419 0
749 -833 -733 0
-588 497 476 0
-121 736 903 0
-685 -760 810 0
-943 -982 535 0
350 -240 -147 0
511 374 119 0
-376 402 -879 0
-665 254 -674 0
504 374 47 0
910 -713 1 0
313 783 544 0
-341 -520 871 0
-341 239 480 0
516 -832 155 0
-379 925 -274 0
-698 -592 -926 0
358 -914 844 0
-584 -701 -272 0
-413 485 128 0
-154 -887 -678 0
488 912 214 0
-182 555 -906 0
446 578 -592 0
878 922 -708 0
634 527 -512 0
-580 267 894 0
-389 276 582 0
-585 -123 -746 0
688 -19 -93 0
988 856 -871 0
188 126 -460 0
-428 -727 196 0
282 -618 70 0
32 976 -972 0
-360 -380 -471 0
66 939 252 0
660 -501 -332 0
-664 204 928 0
919 -462 668 0
-74 -151 -927 0
316 -294 -125 0
-489 -318 -643 0
-271 -363 308 0
98 -305 900 0
-919 883 -945 0
130 -644 707 0
90 -846 -682 0
47 281 -848 0
361 -769 -286 0
966 788 371 0
533 308 138 0
937 808 -554 0
-822 323 51 0
127 -883 -672 0
761 -641 942 0
711 70 -765 0
771 631 503 0
-202 656 -479 0
-113 196 283 0
-316 652 -821 0
-514 705 -748 0
-881 -958 817 0
103 753 -717 0
980 -796 389 0
876 -707 531 0
491 825 -951 0
-302 245 -405 0
253 620 21 0
632 207 571 0
-274 951 394 0
764 -534 80 0
-279 -207 993 0
-483 -438 -313 0
777 971 -231 0
437 -112 513 0
646 179 -405 0
-404 -416 402 0
-118 -189 584 0
401 528 368 0
-140 929 123 0
-68 419 -509 0
224 813 -377 0
340 803 109 0
-183 -714 -143 0
615 787 514 0
-223 -328 -190 0
935 294 224 0
-968 817 -740 0
-401 949 -824 0
329 -805 731 0
875 -814 -247 0
-60 -519 -699 0
43 86 5 0
-858 812 -357 0
-614 482 -834 0
-761 -662 105 0
844 -614 132 0
-550 317 298 0
693 -485 182 0
-186 754 92 0
-946 -690 546 0
482 713 -449 0
-611 -427 -580 0
-811 -217 -760 0
28 -249 -372 0
384 -730 -676 0
439 -77 384 0
-630 -547 906 0
786 -432 641 0
-508 770 304 0
-791 -725 423 0
-646 377 96 0
991 165 -832 0
-981 447 382 0
-886 -928 -419 0
55 801 28 0
-671 683 -280 0
122 -463 -940 0
-235 117 -312 0
331 269 381 0
818 992 936 0
585 -425 947 0
-840 -302 -967 0
200 608 23 0
388 -516 -358 0
-517 40 88 0
315 892 -432 0
-815 -402 558 0
262 389 -496 0
-1 -240 232 0
939 -251 -942 0
826 714 239 0
-264 900 -949 0
-234 799 -791 0
-998 -250 -927 0
258 714 711 0
-335 495 -719 0
-938 -974 902 0
-798 183 -533 0
-241 402 -510 0
31 390 -138 0
-539 206 -738 0
-209 -633 329 0
954 308 470 0
-9 538 -842 0
-819 -925 570 0
-77 -183 606 0
-301 -822 319 0
706 576 194 0
823 -872 155 0
442 88 97 0
-693 -274 -66 0
105 270 -990 0
412 952 29 0
-988 385 -478 0
-349 833 711 0
650 772 -624 0
-49 -85 -793 0
-919 -997 -70 0
181 398 -923 0
435 -292 456 0
634 -464 -97 0
-159 -555 -436 0
-427 923 -809 0
-928 125 311 0
-602 72 5 0
222 591 156 0
-655 -504 -594 0
832 -447 270 0
452 -196 -367 0
268 -878 166 0
292 492 953 0
459 392 -591 0
-809 -333 -432 0
715 -359 -42 0
925 -902 442 0
-519 -244 728 0
226 633 -248 0
303 307 740 0
-524 -183 429 0
877 -590 -627 0
263 -256 546 0
716 510 375 0
-542 -576 -751 0
-148 -635 -210 0
198 -685 -746 0
701 920 -27 0
-541 325 -354 0
50 -562 686 0
-132 516 -567 0
204 721 -515 0
-601 -947 692 0
-987 -446 -278 0
148 -270 -761 0
72 -246 943 0
-386 -105 564 0
127 737 971 0
300 -262 683 0
-537 777 -64 0
329 -358 -155 0
516 -454 -288 0
-642 -984 -473 0
986 498 210 0
-954 190 -846 0
-875 -497 -518 0
692 489 766 0
-115 121 -889 0
450 335 992 0
927 143 -59 0
-513 -936 -158 0
-187 158 469 0
479 -56 264 0
-987 9 844 0
-315 -126 153 0
718 665 -808 0
966 981 -842 0
-481 791 -945 0
770 554 -713 0
-694 621 -21 0
-110 381 533 0
-239 -915 958 0
-611 124 552 0
76 905 864 0
926 -736 -441 0
-413 -91 -103 0
734 -943 778 0
-682 747 -187 0
-722 508 730 0
956 -496 -1 0
-411 -692 504 0
42 -330 -588 0
-584 -547 749 0
-528 12 -460 0
85 55 94 0
53 595 986 0
-363 -279 -559 0
-211 252 -41 0
-954 862 -634 0
-5 -28 -967 0
-192 721 361 0
392 -692 733 0
-247 -733 -180 0
-114 -353 283 0
976 -730 -254 0
804 886 -737 0
26 -618 275 0
494 35 -79 0
-281 700 668 0
-924 -211 164 0
471 -97 734 0
-174 367 -989 0
-989 -552 -747 0
-433 949 122 0
-980 443 -249 0
266 196 905 0
867 564 -85 0
614 -60 938 0
108 959 -282 0
-855 -305 -832 0
-215 -247 -702 0
131 -822 993 0
848 340 365 0
-879 -265 814 0
-417 -821 457 0
-844 -226 -894 0
806 -666 -380 0
-506 -706 748 0
-700 -95 142 0
-524 -812 449 0
-575 100 975 0
699 -284 -222 0
473 -176 -752 0
475 693 108 0
65 -1 -41 0
-312 -449 -841 0
-515 -413 549 0
-962 -291 480 0
-657 768 -579 0
-481 813 141 0
-940 -869 -758 0
710 -480 954 0
-377 -866 -190 0
447 -839 952 0
-153 244 -442 0
272 787 345 0
101 636 -242 0
-357 -393 442 0
783 -895 -407 0
-33 -720 -808 0
-599 806 -569 0
-694 240 439 0
-672 633 -584 0
-354 341 -167 0
-507 -686 485 0
-878 344 -270 0
475 660 404 0
707 274 -560 0
764 750 137 0
452 -933 990 0
-910 -320 544 0
-262 -445 16 0
-759 44 47 0
-66 712 -530 0
110 -135 -361 0
269 -621 -214 0
-632 -996 710 0
723 491 -96 0
-502 -782 54 0
791 584 -416 0
-725 -535 -637 0
3 -343 96 0
-807 551 936 0
281 -121 918 0
-692 -9 -599 0
329 66 956 0
-360 445 -118 0
-788 -832 385 0
661 -415 872 0
-952 433 -62 0
-931 444 -328 0
304 28 799 0
-964 163 178 0
233 428 -150 0
-583 906 -833 0
-538 -275 -48 0
-460 962 -69 0
-207 394 478 0
-201 651 -440 0
377 735 316 0
103 -407 -793 0
226 48 388 0
372 -331 -350 0
613 352 699 0
-716 942 -129 0
-598 136 736 0
479 272 -384 0
-27 -858 440 0
28 913 -920 0
472 585 676 0
-568 723 -221 0
544 -937 -736 0
-225 -534 -872 0
-685 409 376 0
-294 -78 390 0
-108 -889 -137 0
859 -980 -312 0
181 463 644 0
-642 -285 -989 0
-508 666 -921 0
-182 988 -202 0
613 -907 384 0
-377 -164 644 0
154 -417 729 0
579 -393 657 0
155 -649 -638 0
-870 -332 -50 0
520 934 -888 0
629 302 29 0
169 -597 717 0
-544 -80 457 0
-335 -541 -78 0
903 -87 404 0
366 233 201 0
-218 725 -927 0
326 527 664 0
-190 808 -915 0
-386 814 -238 0
-471 680 854 0
-26 382 598 0
868 541 510 0
841 392 374 0
-282 749 -348 0
-662 539 -207 0
394 826 -772 0
-439 -846 -645 0
589 736 771 0
166 559 -244 0
-904 -484 -874 0
-189 -202 -395 0
-617 -841 -287 0
-165 -352 941 0
385 851 -683 0
769 -705 -520 0
225 134 -257 0
-908 491 -83 0
477 -353 -633 0
-20 764 -733 0
-251 -651 -474 0
-592 126 24 0
-180 -394 804 0
-827 -396 360 0
820 -289 846 0
-111 -143 -602 0
-10 926 31 0
-373 -570 -863 0
-744 -996 -243 0
-644 438 882 0
-580 791 -378 0
809 -74 -923 0
-845 653 -117 0
53 982 -457 0
895 677 767 0
-672 861 767 0
-697 -203 347 0
947 32 -999 0
-767 279 512 0
901 -390 283 0
947 552 -241 0
417 674 883 0
952 -896 612 0
931 581 -810 0
404 305 43 0
