p cnf 1000 4250
234 -715 -936 0
-204 -336 670 0
-529 480 -299 0
983 108 -197 0
-58 950 568 0
767 490 -878 0
651 258 958 0
964 911 885 0
-981 907 -176 0
67 -374 -46 0
-700 -68 181 0
-562 519 657 0
-116 51 158 0
-606 -404 523 0
902 -995 -49 0
464 909 -642 0
521 685 -234 0
417 758 -390 0
858 717 -990 0
-197 947 -485 0
-356 915 -241 0
795 647 903 0
853 125 -810 0
357 588 958 0
-586 -296 -171 0
-905 618 -823 0
411 -341 972 0
-955 489 986 0
-126 -335 951 0
411 -156 -180 0
226 997 -112 0
-347 516 495 0
952 118 831 0
-181 -224 714 0
223 -777 -273 0
-185 -450 758 0
850 -263 -604 0
-616 -506 -946 0
230 -90 601 0
-427 378 -889 0
762 324 621 0
-711 249 -880 0
-925 -427 853 0
-767 -31 -303 0
-337 388 -797 0
-176 574 518 0
297 568 -193 0
-414 -517 -218 0
-451 220 -570 0
-430 885 725 0
-659 -181 -296 0
97 -255 -971 0
654 -519 601 0
-143 -903 464 0
21 -723 528 0
-88 968 824 0
925 -767 -277 0
-282 -984 441 0
828 -850 854 0
22 -554 361 0
252 -60 963 0
-445 506 -157 0
388 -739 473 0
490 746 -177 0
526 -736 -765 0
-204 -911 -134 0
-762 -780 -819 0
-80 -901 824 0
-260 673 303 0
634 411 305 0
-478 719 -96 0
-256 -305 560 0
10 550 186 0
-228 -322 967 0
161 36 -173 0
12 -626 -290 0
-28 -79 -606 0
48 417 -939 0
706 -449 743 0
677 577 -243 0
896 -421 451 0
-776 -540 -329 0
-730 535 -87 0
-621 95 404 0
-222 -531 769 0
694 -957 -228 0
721 117 -746 0
-463 -928 470 0
-24 -489 -257 0
-258 -396 -790 0
-708 466 14 0
-521 -546 -728 0
513 212 2 0
73 -302 903 0
-712 99 779 0
-890 502 -320 0
-213 -165 -212 0
-593 557 -472 0
65 59 660 0
-650 -204 815 0
-102 -95 -224 0
633 -863 26 0
951 818 613 0
364 -70 277 0
-158 503 -617 0
153 -81 -676 0
815 -932 934 0
315 -574 -971 0
-13 902 -309 0
-994 482 623 0
-486 -780 -546 0
68 -471 172 0
-395 817 535 0
-546 871 -519 0
219 699 225 0
-962 -656 198 0
-727 687 301 0
721 -387 -390 0
-27 -217 -815 0
-874 -173 917 0
-11 -216 -682 0
113 110 576 0
268 -489 -532 0
-560 -25 391 0
746 -530 -348 0
921 291 -135 0
-135 66 875 0
760 -397 527 0
-950 -867 -271 0
-190 -604 310 0
-377 986 139 0
-263 -561 473 0
1 524 514 0
491 -246 -901 0
578 -362 -533 0
581 -506 -944 0
307 866 -789 0
108 -975 -950 0
365 186 217 0
-845 -289 735 0
310 -421 -671 0
762 170 852 0
146 504 -243 0
879 -345 652 0
-443 -544 274 0
-941 171 239 0
-186 -518 917 0
427 224 -586 0
270 -179 569 0
838 708 -597 0
-882 312 -653 0
198 -112 -815 0
275 662 -410 0
-593 344 -92 0
784 -213 734 0
-428 471 -121 0
-495 -469 219 0
-758 -300 299 0
932 -490 -700 0
197 -495 458 0
-195 -77 84 0
755 -939 648 0
-411 -650 -632 0
968 -111 179 0
-495 847 950 0
296 -236 -875 0
70 3 880 0
5 -501 -327 0
940 117 -856 0
-36 -386 -530 0
614 -24 -368 0
974 76 250 0
-393 145 640 0
78 373 574 0
452 141 607 0
676 366 428 0
205 -651 -140 0
-298 385 239 0
113 270 617 0
-613 999 910 0
381 -511 893 0
630 246 143 0
-403 957 985 0
-598 23 217 0
-866 -674 669 0
-922 337 489 0
-690 -193 -323 0
539 247 88 0
-820 676 724 0
-931 611 -878 0
236 -243 951 0
237 908 -377 0
-823 312 -395 0
255 -923 706 0
-444 -746 -436 0
-781 -242 -414 0
801 175 -566 0
890 901 180 0
387 495 477 0
210 -689 672 0
-422 -814 -928 0
800 -943 -896 0
996 -602 129 0
826 473 -214 0
758 -796 164 0
-290 252 194 0
681 219 589 0
-149 -625 732 0
-384 -294 -718 0
976 -504 -493 0
-401 629 -863 0
755 -435 -230 0
-313 -138 228 0
287 -308 395 0
-431 816 699 0
-856 269 425 0
-129 -476 608 0
301 587 737 0
-371 127 123 0
326 -781 459 0
-594 -337 988 0
-476 712 -896 0
-729 -269 -424 0
846 172 207 0
812 -666 -336 0
77 622 824 0
-534 52 -313 0
760 236 -420 0
640 209 71 0
-267 671 423 0
837 -54 -467 0
-952 -346 180 0
308 -991 -129 0
320 168 -229 0
-125 420 -449 0
27 -125 270 0
-686 195 -329 0
756 135 -890 0
795 -919 -991 0
932 350 494 0
964 343 245 0
-115 741 982 0
942 -715 251 0
719 -220 487 0
995 -269 -471 0
684 37 180 0
-452 -847 -618 0
-127 -817 640 0
349 -805 236 0
938 -939 -283 0
232 591 -734 0
739 53 -86 0
248 -338 276 0
-24 536 -426 0
534 -652 -867 0
-584 -953 65 0
-870 244 537 0
964 -764 55 0
300 -434 311 0
165 730 316 0
381 788 -483 0
576 -774 355 0
-128 -968 227 0
11 -875 -984 0
-705 -203 -609 0
200 -287 247 0
670 -423 -154 0
879 882 894 0
579 -944 -357 0
-268 727 -183 0
920 469 -640 0
-185 375 642 0
-582 482 -964 0
5 -702 -468 0
892 -55 -696 0
-786 -207 -771 0
-663 716 -315 0
-264 -335 -496 0
-708 -663 -39 0
-153 -577 -632 0
172 535 315 0
147 941 478 0
292 -190 797 0
-318 247 338 0
719 986 772 0
49 62 -813 0
304 -314 -129 0
-881 -970 225 0
244 707 -386 0
543 -587 894 0
136 736 -91 0
-48 548 871 0
344 -257 -396 0
293 -647 -66 0
-727 -98 -206 0
403 88 -897 0
-869 -564 -29 0
536 522 -930 0
493 212 -707 0
662 -265 651 0
622 484 -294 0
-8 -908 -289 0
962 -241 -930 0
528 721 -621 0
263 457 -959 0
375 276 -196 0
129 -753 246 0
-438 274 244 0
-776 932 109 0
337 -659 762 0
710 -940 -535 0
194 -497 -32 0
505 -536 767 0
251 622 -77 0
275 -638 302 0
-814 -446 -320 0
-961 882 320 0
-704 -389 664 0
-673 772 -477 0
46 -537 506 0
-145 146 397 0
274 303 17 0
52 771 -634 0
-265 85 -782 0
834 619 910 0
-883 367 -347 0
862 -690 -638 0
-245 -734 289 0
36 974 23 0
215 248 -347 0
576 -503 171 0
285 -535 932 0
-767 -547 -126 0
-40 728 463 0
-781 -159 808 0
527 -912 908 0
628 -784 -393 0
747 -604 -600 0
583 -906 94 0
898 -442 -666 0
-973 418 -723 0
-39 599 271 0
618 -515 63 0
-86 -79 234 0
126 -123 237 0
975 486 -2 0
-890 38 92 0
447 921 -529 0
690 -245 203 0
57 125 926 0
-253 553 -660 0
-908 -411 454 0
866 -1 12 0
790 -597 499 0
368 871 495 0
-513 177 -269 0
554 80 -223 0
627 -100 -126 0
-715 614 822 0
481 -753 200 0
-461 415 564 0
930 79 391 0
-276 -24 696 0
-113 538 -649 0
638 967 693 0
-896 383 -878 0
-43 378 -541 0
945 -720 570 0
-156 -493 -497 0
975 -799 -122 0
-992 -284 -973 0
410 754 680 0
951 -602 606 0
-621 85 -286 0
760 -996 -653 0
478 -202 459 0
794 389 100 0
520 -709 619 0
746 -379 -559 0
127 -482 -855 0
848 -527 -857 0
69 -887 47 0
201 -741 278 0
-240 963 819 0
148 -455 -985 0
-798 -876 -480 0
236 149 -953 0
-105 -392 -110 0
865 815 -523 0
385 -34 921 0
-736 -368 -354 0
-980 903 -191 0
648 274 -601 0
-973 -853 142 0
872 -869 -211 0
983 -83 732 0
631 -178 -56 0
-761 477 -729 0
-495 439 547 0
42 -385 450 0
201 944 -859 0
662 -988 -384 0
-547 -173 940 0
887 -928 -760 0
-268 413 600 0
856 157 213 0
-608 -875 526 0
101 -584 624 0
707 -610 673 0
-709 497 -915 0
-404 462 -395 0
7 -456 391 0
-471 -661 -133 0
619 44 -895 0
-633 -265 -455 0
-863 42 -821 0
-534 651 -950 0
-261 761 -961 0
-478 600 -475 0
151 938 -181 0
382 -11 86 0
936 -224 263 0
-803 268 -483 0
460 45 447 0
-480 -212 -944 0
-238 -871 496 0
-714 764 -245 0
-134 48 -28 0
764 -283 -575 0
-250 -283 211 0
-304 -601 85 0
-539 -169 -927 0
25 -768 24 0
602 255 885 0
-626 -507 -583 0
161 -938 962 0
-583 -735 -53 0
426 407 -143 0
-418 -600 869 0
-38 50 614 0
-311 -305 306 0
783 -229 156 0
724 -474 -34 0
574 121 87 0
919 -540 -543 0
250 -716 -431 0
634 126 -518 0
-173 69 -945 0
-886 -871 -597 0
-74 -622 -513 0
-707 119 871 0
94 -759 -874 0
-220 -90 76 0
945 155 210 0
238 740 621 0
-350 -547 -99 0
389 641 750 0
179 -402 -467 0
633 -429 427 0
-116 -101 117 0
998 -90 -66 0
-50 -207 -137 0
413 784 259 0
-712 601 -507 0
-312 -84 -809 0
153 -193 -442 0
-652 -356 -458 0
766 308 513 0
-985 -915 -972 0
-337 -512 -907 0
865 -727 -406 0
107 436 -10 0
479 -11 523 0
370 -4 -917 0
269 -721 -860 0
772 727 -879 0
616 -68 -654 0
-350 -188 -357 0
650 -994 896 0
-302 -76 904 0
-288 320 -718 0
-266 149 -520 0
-174 120 -362 0
-898 -980 210 0
-438 748 203 0
498 -106 253 0
-261 692 941 0
-273 169 -461 0
754 -423 -495 0
67 -868 -581 0
-912 636 -867 0
474 -992 651 0
-653 553 -666 0
29 915 -42 0
436 558 675 0
208 691 -936 0
-830 -361 -341 0
974 295 476 0
527 -652 549 0
-845 -423 310 0
148 -525 -324 0
479 -515 -310 0
983 -545 963 0
25 -775 757 0
594 -211 406 0
399 737 -172 0
964 -130 -780 0
9 674 868 0
840 39 863 0
-618 335 -979 0
-791 553 1000 0
-701 -169 913 0
717 -262 -590 0
-87 23 -822 0
-495 432 27 0
369 393 193 0
76 503 -580 0
741 161 560 0
30 -519 886 0
-564 -480 -892 0
369 431 -249 0
-187 793 749 0
821 -533 26 0
-758 192 967 0
401 -714 -1 0
-83 -643 548 0
584 -244 -133 0
364 -342 -453 0
203 980 801 0
161 812 -170 0
717 -313 574 0
748 -110 409 0
292 216 -418 0
-145 451 981 0
931 280 -205 0
332 -643 159 0
-39 -462 -427 0
954 479 -486 0
-700 -201 -626 0
263 977 -752 0
353 992 966 0
691 -135 512 0
541 -732 367 0
-489 12 52 0
-694 777 284 0
-995 425 -604 0
455 -50 644 0
-880 271 672 0
766 -559 849 0
-553 -404 74 0
-278 -135 276 0
-874 -239 768 0
979 848 609 0
946 82 58 0
-519 61 986 0
713 79 652 0
645 655 -275 0
389 902 561 0
-615 882 492 0
408 469 479 0
-218 -849 614 0
919 176 972 0
723 429 459 0
987 855 924 0
-549 -737 102 0
-64 267 960 0
62 -982 640 0
-953 952 -368 0
-327 666 -583 0
-450 -414 527 0
660 9 -708 0
456 371 -154 0
-545 -444 -843 0
-786 -766 -418 0
-432 -504 -745 0
659 931 443 0
-113 312 -811 0
704 -392 637 0
74 422 -715 0
39 216 802 0
496 446 286 0
-260 318 -825 0
-860 -270 -283 0
299 238 603 0
521 777 35 0
-495 -153 -73 0
-396 427 -51 0
-934 -3 333 0
836 -412 -229 0
-744 993 -420 0
715 149 -414 0
-472 229 8 0
-934 -666 405 0
167 855 -451 0
-98 -190 -868 0
-224 551 211 0
-864 126 -949 0
-225 -621 -979 0
394 580 507 0
145 913 -280 0
123 282 951 0
714 504 774 0
-581 667 497 0
-984 -291 -343 0
-431 322 -680 0
659 99 -884 0
70 379 -819 0
467 -717 -880 0
805 -838 125 0
386 -225 80 0
650 -253 756 0
809 510 14 0
880 -303 411 0
94 491 -199 0
466 299 63 0
181 554 457 0
-54 209 -559 0
-201 -475 315 0
424 -688 658 0
344 -569 -624 0
227 104 -487 0
-600 -740 491 0
-990 483 570 0
759 -842 -53 0
-5 -111 -104 0
-495 -251 225 0
893 517 196 0
-354 645 360 0
-970 985 -251 0
129 421 -626 0
-922 357 70 0
-387 -132 -622 0
261 -331 -146 0
785 -456 -343 0
-107 196 455 0
38 -584 387 0
-282 -620 784 0
425 677 -862 0
604 948 -33 0
582 -81 -78 0
-525 61 -811 0
-45 -238 -341 0
-16 994 -850 0
267 564 453 0
804 772 678 0
-402 88 127 0
-970 -526 847 0
-115 -51 705 0
-360 681 -473 0
372 681 -468 0
259 943 981 0
-780 -164 -36 0
-275 9 26 0
-877 -419 -340 0
-324 -527 537 0
563 -972 -620 0
594 -819 32 0
-256 279 68 0
801 -835 -497 0
669 -941 840 0
85 772 858 0
-805 -793 133 0
52 537 -224 0
-441 69 -320 0
705 882 940 0
918 472 -917 0
67 -452 552 0
127 -771 975 0
758 -216 -960 0
-478 765 496 0
188 228 -798 0
922 -703 -877 0
801 80 104 0
-589 778 -780 0
-812 -109 973 0
-603 -949 191 0
-389 58 -182 0
-810 -413 -586 0
852 876 118 0
-898 161 285 0
343 -541 -369 0
-257 -155 89 0
986 -715 219 0
-947 -380 -844 0
-335 372 -677 0
-750 -350 -44 0
390 906 341 0
-583 -541 761 0
149 -689 -832 0
894 -743 -677 0
-474 -72 731 0
-50 256 616 0
-23 723 905 0
-90 119 305 0
647 -1000 -458 0
-839 -596 -283 0
-526 -227 -43 0
231 382 -584 0
-944 81 110 0
130 -555 -387 0
-247 -778 -922 0
-540 824 -746 0
-918 -233 -372 0
-938 -744 712 0
-758 794 -283 0
-447 -360 -130 0
-790 -114 101 0
-963 -634 -530 0
-91 222 -899 0
270 -80 -349 0
285 -442 -297 0
157 805 709 0
-92 -892 -190 0
572 -258 990 0
347 -450 -620 0
958 -500 -815 0
-724 481 -436 0
182 -790 792 0
-385 121 -628 0
663 -292 -881 0
-335 -604 566 0
73 -540 -983 0
65 -616 340 0
-213 -591 -202 0
246 -14 -99 0
559 -706 -961 0
-819 -421 -812 0
-558 83 -97 0
-488 252 -104 0
615 -148 81 0
930 715 514 0
248 718 -929 0
14 -764 650 0
-159 517 -886 0
555 -904 -565 0
-730 -143 -903 0
-715 300 -466 0
-223 561 848 0
-551 637 -706 0
592 789 -738 0
-252 -93 457 0
750 -561 -765 0
335 88 312 0
451 -134 -556 0
-546 -433 123 0
-159 -97 591 0
-106 -975 -364 0
-417 -933 726 0
-132 677 803 0
913 5 193 0
-614 -485 989 0
-557 525 372 0
-278 167 -59 0
-811 -244 -184 0
-190 -934 -454 0
679 441 486 0
-401 -497 -256 0
-767 22 45 0
577 224 675 0
87 240 -592 0
872 623 -19 0
-907 330 -183 0
993 515 -55 0
90 237 918 0
-414 -217 356 0
440 -182 186 0
674 -427 -325 0
-868 694 -356 0
111 -15 389 0
330 755 82 0
-176 88 -749 0
24 -664 -498 0
-145 89 -877 0
76 -773 238 0
726 -883 -142 0
-133 -722 -533 0
71 410 483 0
-58 714 -446 0
-363 -712 985 0
748 -626 114 0
-975 -109 506 0
-641 978 379 0
61 -465 948 0
-230 912 507 0
698 583 874 0
993 -976 119 0
191 616 -417 0
557 -539 447 0
118 -358 802 0
-958 -67 -198 0
823 53 -501 0
-214 -490 555 0
-552 704 449 0
-573 524 -872 0
340 -255 660 0
-781 -138 -670 0
727 187 -466 0
56 -389 427 0
-55 17 835 0
-632 861 390 0
-96 -9 -227 0
-359 -5 502 0
809 467 -785 0
-761 -796 -130 0
734 312 -612 0
-291 -16 840 0
-276 -249 179 0
315 -695 -258 0
-79 155 -613 0
958 -999 161 0
-330 -416 -726 0
217 -631 483 0
-77 943 -451 0
-830 -366 -601 0
-734 707 861 0
882 -691 -844 0
720 -775 -532 0
118 -771 -41 0
-886 47 773 0
-820 -3 -592 0
-272 -466 928 0
-872 -79 426 0
-910 -604 566 0
-204 -659 408 0
-742 279 901 0
-664 -815 948 0
659 -294 -742 0
484 -829 -820 0
-531 -729 -709 0
-532 -863 -139 0
-392 611 -646 0
-101 730 -853 0
28 197 -919 0
-511 647 308 0
789 844 -926 0
-568 -872 -786 0
-468 -143 67 0
-304 -249 482 0
51 776 71 0
971 201 -527 0
280 758 -339 0
330 135 -373 0
831 -550 270 0
630 -857 -193 0
-818 -309 719 0
-467 16 862 0
-451 -591 888 0
383 -327 -832 0
-60 -45 -190 0
413 492 -611 0
-798 -512 272 0
-589 872 994 0
-795 400 -467 0
973 -813 -475 0
-913 976 524 0
294 -123 683 0
-302 23 -973 0
198 -664 707 0
636 -122 -206 0
-312 878 147 0
-190 -74 620 0
126 -581 919 0
302 -222 346 0
-527 837 666 0
259 105 808 0
-17 -932 272 0
554 449 26 0
995 107 262 0
-89 707 -532 0
-820 -397 -285 0
-199 577 667 0
985 -273 693 0
8 -927 546 0
-288 279 250 0
-825 118 483 0
-78 -251 -231 0
-389 938 571 0
932 228 -467 0
-253 625 140 0
38 12 -302 0
765 -777 234 0
-814 414 200 0
587 255 551 0
-388 502 -663 0
650 808 -916 0
-304 -185 531 0
-836 -204 -919 0
-670 883 685 0
-998 107 771 0
381 166 -585 0
-212 424 -809 0
726 790 254 0
-206 554 991 0
479 418 -585 0
622 848 822 0
541 -319 273 0
833 -508 51 0
484 312 979 0
-988 -908 -72 0
-651 656 615 0
-906 711 -306 0
-303 -884 554 0
-21 37 995 0
451 926 -335 0
-804 697 -574 0
-452 837 231 0
-707 -465 -755 0
-103 -578 574 0
-244 718 -428 0
611 -486 205 0
-215 -627 -643 0
895 -915 -934 0
880 -270 161 0
-589 388 -527 0
875 -819 434 0
-589 343 -817 0
-259 210 107 0
-380 -464 657 0
300 620 596 0
-364 -835 -33 0
-340 -192 -438 0
-496 -826 714 0
-749 -904 510 0
-431 -438 -29 0
-511 802 599 0
-550 946 -427 0
-666 -668 622 0
633 -693 -107 0
797 -95 795 0
938 887 -463 0
-659 412 663 0
-661 654 -56 0
-509 422 409 0
-672 478 -566 0
340 -602 -625 0
-760 -363 -236 0
-350 -717 573 0
-219 924 -892 0
-420 286 -856 0
-735 -296 -550 0
-315 -248 245 0
-33 642 939 0
-848 976 -258 0
-294 584 630 0
693 -164 181 0
285 123 145 0
495 -136 -801 0
-99 819 401 0
495 78 564 0
-153 318 922 0
511 248 -202 0
907 -971 -40 0
-823 71 639 0
219 601 914 0
-733 -493 402 0
421 166 -349 0
137 285 19 0
-268 -502 122 0
94 878 -272 0
746 -547 802 0
64 953 519 0
-226 -444 -279 0
620 63 -412 0
-467 482 185 0
595 -419 -861 0
66 -647 -12 0
-776 -53 831 0
353 619 -440 0
169 -658 -897 0
-300 208 967 0
685 170 -942 0
-993 -120 -612 0
-53 -446 3 0
-391 977 494 0
-621 659 625 0
-590 661 788 0
280 -842 -227 0
283 -702 -968 0
-594 -634 -973 0
385 -193 140 0
732 162 -376 0
758 695 881 0
663 773 -486 0
-426 -750 521 0
-907 768 38 0
-970 -963 -831 0
-128 22 757 0
603 148 -903 0
515 529 111 0
-17 -765 671 0
-489 386 -629 0
-341 311 -935 0
385 988 56 0
-156 -785 -421 0
-130 -925 -361 0
-629 -646 -264 0
301 456 546 0
739 757 920 0
954 -38 -174 0
-869 -219 -148 0
-646 527 797 0
-554 -358 313 0
813 648 -105 0
-757 -743 710 0
-787 415 -812 0
120 -733 -874 0
-544 -983 239 0
-949 361 -157 0
-313 -272 618 0
-15 278 -163 0
-484 -947 -414 0
140 412 -713 0
204 -386 -766 0
112 -457 -404 0
-730 -647 -848 0
-465 741 -626 0
-87 -970 -315 0
268 -668 500 0
-144 -709 910 0
908 680 -256 0
-391 -804 386 0
425 198 70 0
-41 401 270 0
602 -962 -23 0
-997 298 -460 0
295 765 629 0
216 -283 -639 0
-153 -267 215 0
-725 -374 796 0
467 406 91 0
307 -534 136 0
-46 -548 -673 0
-413 242 769 0
617 -263 407 0
-534 -720 547 0
935 89 64 0
702 -166 656 0
103 -791 958 0
-384 -7 -14 0
-740 906 183 0
-717 -275 -329 0
-388 -961 -200 0
-866 -78 693 0
489 -823 558 0
978 482 -485 0
-446 -941 112 0
-94 390 -124 0
581 383 442 0
-689 935 561 0
835 451 46 0
475 -997 -148 0
-687 119 720 0
974 -923 -75 0
-151 -767 -491 0
367 -421 626 0
-998 -699 68 0
-623 551 -101 0
-313 -912 -977 0
-329 171 -632 0
236 -583 -255 0
-346 701 182 0
-730 192 -803 0
693 785 -532 0
-732 -809 822 0
672 -361 233 0
-764 481 -826 0
924 -291 298 0
597 288 581 0
499 111 -301 0
580 -84 134 0
-121 29 342 0
793 -674 -766 0
-475 149 168 0
45 33 314 0
-611 529 959 0
311 -444 923 0
261 -421 265 0
358 410 -580 0
570 -917 -665 0
837 228 -972 0
-902 990 660 0
-985 8 17 0
-123 972 -856 0
-22 -123 -856 0
273 670 942 0
-882 -171 -940 0
-237 -826 529 0
-94 -11 837 0
314 918 -433 0
-686 -809 -296 0
-480 -456 894 0
581 398 -685 0
635 -77 -210 0
-230 701 -942 0
444 410 -930 0
11 815 208 0
-214 189 705 0
-496 970 -57 0
978 587 571 0
-809 666 -465 0
441 537 -287 0
-570 -279 609 0
552 -978 -285 0
-100 -129 868 0
434 -477 213 0
391 -375 57 0
-597 114 -353 0
962 261 943 0
-818 -100 636 0
-953 -826 -315 0
-173 98 -924 0
3 635 -970 0
-536 -621 322 0
863 973 -551 0
754 1 -442 0
-302 855 375 0
-966 -206 980 0
314 18 -584 0
246 605 785 0
789 -767 334 0
601 -729 741 0
-15 351 85 0
-971 204 178 0
483 -926 -224 0
109 461 -387 0
-916 600 -996 0
910 -20 -119 0
1 48 -39 0
-521 463 -432 0
-754 454 -927 0
21 -463 -814 0
773 -374 829 0
817 622 114 0
-942 567 553 0
854 -540 -774 0
420 120 605 0
368 246 -880 0
44 136 735 0
-109 778 618 0
-672 19 -213 0
-853 225 -552 0
-211 -934 -328 0
-533 -720 -163 0
-310 -178 -868 0
423 -45 -192 0
219 974 -597 0
745 43 245 0
-715 3 -725 0
785 -954 457 0
864 418 -385 0
-796 90 -223 0
932 316 611 0
851 -853 112 0
-605 -592 -805 0
758 458 590 0
-99 -895 -990 0
-822 -383 104 0
-333 823 -659 0
817 368 -398 0
-46 -498 213 0
800 -586 -678 0
632 -24 -548 0
-258 -516 370 0
-80 538 -259 0
-262 -93 -689 0
-718 746 -591 0
766 640 -89 0
158 102 287 0
826 -109 309 0
-404 -286 -748 0
-668 -760 -429 0
-89 996 -701 0
-132 -848 -292 0
-21 732 98 0
512 427 -49 0
-133 594 -340 0
906 -976 348 0
461 -54 296 0
763 -14 217 0
101 681 11 0
-456 57 573 0
807 -249 -122 0
-80 891 98 0
-303 534 488 0
218 -801 -631 0
-345 -281 -324 0
-135 -84 -159 0
-687 314 -887 0
-489 -837 -989 0
-71 586 -854 0
-716 577 218 0
-559 175 22 0
780 -158 293 0
-854 778 -261 0
445 880 -235 0
786 195 611 0
-783 300 -969 0
325 -911 66 0
845 762 -989 0
71 -760 -72 0
-976 -293 439 0
434 -9 -854 0
-959 369 881 0
536 633 968 0
372 537 -716 0
-680 -127 177 0
814 -617 366 0
-271 389 -90 0
138 -110 317 0
472 606 -878 0
169 99 124 0
-998 -770 575 0
-25 626 342 0
724 928 119 0
143 247 446 0
16 -275 768 0
88 630 63 0
702 61 -742 0
327 242 748 0
279 -392 456 0
358 81 -629 0
-34 714 239 0
-735 -158 349 0
196 176 476 0
516 367 208 0
574 21 664 0
667 258 -675 0
82 39 670 0
-981 565 584 0
755 435 977 0
-725 -304 799 0
553 793 909 0
-4 -359 654 0
424 412 -568 0
258 473 656 0
152 -133 582 0
-56 107 -468 0
-819 -992 -125 0
582 930 -522 0
417 71 578 0
-371 -320 930 0
962 -417 484 0
109 -91 782 0
-888 250 653 0
-170 -554 -526 0
391 -677 394 0
294 -460 277 0
168 447 -824 0
-159 -190 -254 0
-362 722 940 0
-677 -35 -121 0
-929 409 -781 0
-304 189 -753 0
-295 593 -464 0
199 -585 -110 0
141 669 -524 0
-827 561 -86 0
186 -719 921 0
-965 -700 -177 0
-394 -856 -479 0
706 665 712 0
220 40 -437 0
-883 28 749 0
-823 744 76 0
730 -16 -850 0
121 30 -325 0
39 892 444 0
-115 -703 -623 0
-18 995 490 0
-343 -362 324 0
-580 422 865 0
-634 -84 236 0
-673 -357 -724 0
-399 -406 668 0
194 210 834 0
-959 -760 373 0
-101 349 707 0
-767 449 -273 0
521 -77 861 0
158 -987 662 0
186 337 473 0
-974 474 865 0
166 243 -729 0
154 -689 985 0
624 12 -136 0
156 -54 369 0
182 200 -659 0
674 95 948 0
419 -143 -764 0
909 -63 1000 0
744 884 482 0
-363 46 -334 0
-17 529 -833 0
-865 -410 -451 0
-599 -351 -246 0
-315 482 -843 0
-443 -899 411 0
-361 435 -470 0
586 -136 946 0
-302 -27 768 0
660 655 72 0
854 301 111 0
-920 838 -76 0
248 738 233 0
-919 131 419 0
-817 424 -117 0
-633 -446 263 0
-451 -866 778 0
942 -722 -897 0
428 290 -243 0
-316 877 353 0
-677 -430 875 0
-170 134 -406 0
-14 -85 -604 0
184 -801 48 0
-896 -284 66 0
-640 787 -5 0
963 47 7 0
-787 -382 143 0
292 -95 100 0
-77 306 473 0
-642 -828 174 0
-832 894 -898 0
537 -917 911 0
364 449 -205 0
-80 2 9 0
-438 67 -419 0
-314 736 -5 0
-633 216 907 0
-921 989 922 0
-669 867 -326 0
223 923 337 0
-684 699 262 0
659 -503 -672 0
-976 -191 -403 0
147 -119 -554 0
-148 579 519 0
-374 -99 -648 0
286 -255 -128 0
-198 -847 -961 0
-817 943 -263 0
539 527 -800 0
700 780 942 0
-775 831 -189 0
-758 -376 -174 0
-955 671 -574 0
648 -373 -199 0
-343 -677 -691 0
-73 83 -545 0
798 274 750 0
-488 957 -920 0
-556 891 -675 0
-964 -326 41 0
240 -594 565 0
752 327 47 0
871 -344 825 0
55 -261 339 0
-502 854 -56 0
616 -749 -612 0
897 64 896 0
-188 643 -856 0
-686 -545 -951 0
456 -488 587 0
-86 902 -547 0
817 700 -925 0
-947 -490 -654 0
127 72 854 0
-91 -733 735 0
-504 217 621 0
-1000 390 -956 0
-37 -266 442 0
-434 994 26 0
57 -762 -479 0
-148 -760 -807 0
-932 -484 812 0
-585 -502 550 0
825 -115 -243 0
320 -826 616 0
864 -532 264 0
871 -364 933 0
-252 -464 516 0
47 372 743 0
573 -896 444 0
-293 -20 -508 0
-847 186 599 0
-544 442 -741 0
-103 270 152 0
-887 -612 807 0
-813 576 -908 0
976 147 484 0
45 -778 -268 0
-690 193 444 0
-252 511 445 0
118 187 525 0
573 383 337 0
-280 217 611 0
-561 -571 -691 0
144 -360 -384 0
650 -447 -374 0
-908 33 -831 0
-168 -30 -593 0
541 -942 594 0
-340 -310 971 0
-744 -421 463 0
-880 104 826 0
59 66 715 0
-185 -16 978 0
756 -988 419 0
-297 964 208 0
-664 910 -775 0
704 -681 -312 0
-151 757 379 0
-702 -926 851 0
-131 -120 4 0
-507 -552 765 0
-858 782 577 0
460 -167 -642 0
-617 562 -165 0
-157 -266 -629 0
205 -335 -993 0
-937 -586 950 0
-869 -407 265 0
274 -712 996 0
-49 -248 -322 0
450 153 -237 0
-488 -634 134 0
972 -651 57 0
-568 197 603 0
792 -91 560 0
246 -434 -582 0
698 589 350 0
526 -337 82 0
881 -350 -780 0
-33 793 -413 0
-926 573 187 0
240 769 210 0
801 343 818 0
-273 -512 198 0
-732 -445 91 0
385 844 -127 0
-60 635 -13 0
-717 -188 776 0
246 -88 -464 0
760 -963 -854 0
-254 -136 735 0
51 -538 430 0
8 -431 -532 0
764 -984 944 0
-397 792 647 0
147 327 495 0
-266 394 -55 0
-109 -259 164 0
-997 -538 195 0
-637 209 -756 0
134 735 -987 0
304 -652 901 0
926 -517 -152 0
-54 -908 -459 0
-900 333 266 0
-204 -452 -632 0
595 -500 -713 0
234 863 -589 0
2 -863 -650 0
477 705 577 0
-230 -213 405 0
393 524 -666 0
-804 -282 -725 0
259 76 731 0
-268 181 -806 0
471 672 988 0
-461 -268 -277 0
332 -280 -819 0
792 339 -988 0
-361 29 343 0
-486 -693 5 0
439 943 470 0
357 -676 217 0
-886 -82 -437 0
53 -425 -609 0
356 173 -934 0
-458 666 -68 0
-862 -825 814 0
-442 -321 -982 0
42 329 743 0
721 196 557 0
-832 -996 -683 0
560 -609 -146 0
-434 381 74 0
-920 -456 393 0
480 553 -385 0
-501 -772 -951 0
340 826 678 0
451 512 -701 0
-197 -985 524 0
-224 431 -177 0
350 -343 614 0
-170 814 925 0
-72 -280 -841 0
775 137 587 0
625 477 270 0
67 -112 -160 0
49 -42 -222 0
464 48 839 0
-966 431 458 0
-986 -557 308 0
554 810 276 0
960 -286 993 0
425 824 654 0
-300 544 905 0
-754 -650 -820 0
-56 428 849 0
441 956 -466 0
868 -862 -860 0
343 -240 -963 0
550 816 47 0
852 -949 -216 0
-202 -685 510 0
-354 -336 200 0
394 -34 148 0
-987 -535 -570 0
499 709 929 0
729 333 -126 0
612 440 -112 0
-760 64 238 0
163 -786 960 0
-895 -609 623 0
422 250 -881 0
340 -9 85 0
-827 787 666 0
710 -993 -748 0
-19 -726 -298 0
-829 -796 282 0
541 -985 415 0
-865 365 -880 0
851 570 -5 0
-554 809 926 0
830 747 933 0
606 556 453 0
90 -551 -702 0
927 -199 944 0
-865 367 -130 0
675 -250 213 0
-846 -622 -201 0
896 849 988 0
-107 -809 780 0
870 256 -222 0
-86 520 702 0
-532 963 776 0
380 -58 -354 0
781 881 645 0
-997 -202 -557 0
-838 380 -173 0
-858 185 543 0
-948 -694 210 0
209 -588 244 0
706 -469 -72 0
931 -383 708 0
243 912 -34 0
240 -284 294 0
133 928 -239 0
-13 933 413 0
-95 888 -628 0
-60 181 677 0
993 718 289 0
-477 -350 972 0
155 592 399 0
330 150 625 0
335 897 -65 0
-364 328 -378 0
-517 927 656 0
-378 -555 540 0
-289 -325 504 0
869 -751 -799 0
-288 952 -289 0
40 -844 -555 0
61 -319 329 0
-823 574 300 0
246 64 -858 0
991 230 221 0
-157 -499 732 0
395 -685 -524 0
3 392 934 0
2 -277 -854 0
668 143 542 0
-451 429 252 0
370 361 -613 0
-778 -995 -887 0
-424 595 -467 0
-95 -358 886 0
663 763 114 0
-380 356 -62 0
446 186 121 0
40 -813 160 0
-933 870 -445 0
-968 -784 -497 0
708 724 592 0
639 -689 671 0
-98 927 -399 0
262 -743 119 0
-921 -357 717 0
568 -365 -14 0
198 464 -983 0
-683 -100 -756 0
-496 -492 53 0
551 -700 199 0
-910 807 183 0
-733 944 344 0
561 450 96 0
209 48 59 0
-16 935 957 0
-398 160 755 0
-532 -993 657 0
-736 640 382 0
-642 -616 -85 0
-376 -827 89 0
-271 667 -808 0
-721 320 -230 0
531 989 -645 0
-486 53 607 0
786 -885 -874 0
839 -925 -83 0
-868 713 -178 0
473 471 -543 0
-764 931 -128 0
107 -614 937 0
-828 -34 202 0
749 409 -897 0
317 -356 -173 0
359 -229 714 0
-635 21 -677 0
719 446 -706 0
764 299 -634 0
326 -138 385 0
-563 -101 474 0
423 974 586 0
805 -959 663 0
-322 -394 -88 0
-298 818 812 0
-90 -791 -220 0
-131 -783 653 0
-63 678 423 0
69 -326 920 0
-242 314 -785 0
-52 -81 388 0
-363 275 -688 0
-541 594 979 0
573 -891 902 0
510 -66 -846 0
73 -252 271 0
916 491 -788 0
166 20 60 0
692 631 73 0
554 -657 -442 0
-277 268 -567 0
429 136 94 0
451 938 337 0
-340 181 409 0
-472 -698 440 0
323 -57 -235 0
418 701 -386 0
-535 732 298 0
156 475 239 0
-555 920 729 0
501 -46 313 0
905 -669 52 0
499 99 -518 0
233 -306 2 0
-760 -842 -662 0
278 -622 989 0
242 -78 859 0
103 -393 -477 0
718 -676 -452 0
275 985 291 0
686 -324 -281 0
277 967 -659 0
533 761 582 0
-388 48 330 0
-442 719 112 0
-487 -21 -44 0
131 -398 292 0
-898 715 5 0
-364 -19 975 0
-967 44 -596 0
-841 -777 416 0
306 -88 823 0
170 994 371 0
738 556 -382 0
99 623 -188 0
111 -948 -313 0
173 562 -612 0
-887 29 111 0
-162 -308 411 0
-905 -424 551 0
-307 -774 -384 0
-899 345 -799 0
-69 959 964 0
158 697 -738 0
-834 717 480 0
388 -709 -901 0
381 -299 -713 0
136 -210 475 0
453 908 -890 0
671 359 -651 0
-68 -7 -1000 0
-106 206 -196 0
-647 -684 -856 0
635 -617 266 0
843 -911 -561 0
729 -558 401 0
-357 840 -9 0
693 368 989 0
27 -280 -434 0
-553 302 -766 0
26 -83 124 0
-368 705 138 0
381 -715 -683 0
581 166 -404 0
-108 873 -541 0
780 -312 -316 0
463 709 647 0
632 668 926 0
599 -533 -928 0
33 46 857 0
-656 823 -933 0
736 349 950 0
-937 446 497 0
-19 445 525 0
678 -433 -750 0
640 -85 921 0
138 234 -365 0
-742 -816 -672 0
-883 120 -330 0
-328 704 245 0
-957 475 -398 0
962 526 -201 0
196 162 904 0
861 -983 505 0
-552 625 -810 0
675 447 -9 0
71 -224 -204 0
833 133 -811 0
125 -936 560 0
593 -393 -256 0
11 879 -361 0
-156 -861 -886 0
252 118 387 0
759 -931 -747 0
263 99 -699 0
-547 101 280 0
-90 815 89 0
667 -91 61 0
-879 144 269 0
630 881 -474 0
-564 155 -808 0
194 -823 -179 0
-228 880 851 0
-825 -587 748 0
499 -984 -185 0
137 442 -470 0
-884 897 78 0
-444 -723 540 0
920 -403 -744 0
-710 -1000 -447 0
894 511 -599 0
-547 -927 425 0
236 388 991 0
546 456 716 0
907 -331 -720 0
-190 -43 -805 0
825 -68 931 0
19 -980 636 0
-318 987 -257 0
268 585 -10 0
-455 258 -38 0
520 983 937 0
566 748 160 0
832 -154 -967 0
-750 -814 735 0
732 922 440 0
466 155 790 0
419 388 179 0
960 -330 -441 0
161 -944 299 0
949 -835 553 0
-667 517 -973 0
361 233 -108 0
641 675 600 0
-924 -46 402 0
-838 -623 -589 0
-243 977 95 0
-7 229 603 0
282 -996 -800 0
-544 -607 -149 0
84 397 313 0
-520 -56 836 0
-322 -412 -62 0
-171 492 50 0
-765 -543 -806 0
876 223 -46 0
-480 8 867 0
-245 155 -850 0
-208 291 796 0
357 -501 990 0
613 150 -553 0
-77 -489 71 0
-594 910 -515 0
852 746 -553 0
145 226 -655 0
-905 -323 -436 0
-424 -286 957 0
736 400 246 0
625 843 -643 0
-469 -95 501 0
689 -985 226 0
-947 418 -976 0
719 -890 -292 0
-249 -515 -937 0
-720 -624 -896 0
880 -449 -725 0
-822 -996 -974 0
-87 -665 945 0
-515 573 830 0
-413 -586 -365 0
969 -704 -22 0
678 35 -153 0
-327 -478 -195 0
-65 869 -671 0
-282 -788 95 0
626 -170 -846 0
132 -82 21 0
-396 888 -785 0
473 205 -643 0
657 521 463 0
964 -353 -170 0
902 453 372 0
-472 -171 -475 0
-433 763 -886 0
-889 303 -207 0
-765 201 -507 0
873 -338 88 0
-869 583 -27 0
699 2 813 0
-316 -957 846 0
-248 -329 -597 0
807 -374 -492 0
-455 567 -674 0
-631 -571 308 0
-85 -173 -717 0
919 -305 -384 0
-338 -203 362 0
92 -429 -933 0
-781 594 -506 0
-152 -761 -453 0
489 -158 -411 0
800 854 654 0
-659 -768 -171 0
-307 -710 -633 0
-536 -188 -958 0
-203 -270 549 0
872 899 -747 0
863 -467 -378 0
-975 -964 -186 0
877 295 934 0
-189 718 -225 0
174 429 333 0
-685 883 -272 0
-274 990 626 0
377 -352 944 0
210 -626 255 0
-872 899 -846 0
-615 585 410 0
-182 663 745 0
-25 -263 -421 0
-629 -698 -161 0
-302 -867 715 0
-748 -120 -781 0
-344 606 -545 0
483 -523 803 0
-762 731 -285 0
-664 909 434 0
-648 -474 -999 0
-712 219 -60 0
161 625 974 0
122 935 -911 0
-110 520 -887 0
16 -583 884 0
92 253 753 0
817 334 -111 0
-886 64 -533 0
859 179 231 0
-438 348 935 0
207 470 -225 0
99 -643 754 0
-9 -106 418 0
-592 316 -657 0
909 -684 175 0
-739 -455 -820 0
768 160 -558 0
756 -182 455 0
-438 178 -386 0
-298 -588 131 0
712 715 766 0
566 348 -845 0
726 875 -863 0
979 -566 -264 0
426 3 -671 0
772 945 76 0
417 -195 -940 0
-908 -766 920 0
770 969 -519 0
-296 915 265 0
-594 10 -887 0
-429 841 45 0
943 -491 -303 0
-829 -397 673 0
-492 184 -708 0
-557 -987 554 0
-421 482 -895 0
390 225 -16 0
205 -756 -595 0
280 281 269 0
-361 917 172 0
-994 153 290 0
-500 -805 797 0
964 -10 676 0
-929 646 532 0
247 834 -231 0
759 -728 731 0
-658 810 -32 0
-473 -827 -891 0
275 867 -172 0
168 -287 960 0
-806 390 674 0
-328 757 979 0
-912 -323 -436 0
-914 -287 -420 0
-668 341 -706 0
125 -323 437 0
738 -717 -118 0
-641 180 717 0
947 -936 -846 0
231 552 237 0
-749 790 518 0
-670 782 -261 0
282 904 -75 0
214 539 -489 0
-94 -717 -736 0
720 497 -425 0
-131 215 208 0
-83 432 -268 0
-460 -98 570 0
231 -865 882 0
-804 -142 -920 0
325 -444 6 0
902 926 -51 0
238 -99 410 0
93 -123 -509 0
53 -633 -142 0
230 871 532 0
687 -318 -569 0
-543 969 -428 0
-429 -854 -899 0
-343 -256 -35 0
-931 -110 506 0
-567 -709 -419 0
-33 -619 -759 0
-930 322 381 0
986 -335 -23 0
426 137 716 0
128 -370 -306 0
-419 965 291 0
356 -209 -946 0
-643 886 -861 0
748 995 627 0
130 399 977 0
328 642 -656 0
840 -277 -730 0
-990 146 307 0
-845 -670 -840 0
-279 -682 -805 0
282 403 733 0
-418 730 -371 0
8 586 738 0
808 -872 -577 0
-903 233 -28 0
940 229 -626 0
882 911 889 0
-329 625 -173 0
-527 33 534 0
55 730 272 0
51 435 -887 0
-677 -932 -399 0
987 248 276 0
-438 760 -346 0
317 -93 960 0
454 839 29 0
467 457 -298 0
669 163 785 0
35 786 428 0
-1 570 236 0
-175 -536 473 0
483 153 151 0
387 -701 709 0
-276 -799 -505 0
130 826 -703 0
-506 354 189 0
-268 216 293 0
769 401 801 0
53 737 716 0
396 77 -598 0
268 -741 950 0
631 -899 -260 0
214 -808 -384 0
-523 -334 -907 0
880 375 -334 0
-39 -370 762 0
301 -901 310 0
-41 -549 121 0
-418 82 675 0
862 207 -404 0
102 -934 943 0
253 -794 588 0
449 501 77 0
972 653 916 0
-709 -119 605 0
954 274 695 0
-980 -799 455 0
-274 192 171 0
413 -176 -912 0
-762 -794 452 0
18 21 -660 0
606 211 949 0
-420 364 761 0
-969 -610 -236 0
200 -321 -161 0
166 -309 995 0
-369 478 -403 0
-272 238 -133 0
62 375 -954 0
828 970 231 0
517 777 358 0
-857 974 868 0
705 -505 851 0
-483 492 -647 0
255 -74 -97 0
-27 282 631 0
-494 -576 863 0
-164 238 -415 0
-167 450 849 0
-674 429 -259 0
-891 702 842 0
123 -401 -736 0
-480 -853 306 0
367 194 -620 0
-706 157 236 0
-62 -147 -529 0
669 -745 -348 0
-349 384 -444 0
53 -888 566 0
-179 98 981 0
-303 402 -696 0
852 775 -58 0
-769 -90 100 0
964 890 -574 0
195 422 357 0
358 -250 -539 0
-823 -602 -598 0
375 340 973 0
985 -606 -684 0
939 162 467 0
-754 -768 -468 0
-973 481 980 0
-150 573 747 0
-553 899 839 0
458 -695 -715 0
431 780 645 0
-182 54 -945 0
-458 -582 -261 0
-539 -600 -899 0
894 -555 601 0
859 413 80 0
-769 -376 -137 0
-319 638 683 0
-585 -852 -240 0
492 590 -333 0
-737 371 216 0
-239 -98 864 0
220 -73 -521 0
674 760 561 0
-390 -982 88 0
-558 261 850 0
959 -995 -813 0
-260 -502 -126 0
108 478 821 0
935 124 861 0
-343 -105 565 0
-665 423 -159 0
-908 -61 219 0
755 642 788 0
-203 -663 922 0
-603 827 -776 0
-487 -205 62 0
-340 -750 449 0
-146 335 337 0
285 641 479 0
-871 -433 596 0
18 -731 123 0
-781 463 32 0
-100 -770 -253 0
247 -649 660 0
-997 789 646 0
407 369 658 0
634 723 326 0
952 -374 -161 0
544 -445 135 0
185 879 170 0
-755 784 150 0
-677 591 868 0
-108 -338 -213 0
-207 552 454 0
-967 987 771 0
877 285 -814 0
-812 -293 608 0
110 -71 -202 0
-604 49 770 0
197 126 217 0
-552 -133 721 0
-926 665 402 0
809 -790 -442 0
-493 280 605 0
617 -33 -183 0
286 -242 -686 0
-48 -343 198 0
999 512 547 0
731 678 -188 0
-216 550 921 0
-825 -781 -40 0
-675 41 -405 0
734 -812 848 0
-654 899 -498 0
-380 -231 318 0
-916 -502 -164 0
-154 261 620 0
-926 -90 -169 0
184 -455 181 0
513 440 242 0
-76 -738 -898 0
-296 -588 833 0
-48 915 -931 0
607 77 311 0
387 -460 788 0
-45 -795 119 0
-898 673 54 0
-21 523 -624 0
-556 963 -416 0
559 520 292 0
855 628 -756 0
267 585 560 0
-802 -215 577 0
594 191 190 0
-529 -963 670 0
-940 -463 -494 0
-852 -302 16 0
47 953 942 0
580 924 399 0
-551 -837 -212 0
719 161 -562 0
-302 478 -710 0
575 -521 -645 0
3 6 577 0
-510 82 482 0
770 42 1 0
-262 115 -530 0
-238 -708 27 0
292 122 569 0
-690 513 230 0
-304 564 -64 0
-174 -917 373 0
209 40 922 0
174 -132 459 0
-204 -590 408 0
-50 755 -981 0
-742 -567 158 0
-373 814 -529 0
311 195 -760 0
-299 -77 -97 0
-381 194 -417 0
831 926 453 0
-814 -577 -102 0
161 722 -357 0
-467 899 -819 0
-745 299 -711 0
231 -359 -105 0
106 -474 -684 0
-451 -626 -21 0
-33 415 355 0
-512 30 988 0
296 -414 946 0
-845 -253 -936 0
838 -201 327 0
234 -993 -17 0
476 53 -538 0
-161 964 -552 0
-929 -442 -723 0
-850 -864 -42 0
-994 -617 -658 0
789 -64 817 0
-402 -532 1 0
494 181 741 0
786 -568 -974 0
258 -8 451 0
-115 -979 952 0
985 -307 -185 0
-980 237 624 0
776 -785 746 0
-665 -303 -725 0
828 -658 -667 0
-7 781 -481 0
-348 -3 763 0
144 948 652 0
-926 799 -240 0
339 -5 403 0
924 -440 -516 0
-937 -616 832 0
341 653 75 0
-753 -672 503 0
540 563 806 0
606 -183 914 0
-378 176 110 0
-160 -742 -351 0
612 -515 -913 0
-44 -588 204 0
-501 364 -566 0
421 141 -660 0
825 958 397 0
-771 623 -92 0
-494 -12 -76 0
-212 -11 -740 0
287 677 -75 0
-682 -82 452 0
822 -544 -74 0
842 -97 -631 0
-801 367 -828 0
304 -533 -691 0
369 718 -597 0
919 -795 -621 0
886 -23 609 0
330 702 218 0
-480 652 -750 0
-638 -480 982 0
740 562 -821 0
188 689 594 0
209 -453 -30 0
984 -603 796 0
-814 765 -530 0
-165 -944 -82 0
517 -965 928 0
312 -692 867 0
927 212 267 0
-760 499 -134 0
660 595 239 0
906 150 -654 0
-44 -476 104 0
-370 725 -850 0
-561 -993 122 0
642 715 -873 0
-212 699 -4 0
-597 280 839 0
-200 -685 630 0
-879 -68 979 0
523 792 -909 0
569 -739 251 0
-459 543 -599 0
-819 300 297 0
-319 309 -947 0
-67 281 558 0
-873 745 217 0
-19 695 -905 0
-231 306 741 0
-29 -124 275 0
-962 218 -530 0
-664 -281 -515 0
179 -786 1 0
-273 -6 -974 0
357 -931 -430 0
82 -623 -407 0
992 217 -746 0
-913 -364 -313 0
821 468 -752 0
855 914 727 0
-96 -453 -426 0
-76 207 834 0
705 355 -457 0
-753 -454 83 0
723 -4 -884 0
722 -582 538 0
769 -103 -543 0
-463 729 373 0
-624 -891 561 0
698 -15 -981 0
-257 -358 186 0
-233 -62 -179 0
-942 -992 -21 0
898 -568 756 0
13 -58 -313 0
353 -664 933 0
73 -806 -491 0
-502 335 -84 0
-915 -270 -944 0
-363 685 352 0
900 -308 501 0
955 130 596 0
-546 578 657 0
830 536 -766 0
877 477 900 0
666 143 755 0
518 650 -743 0
-339 -966 -739 0
88 -154 640 0
-437 25 32 0
828 -743 -807 0
-225 195 -770 0
258 -118 973 0
921 413 -164 0
368 377 -865 0
694 -293 -205 0
-716 -803 -369 0
-395 577 -488 0
263 12 -637 0
592 -964 -504 0
367 -755 -450 0
914 -647 413 0
-525 302 827 0
-374 817 -603 0
-479 -227 542 0
-831 -833 -69 0
401 618 -523 0
144 536 274 0
286 208 -542 0
47 684 120 0
849 964 -405 0
-443 396 209 0
567 -78 -177 0
-219 394 82 0
-989 730 657 0
397 130 -266 0
-236 -206 574 0
274 -994 -221 0
-666 -305 431 0
518 -324 776 0
-477 178 90 0
196 -724 181 0
-416 -257 -900 0
652 -123 -947 0
915 60 -74 0
-280 -524 332 0
613 -978 558 0
-703 -213 258 0
-863 -489 -401 0
383 734 219 0
-785 354 -305 0
927 -810 923 0
364 844 -50 0
-711 24 -82 0
958 453 -771 0
-424 263 -690 0
107 -586 590 0
801 -351 232 0
432 -604 786 0
566 -775 861 0
644 -214 225 0
-142 487 866 0
102 2 829 0
-829 709 -701 0
682 759 -295 0
886 393 524 0
-175 650 886 0
64 444 -132 0
-704 264 -913 0
42 -462 -425 0
222 139 686 0
206 -247 300 0
76 233 723 0
558 -669 229 0
652 -378 -163 0
162 55 -896 0
-602 -607 717 0
753 100 -614 0
523 -511 810 0
-775 -400 -946 0
-913 -440 -76 0
-832 658 258 0
-738 274 757 0
346 599 366 0
-826 685 -66 0
-906 702 900 0
-845 -451 -94 0
-650 225 -549 0
547 400 334 0
216 -984 257 0
219 542 -100 0
-438 -86 -337 0
-585 -991 906 0
133 -622 -195 0
-71 -458 -556 0
-385 958 -329 0
-732 193 -80 0
635 -18 -634 0
334 166 338 0
174 297 -647 0
-163 -365 -763 0
-993 -765 321 0
-475 652 -588 0
217 739 -998 0
807 192 45 0
518 316 569 0
799 -84 877 0
-850 -241 -784 0
379 388 993 0
194 -318 -105 0
604 -80 545 0
276 964 120 0
-270 -675 107 0
333 360 809 0
13 890 -724 0
683 -641 -226 0
-468 431 -525 0
770 -685 110 0
-153 -142 -922 0
503 557 -915 0
281 -828 45 0
909 569 257 0
-756 165 644 0
-689 -135 891 0
-431 -709 180 0
-568 594 209 0
-954 955 95 0
505 -200 764 0
-988 -39 767 0
-892 929 152 0
476 -435 -206 0
268 883 -162 0
-595 830 383 0
71 457 732 0
-622 974 742 0
-818 -743 -321 0
-532 -311 518 0
-890 -604 -854 0
-135 -993 -484 0
223 522 -951 0
724 -972 -302 0
899 -480 239 0
-125 -407 -343 0
-638 -716 588 0
525 195 -914 0
232 -216 305 0
-816 769 53 0
74 -627 768 0
-898 12 804 0
-424 279 268 0
-871 380 958 0
675 -85 -95 0
648 -848 568 0
239 -548 -923 0
566 -342 281 0
710 612 -930 0
-237 -351 984 0
-36 -327 647 0
-911 -770 641 0
-365 -277 -873 0
597 -501 -850 0
946 -832 -988 0
-646 -378 -929 0
499 74 -387 0
439 -657 -755 0
644 33 437 0
-270 -16 -664 0
-684 746 -35 0
-288 -300 43 0
-373 942 -119 0
-541 57 -325 0
-783 809 -406 0
-905 200 -688 0
929 -585 -423 0
-609 752 -649 0
674 -611 -360 0
124 -33 176 0
-629 151 828 0
962 246 158 0
791 -725 727 0
-144 -263 252 0
908 419 -561 0
970 -78 495 0
699 -742 -152 0
-149 931 -767 0
680 484 -574 0
341 -939 -205 0
593 -635 35 0
230 824 857 0
87 619 -378 0
-557 423 805 0
-187 -133 968 0
633 -451 324 0
525 -389 806 0
468 233 -498 0
815 289 560 0
560 -580 -935 0
272 -848 373 0
-939 343 -388 0
-421 788 277 0
989 -969 -951 0
757 944 406 0
206 67 -945 0
108 -229 665 0
9 -790 -775 0
-538 391 481 0
-501 -251 379 0
-902 -65 -89 0
-579 330 288 0
-752 -388 -311 0
778 21 55 0
975 -491 303 0
-664 -863 -354 0
-537 49 -823 0
-788 -884 -947 0
460 212 -702 0
-549 247 -464 0
-813 842 -892 0
-429 -90 388 0
969 -391 -409 0
-66 -137 1 0
239 -467 -698 0
-781 -130 956 0
-619 927 574 0
-494 532 154 0
-646 -808 -68 0
818 -388 887 0
-436 -94 749 0
-942 531 -918 0
-505 -230 914 0
-151 498 -764 0
-332 -262 113 0
48 326 708 0
-782 99 49 0
69 114 765 0
29 305 209 0
-280 691 281 0
308 -405 -392 0
123 -346 377 0
-921 744 -605 0
-878 -869 -302 0
-38 -658 696 0
398 -341 689 0
-944 504 -936 0
728 706 -518 0
548 981 -267 0
515 939 879 0
386 -973 -994 0
429 968 546 0
808 859 243 0
-810 271 393 0
-309 807 -327 0
566 362 487 0
-736 693 -587 0
849 -667 58 0
-117 -221 -836 0
593 104 976 0
769 -498 387 0
-915 -845 -660 0
945 -761 87 0
-273 433 188 0
265 23 -69 0
-588 201 -212 0
-610 -620 488 0
-643 115 855 0
-488 110 -970 0
983 659 -522 0
577 -323 -501 0
422 -698 -39 0
52 -911 344 0
-299 367 -939 0
31 -24 -678 0
-399 981 62 0
768 -697 -965 0
378 -416 917 0
-656 -853 327 0
-846 654 -840 0
632 -854 -417 0
-540 708 631 0
61 622 -911 0
730 251 -14 0
703 981 -757 0
443 905 930 0
-903 -586 -524 0
212 409 278 0
-616 -223 463 0
822 -414 75 0
-186 -853 -576 0
-483 556 -227 0
-446 -553 278 0
-881 -350 -803 0
-275 -389 -339 0
644 146 -270 0
519 392 112 0
574 412 -974 0
869 -374 -518 0
947 941 -443 0
982 -158 -378 0
230 153 240 0
-13 457 -841 0
851 414 -998 0
341 -785 199 0
-400 780 -777 0
392 -784 -810 0
199 -319 365 0
-702 631 75 0
959 -974 -869 0
392 -959 -501 0
-97 923 48 0
-280 -513 97 0
108 337 700 0
476 -484 881 0
167 -414 -950 0
643 989 -420 0
-281 -36 298 0
-117 -363 63 0
675 -737 -5 0
970 880 228 0
-973 -277 56 0
-271 226 315 0
548 818 849 0
845 -309 388 0
-202 619 461 0
669 129 -915 0
-939 203 -877 0
-831 -181 -312 0
40 -620 54 0
623 434 570 0
-451 535 376 0
-291 591 -376 0
-710 -557 119 0
794 907 241 0
-173 -479 746 0
923 844 888 0
188 -748 185 0
905 -368 -613 0
932 -443 -601 0
360 942 -17 0
-802 -727 214 0
-251 -283 -964 0
281 -369 -907 0
-310 550 295 0
390 495 958 0
-293 139 476 0
248 255 -459 0
370 -907 -775 0
-528 82 -282 0
-716 -553 -117 0
-879 -202 606 0
-423 -178 -306 0
-306 474 959 0
-398 -28 585 0
-801 -575 511 0
-456 -48 451 0
969 301 335 0
-93 15 38 0
730 447 794 0
-245 846 718 0
458 -615 607 0
-816 -891 -541 0
-880 214 275 0
281 -302 679 0
849 -103 -177 0
-958 204 108 0
-607 250 269 0
391 428 468 0
120 969 409 0
-436 917 999 0
763 342 -623 0
-862 -852 302 0
-333 223 -253 0
-910 -358 874 0
54 5 918 0
-540 -241 122 0
933 204 357 0
-861 -353 -192 0
316 639 -573 0
129 523 -696 0
429 102 -318 0
320 114 931 0
29 475 -30 0
-6 241 -665 0
659 -216 -978 0
-530 321 -491 0
-696 -879 447 0
535 -109 -256 0
944 10 -178 0
-126 941 54 0
206 -767 -62 0
725 -113 583 0
6 385 479 0
-12 -16 -812 0
566 -250 -313 0
799 -219 -814 0
-729 168 93 0
125 755 432 0
-797 701 571 0
-230 -342 -374 0
-199 -415 -100 0
637 -791 -600 0
-992 950 1 0
-888 399 361 0
390 884 768 0
953 -423 825 0
449 -522 240 0
-27 538 84 0
446 524 804 0
966 442 -14 0
710 619 478 0
-958 692 389 0
-649 -463 -475 0
364 -560 -287 0
871 538 189 0
-393 148 -753 0
879 -293 -862 0
-429 -409 -197 0
-642 811 361 0
821 -838 154 0
383 266 -919 0
407 764 9 0
-895 -336 -428 0
-483 413 921 0
-558 954 6 0
681 -559 -930 0
-873 -834 51 0
411 -795 546 0
-781 -816 -474 0
-389 252 673 0
712 -960 106 0
49 -284 365 0
-905 577 -219 0
293 -699 -431 0
888 886 16 0
942 102 403 0
-593 422 589 0
-380 -585 329 0
-361 -703 -759 0
449 -175 -216 0
407 644 662 0
-521 -168 576 0
-581 -850 -833 0
290 773 -33 0
835 -625 -559 0
-751 -231 741 0
526 -30 350 0
-443 799 -255 0
-65 -515 -279 0
858 984 -277 0
760 817 -89 0
711 -829 549 0
283 -239 556 0
80 96 -902 0
964 -372 -249 0
853 510 43 0
47 602 414 0
323 421 -238 0
-678 312 509 0
404 -394 -920 0
238 -162 -244 0
432 777 10 0
-550 -451 -611 0
743 -321 -470 0
-818 928 958 0
-499 -479 -750 0
-39 139 211 0
-123 19 -788 0
640 -115 155 0
209 257 -360 0
311 -804 406 0
-610 -92 -75 0
-455 354 675 0
-701 -546 -140 0
698 -301 -904 0
-407 -829 -334 0
157 911 597 0
-981 -454 679 0
-765 -276 556 0
-280 -299 456 0
-654 -698 969 0
419 222 598 0
511 212 875 0
-706 135 -148 0
359 23 429 0
373 899 130 0
-415 -740 -683 0
-415 581 -380 0
474 730 -803 0
-108 299 -802 0
635 -641 212 0
924 176 85 0
228 569 892 0
257 115 149 0
333 278 -466 0
84 978 444 0
390 -779 116 0
75 -975 -212 0
678 -547 329 0
76 442 719 0
277 10 -299 0
-545 432 -694 0
-843 -4 -152 0
-706 -243 -103 0
-998 264 -833 0
-393 941 -177 0
-399 -701 430 0
-824 680 -580 0
573 -235 465 0
781 352 941 0
140 810 -982 0
705 902 -473 0
-675 -315 -376 0
-549 -729 652 0
9 -929 -125 0
443 -303 352 0
122 -892 700 0
138 38 298 0
225 -811 933 0
581 -832 108 0
-698 301 -575 0
-241 54 -176 0
-9 -789 -544 0
244 -587 188 0
5 -216 -657 0
-554 715 491 0
-580 -119 -50 0
-502 948 -66 0
223 -869 286 0
-286 128 -43 0
-235 821 -662 0
892 -351 856 0
-291 225 81 0
-610 -890 -100 0
-393 -241 -146 0
608 666 975 0
577 412 522 0
-463 84 536 0
-898 -741 -567 0
961 988 -780 0
-967 -92 -975 0
-927 -584 947 0
-115 336 -61 0
-110 -9 5 0
-378 605 -811 0
-478 -176 683 0
-315 437 -62 0
-891 285 520 0
-230 -46 -1000 0
922 -260 -652 0
-781 188 98 0
-486 -571 934 0
780 -942 -815 0
892 -322 -905 0
496 56 -156 0
434 -212 -811 0
660 71 216 0
436 322 843 0
188 265 480 0
228 -652 684 0
-786 410 -672 0
-760 -485 172 0
531 -993 -208 0
454 -420 672 0
-260 586 -359 0
40 467 393 0
-543 801 746 0
-923 373 105 0
767 -700 184 0
-740 -691 -615 0
-964 619 -120 0
-205 365 -702 0
789 82 256 0
470 840 -577 0
-119 753 -90 0
-713 618 -146 0
232 -36 513 0
-488 457 861 0
783 -544 929 0
-741 794 288 0
-394 -225 -595 0
932 120 851 0
-256 -534 -909 0
983 539 -942 0
-665 -824 -198 0
204 -945 951 0
130 -601 -290 0
886 491 994 0
-844 -714 815 0
863 846 316 0
-892 837 633 0
173 -767 220 0
175 -566 -162 0
124 297 108 0
383 -569 -185 0
20 -381 758 0
-493 901 999 0
-592 929 -24 0
967 560 -548 0
-353 555 566 0
745 -605 2 0
-587 -748 -207 0
-64 565 954 0
-794 -623 317 0
-763 644 -811 0
-166 458 -552 0
-413 771 282 0
-267 175 -569 0
646 422 -121 0
-615 -722 -982 0
634 393 -207 0
-49 -361 192 0
887 -487 589 0
-257 -151 609 0
402 998 331 0
726 -712 -728 0
705 -426 223 0
-434 -660 -566 0
-520 55 -847 0
-91 366 -929 0
-189 -520 412 0
935 729 72 0
-233 154 356 0
84 384 697 0
-940 -867 -762 0
-916 36 976 0
11 -748 401 0
-506 708 421 0
-767 503 -713 0
7 993 -348 0
-782 -196 610 0
-28 -596 -289 0
704 275 -596 0
-26 -682 -168 0
553 599 -577 0
695 436 393 0
-678 -472 -645 0
182 -160 -701 0
-12 958 991 0
700 -854 87 0
-184 -613 -191 0
-194 -846 -769 0
457 -203 -71 0
650 708 231 0
125 769 429 0
-664 724 223 0
637 186 -986 0
637 -502 343 0
-982 713 244 0
223 -856 953 0
424 578 -688 0
-812 -236 355 0
558 -505 92 0
835 -252 677 0
111 -189 -326 0
-76 -499 278 0
604 -441 501 0
12 779 -182 0
843 -960 -524 0
347 -985 -562 0
294 -503 508 0
235 -661 146 0
283 -90 592 0
875 -189 408 0
433 957 252 0
873 -635 -714 0
-518 818 510 0
730 -827 -140 0
-76 16 -334 0
-896 -533 -375 0
709 578 194 0
-333 -986 868 0
642 -461 603 0
123 82 967 0
-586 -322 880 0
-168 -199 -354 0
382 795 326 0
-699 105 874 0
-813 -819 386 0
-953 409 -192 0
-377 669 -22 0
384 -46 303 0
351 245 -93 0
801 205 510 0
780 371 243 0
-582 934 -955 0
806 43 -100 0
-475 176 142 0
959 375 -354 0
-456 -28 111 0
881 501 891 0
885 658 483 0
-571 526 -894 0
-393 139 437 0
-262 -211 936 0
-924 -245 -79 0
-418 283 -192 0
191 816 569 0
-107 239 -530 0
179 -441 -800 0
883 474 -181 0
-671 292 -927 0
-312 -910 734 0
99 12 78 0
262 432 613 0
383 -620 -224 0
98 139 464 0
249 -826 -543 0
-869 319 -485 0
284 -639 -867 0
617 837 -881 0
903 -85 512 0
-459 -826 999 0
786 727 -861 0
-883 -355 -414 0
503 713 245 0
818 907 480 0
910 332 971 0
-485 934 818 0
405 104 4 0
-293 -292 -837 0
-23 -684 500 0
272 502 -28 0
598 345 -955 0
483 -21 295 0
-61 -57 335 0
422 555 -249 0
-491 93 87 0
-42 313 -417 0
-74 -794 -332 0
-465 275 751 0
-597 -7 691 0
905 86 -128 0
-141 820 243 0
-287 -989 -788 0
-74 -678 -463 0
675 933 271 0
-759 552 -138 0
-84 813 490 0
645 376 -20 0
-732 -192 895 0
-520 379 -344 0
461 952 -730 0
674 -518 21 0
607 529 -124 0
158 327 -849 0
194 -826 -351 0
-999 735 474 0
464 243 -247 0
-652 940 -582 0
537 -132 -300 0
-958 531 795 0
-533 489 -216 0
-618 -819 485 0
69 893 146 0
-274 -664 -362 0
-299 1000 -963 0
-739 306 -539 0
877 -586 -360 0
-390 -46 541 0
140 355 -264 0
328 394 72 0
-973 -17 -256 0
-368 389 -648 0
796 854 486 0
-608 -935 -359 0
25 809 -653 0
-511 918 -260 0
17 -652 -628 0
246 985 555 0
320 865 -923 0
-225 -101 386 0
-7 928 -401 0
-326 -285 -963 0
-495 -683 -726 0
-364 -441 75 0
686 752 -288 0
-829 -177 263 0
829 -167 -865 0
295 -454 223 0
-652 -58 147 0
-619 -692 985 0
665 -80 997 0
-151 -858 -923 0
-486 286 -795 0
-172 383 -538 0
609 -987 -78 0
164 -971 721 0
202 636 311 0
422 861 -488 0
21 301 -740 0
884 -565 -162 0
669 835 -485 0
232 -973 954 0
-851 -220 -400 0
914 317 -252 0
-947 -233 802 0
-414 -696 347 0
-967 941 -470 0
-63 501 311 0
-202 -794 -675 0
716 -150 -439 0
903 981 993 0
220 -832 -22 0
-416 61 -657 0
289 566 870 0
-264 -245 770 0
328 -544 730 0
-873 905 462 0
888 -158 489 0
-523 438 -37 0
-477 -166 -16 0
-249 626 -223 0
969 -838 344 0
182 -390 -321 0
-271 -901 17 0
845 -498 262 0
-442 33 686 0
-565 815 -192 0
180 -393 877 0
-848 -206 -447 0
354 499 751 0
-563 -334 609 0
681 816 -242 0
835 715 930 0
-333 -167 229 0
-266 794 780 0
-998 -806 -782 0
-899 -134 -882 0
-930 -451 109 0
417 480 958 0
-666 701 -247 0
608 34 -453 0
-308 -994 -803 0
219 836 540 0
-560 -784 -951 0
828 296 -792 0
-230 -708 628 0
-10 -972 652 0
-383 -790 422 0
778 976 604 0
474 -940 622 0
-333 -471 -406 0
420 -402 -245 0
392 553 -373 0
169 -412 -155 0
831 -853 -913 0
907 -567 -523 0
545 473 -451 0
256 -730 -517 0
253 476 -425 0
297 -968 -216 0
623 -229 640 0
599 -421 218 0
-553 869 -575 0
-658 436 147 0
-816 -258 726 0
221 -833 -981 0
-270 294 875 0
-667 180 687 0
-649 -435 -390 0
473 -779 -477 0
-273 -819 348 0
-214 -514 -745 0
741 243 613 0
409 -493 -831 0
877 230 -283 0
632 -77 381 0
83 672 855 0
-358 -699 -660 0
-702 938 -513 0
704 -920 -181 0
823 569 955 0
-745 -428 892 0
-316 -71 456 0
489 408 162 0
23 443 -480 0
-37 138 -731 0
-680 922 750 0
775 -65 165 0
643 805 -553 0
94 -177 84 0
-723 -39 321 0
449 -880 143 0
-487 -882 448 0
844 -933 -798 0
-271 -990 -987 0
991 633 -825 0
-571 572 939 0
678 -43 -441 0
-788 -975 -727 0
-655 612 -436 0
552 -68 -721 0
-137 18 -665 0
-184 579 336 0
713 -638 7 0
-722 -522 -255 0
-505 730 765 0
599 287 -885 0
-635 -133 927 0
97 147 634 0
-401 425 -544 0
-283 -839 558 0
-115 613 65 0
-353 -926 777 0
443 707 -203 0
-609 -361 422 0
538 338 -812 0
848 857 159 0
-703 -559 -312 0
261 -4 -681 0
943 143 -443 0
185 -526 715 0
-130 4 -375 0
513 -444 621 0
262 990 114 0
-671 -493 324 0
-520 -489 600 0
123 -150 624 0
721 438 9 0
130 -384 965 0
-43 474 398 0
-288 -735 -697 0
787 -490 620 0
-13 -303 -94 0
897 -641 -494 0
-848 910 460 0
757 -841 -337 0
-82 937 340 0
-837 -938 -6 0
288 -253 -238 0
331 211 62 0
-312 -935 510 0
-569 602 146 0
-239 119 -98 0
-819 341 -452 0
-261 -295 386 0
390 -531 -687 0
-863 -683 534 0
606 -198 -347 0
708 -868 397 0
536 956 -380 0
627 192 290 0
722 405 74 0
-372 201 -419 0
-517 997 -1 0
-565 583 22 0
174 -132 7 0
-298 687 -569 0
900 344 537 0
-846 -899 -800 0
200 469 -46 0
-276 -971 -320 0
-610 947 -17 0
843 813 -516 0
464 995 -46 0
761 364 -76 0
487 618 -256 0
998 728 433 0
631 -579 -298 0
524 -130 118 0
-28 -806 618 0
-343 817 956 0
889 755 607 0
798 -336 -297 0
352 322 -222 0
95 -893 -380 0
-306 -957 -347 0
-913 -556 -343 0
-827 -217 -1000 0
-833 107 -441 0
-627 110 -111 0
784 455 -36 0
-710 -545 -832 0
-688 467 300 0
114 831 540 0
115 349 599 0
245 -996 494 0
51 -518 -490 0
-18 121 -352 0
147 128 832 0
614 -817 -972 0
-45 236 318 0
-447 -744 295 0
-58 -128 -499 0
15 -705 698 0
-385 -92 -289 0
-971 -608 -373 0
208 -107 573 0
-37 -543 -845 0
894 303 -756 0
738 573 920 0
876 -58 -730 0
600 -555 810 0
882 970 -747 0
-621 -401 594 0
623 410 57 0
931 -244 73 0
881 155 132 0
-968 537 991 0
-311 848 135 0
-946 -758 603 0
-786 -870 373 0
616 -18 271 0
520 115 -185 0
804 388 -81 0
485 252 -718 0
560 -23 -687 0
-491 676 941 0
-844 294 -101 0
-897 704 896 0
809 767 -219 0
-754 786 -542 0
-870 270 -335 0
-639 -815 493 0
157 -852 754 0
-360 950 666 0
-191 918 -232 0
76 179 286 0
-126 876 819 0
476 -278 -735 0
6 692 -578 0
-216 -221 -70 0
-196 337 479 0
143 -936 -246 0
829 863 910 0
-411 710 611 0
238 230 -518 0
874 919 763 0
911 -594 332 0
-767 -429 131 0
886 -692 879 0
994 902 713 0
-674 -941 -294 0
-434 -64 -533 0
753 -269 449 0
581 -961 645 0
-317 34 488 0
-310 839 692 0
875 905 -904 0
145 -750 361 0
-520 176 -404 0
-1 -46 438 0
165 497 -422 0
352 703 -81 0
-870 891 350 0
504 770 535 0
-993 611 810 0
-320 -920 -781 0
-556 849 -605 0
288 771 750 0
468 516 -809 0
-800 922 -886 0
-102 -53 151 0
764 203 -348 0
-155 -850 -445 0
-741 201 618 0
-482 -945 695 0
737 2 881 0
704 695 501 0
-264 -690 995 0
-772 -429 -972 0
648 -507 885 0
-903 516 -120 0
-960 -304 -320 0
716 482 -982 0
-488 725 700 0
-349 -807 -180 0
-437 -948 385 0
619 275 389 0
-64 473 -313 0
-95 -197 979 0
419 -495 567 0
-402 755 -298 0
66 -757 -648 0
-241 -764 -368 0
906 -293 -374 0
-547 29 -372 0
-820 702 -839 0
-774 -440 -358 0
-789 117 905 0
-973 166 -968 0
-295 -222 213 0
196 -8 633 0
520 993 -614 0
535 -723 -946 0
26 -169 131 0
-899 225 -918 0
-377 491 -90 0
-800 -266 563 0
230 197 -297 0
-548 264 356 0
976 -865 777 0
-953 -199 -303 0
964 -646 -768 0
53 808 -795 0
-455 -445 -372 0
376 822 195 0
-185 517 142 0
705 813 -948 0
-136 473 -424 0
-334 -442 114 0
-647 284 -942 0
857 -1000 944 0
-143 -733 887 0
-33 -871 -393 0
-658 127 -653 0
186 116 801 0
-720 -328 -514 0
584 -146 719 0
637 120 569 0
-648 428 -651 0
407 240 97 0
-305 -32 488 0
-560 -858 535 0
-638 -227 -772 0
-131 -629 -734 0
-692 -224 -39 0
-910 636 -44 0
17 -633 -914 0
-515 678 -842 0
-827 -710 242 0
-568 -943 235 0
-558 -124 -469 0
849 -535 291 0
-286 -671 885 0
630 -142 -215 0
93 -165 943 0
827 439 880 0
431 937 -403 0
210 -749 -812 0
4 859 -720 0
24 -879 -88 0
-878 564 -290 0
704 -647 546 0
-341 -911 237 0
713 -925 107 0
774 -428 -740 0
-779 -45 -424 0
-132 36 673 0
528 841 -911 0
278 694 644 0
-51 129 468 0
-913 649 459 0
749 -198 967 0
-724 5 630 0
-4 -35 -756 0
-425 553 255 0
640 -955 -615 0
-423 738 927 0
243 73 -48 0
196 68 369 0
864 464 -553 0
-425 764 430 0
388 784 914 0
-116 654 476 0
-423 -694 587 0
807 -81 992 0
37 88 144 0
-136 683 -29 0
-851 -724 697 0
82 -999 -441 0
-599 945 -142 0
-259 374 -668 0
199 -450 314 0
676 748 877 0
-590 -625 -549 0
369 361 -593 0
189 513 -487 0
459 -812 -634 0
323 -313 -294 0
-318 239 754 0
361 60 779 0
-93 348 475 0
-491 -95 85 0
867 -90 -106 0
566 433 325 0
645 490 -794 0
-793 501 597 0
585 573 726 0
-570 -130 -463 0
-620 828 69 0
77 783 -775 0
812 306 -755 0
395 -255 802 0
-793 -82 634 0
-819 235 -111 0
100 -859 670 0
-180 955 -497 0
-579 316 339 0
117 -385 542 0
-990 -936 -723 0
-844 79 -520 0
935 -329 -16 0
969 -173 -805 0
-722 -490 12 0
-695 -307 665 0
-409 -607 -546 0
96 -436 -16 0
499 904 -378 0
448 444 -203 0
322 -603 511 0
-113 288 -295 0
-875 597 -907 0
211 -641 -185 0
-707 -165 655 0
-906 -967 206 0
-779 827 993 0
-382 40 -500 0
-204 837 350 0
-26 427 459 0
-929 -462 -615 0
-433 -716 -85 0
-206 11 -979 0
-174 1 -136 0
913 140 171 0
812 638 590 0
-161 -491 700 0
-481 -169 -489 0
-828 -787 768 0
679 825 -991 0
473 -301 -51 0
338 936 781 0
572 316 -666 0
-351 -111 524 0
540 -189 -500 0
-120 248 -530 0
716 264 761 0
221 -845 -872 0
-5 -518 32 0
96 295 242 0
960 586 670 0
-104 803 -455 0
-687 -463 -804 0
-135 716 -279 0
459 -816 577 0
689 -174 -385 0
-642 68 -863 0
-240 437 91 0
-18 -728 -281 0
578 44 226 0
-378 -302 488 0
220 58 -892 0
42 45 265 0
-474 -172 -75 0
627 648 443 0
540 759 887 0
214 311 -665 0
-756 407 257 0
-440 -809 942 0
-426 -731 -366 0
826 959 -36 0
-393 215 -141 0
602 -906 -235 0
-808 -427 -776 0
-284 -770 -788 0
577 -573 186 0
38 -322 -917 0
550 496 -594 0
972 -6 -406 0
648 -953 -678 0
-277 -777 205 0
732 -457 940 0
710 -606 -8 0
313 -470 568 0
-323 157 -573 0
-566 681 -986 0
-307 794 137 0
-126 679 -963 0
-446 7 -996 0
-518 -770 -207 0
-96 679 505 0
-994 -73 -982 0
100 -890 974 0
-309 827 677 0
455 -97 328 0
-49 -891 321 0
564 840 -404 0
194 324 -229 0
-880 -893 332 0
-752 966 51 0
117 -717 -54 0
578 -392 567 0
-393 -168 33 0
325 541 122 0
656 28 -109 0
-953 -249 832 0
333 702 883 0
631 131 -838 0
92 5 730 0
869 -999 431 0
449 617 -824 0
142 147 321 0
615 -456 -802 0
306 176 -253 0
-440 322 40 0
736 296 311 0
-441 209 -90 0
63 631 775 0
785 -781 734 0
-128 184 181 0
879 -677 81 0
23 989 -323 0
866 227 -452 0
736 -592 713 0
910 -764 -45 0
-257 906 513 0
199 699 129 0
826 -603 -53 0
353 480 100 0
-167 288 -706 0
948 715 -295 0
-954 861 779 0
291 -441 -890 0
-683 238 88 0
-799 -312 901 0
623 424 -868 0
359 -884 526 0
787 -723 396 0
-111 390 -978 0
-534 -242 -764 0
785 -386 -170 0
84 559 -277 0
-878 726 -504 0
726 -50 695 0
-165 -828 954 0
-771 -842 -482 0
-870 -518 -816 0
653 -406 57 0
-419 564 561 0
-761 -19 137 0
562 592 71 0
183 -53 -795 0
83 167 -120 0
235 963 370 0
-99 -402 467 0
-827 301 -490 0
139 -982 31 0
698 -86 67 0
-398 457 346 0
-378 -538 507 0
-720 -513 -173 0
423 -761 756 0
-468 754 763 0
-711 -406 -696 0
-968 -673 517 0
-401 11 -375 0
144 710 -182 0
-857 826 847 0
810 415 -304 0
180 618 -372 0
436 910 578 0
-435 776 -505 0
-989 466 -478 0
-912 349 273 0
-327 912 -593 0
652 525 872 0
754 933 -853 0
-203 -788 -755 0
342 151 -789 0
208 270 -9 0
-599 -481 -810 0
600 -640 494 0
-918 316 825 0
503 -367 181 0
372 460 -385 0
153 168 -900 0
-55 -669 488 0
-843 758 136 0
-106 -584 629 0
-587 -765 -49 0
424 -887 -718 0
-675 397 -811 0
-150 692 963 0
-516 672 -386 0
269 -720 -731 0
191 -981 -110 0
-987 -526 -544 0
-219 -712 451 0
535 325 481 0
-719 544 77 0
-215 160 -563 0
-130 -638 389 0
819 575 481 0
-119 -747 243 0
819 506 -391 0
519 409 -566 0
722 -867 81 0
418 -386 890 0
-129 556 -933 0
339 -286 476 0
576 97 924 0
-499 365 -420 0
494 -2 51 0
-461 -266 -69 0
-413 673 -315 0
497 470 -419 0
476 854 126 0
-198 -167 -919 0
217 -406 -493 0
-794 -395 611 0
954 148 710 0
-186 -5 902 0
-870 587 231 0
-852 -996 -714 0
284 -719 -349 0
-406 272 -906 0
-561 -403 -695 0
-448 437 667 0
115 -982 943 0
86 -940 322 0
781 139 833 0
2 93 332 0
-227 -560 -624 0
247 228 -274 0
-957 688 116 0
183 86 463 0
-224 265 76 0
-126 -300 46 0
819 291 -229 0
-660 -395 -126 0
-983 831 894 0
-60 415 486 0
84 719 641 0
-8 390 235 0
358 977 136 0
52 447 -866 0
-363 869 240 0
-827 349 268 0
-500 -369 -147 0
-654 619 -403 0
2 -101 869 0
289 -802 773 0
8 674 314 0
639 946 494 0
841 752 179 0
-488 462 691 0
-174 413 -999 0
158 -888 667 0
879 -583 -160 0
-874 836 -377 0
-346 -196 447 0
308 39 984 0
841 388 650 0
-15 -507 -969 0
-447 696 -410 0
-508 -760 224 0
802 347 -127 0
557 -343 631 0
-776 146 214 0
59 -825 -172 0
-940 -683 -313 0
-623 974 -326 0
782 833 945 0
995 708 717 0
-550 -387 -78 0
-898 228 -484 0
-435 -256 646 0
-457 679 948 0
-486 392 270 0
989 207 -689 0
-705 -349 55 0
954 -618 23 0
541 122 203 0
-894 -659 483 0
-13 891 -269 0
589 -338 -575 0
-534 -604 -897 0
988 117 -174 0
165 -879 -686 0
-458 -195 -818 0
199 -860 -47 0
956 995 -199 0
-233 -499 -501 0
-652 -258 349 0
38 -434 -144 0
-297 580 577 0
-436 -350 233 0
51 727 387 0
585 178 901 0
-935 -714 -533 0
90 -446 -729 0
-360 -895 -961 0
914 -842 -562 0
-340 -620 -395 0
-192 682 191 0
851 430 -613 0
-871 -551 28 0
-332 -241 -797 0
-52 -177 181 0
616 -613 -508 0
-702 -536 568 0
332 140 -623 0
-309 20 -405 0
479 777 -102 0
35 133 927 0
-261 756 770 0
-883 -313 879 0
-881 -684 -215 0
-452 -910 177 0
-238 803 -444 0
-666 544 -851 0
822 -711 505 0
547 -56 809 0
-291 -664 -174 0
-258 508 -368 0
-30 -919 -5 0
-285 -433 629 0
-894 -382 -961 0
310 268 344 0
459 -739 -986 0
666 665 -396 0
371 -990 90 0
357 425 -237 0
727 942 -250 0
-990 94 68 0
-832 -281 930 0
-331 236 841 0
-192 -685 -287 0
-582 896 -603 0
772 -38 -361 0
-429 -463 584 0
328 -733 953 0
-273 625 -292 0
67 280 -162 0
-632 452 -663 0
-392 43 656 0
401 247 391 0
-374 809 -906 0
611 668 572 0
-176 -165 -53 0
-789 376 875 0
550 11 552 0
931 158 -284 0
583 544 748 0
-773 -969 -348 0
212 23 -108 0
-68 -967 279 0
-757 612 685 0
79 89 545 0
594 -465 395 0
160 17 -212 0
-194 769 -548 0
-381 336 290 0
-772 -754 35 0
387 498 911 0
-750 -653 710 0
444 387 910 0
130 -702 -373 0
812 324 -34 0
-578 -501 -187 0
-35 -370 426 0
195 251 -914 0
92 970 857 0
-635 -353 -145 0
512 -25 861 0
-865 578 177 0
-599 -873 628 0
-507 293 311 0
309 -926 -622 0
-734 -587 375 0
426 649 123 0
-794 554 765 0
348 239 53 0
-343 847 -884 0
-725 847 -402 0
875 -177 -540 0
-707 -244 -876 0
-319 293 86 0
65 -989 -918 0
915 -564 233 0
-546 952 894 0
496 305 284 0
-639 -368 418 0
-743 386 111 0
172 -439 -315 0
-71 800 -806 0
-806 -203 586 0
843 140 350 0
557 389 912 0
-383 -180 -967 0
-843 -582 260 0
-753 -502 433 0
-572 -546 -382 0
-750 760 -175 0
53 -549 -215 0
-499 -772 492 0
339 -221 672 0
142 27 909 0
635 679 -448 0
-856 -101 190 0
681 -24 904 0
344 567 904 0
920 818 -523 0
-643 -173 -857 0
625 368 -953 0
-203 -899 -676 0
-160 711 -135 0
916 -372 -749 0
-910 784 767 0
190 203 -345 0
-441 -279 743 0
748 -529 -109 0
201 -809 134 0
-596 -13 -237 0
-673 167 -47 0
367 -406 886 0
323 663 -112 0
934 691 -481 0
912 -310 704 0
-478 -921 -302 0
-840 668 222 0
580 -843 -811 0
-996 -991 -403 0
940 -205 -267 0
327 845 -507 0
-116 683 664 0
-882 -771 341 0
469 839 731 0
-26 -841 102 0
666 -719 -29 0
-166 644 -761 0
294 997 544 0
-847 -840 -451 0
577 -848 -89 0
-92 442 400 0
636 -563 431 0
-104 -769 -630 0
399 -528 -818 0
-806 -547 147 0
134 -300 -980 0
359 821 -213 0
-2 -974 264 0
-637 -399 698 0
172 -367 698 0
-206 -139 -521 0
327 -500 833 0
85 187 307 0
-159 -540 810 0
471 953 616 0
-771 35 625 0
-158 462 640 0
780 534 -356 0
55 885 321 0
986 -262 851 0
698 -938 -204 0
63 611 -275 0
-62 -671 265 0
-225 -274 166 0
299 -498 630 0
948 -187 -279 0
-971 -332 14 0
-275 688 905 0
725 192 -124 0
972 807 -758 0
-42 640 68 0
119 552 -821 0
-692 -464 -902 0
-638 -646 293 0
-487 192 974 0
-686 -115 -45 0
989 140 220 0
319 692 -535 0
-963 373 -57 0
430 -160 -911 0
22 -968 -243 0
-788 800 448 0
-244 -361 -905 0
2 -761 602 0
323 197 -740 0
607 50 95 0
-498 -485 -239 0
62 -454 550 0
-265 372 507 0
-995 -790 280 0
360 350 222 0
-51 593 -261 0
-58 -644 564 0
-391 392 991 0
974 742 -604 0
259 -24 -931 0
459 -955 -543 0
-495 223 -623 0
-858 -516 -46 0
-976 398 -576 0
-903 -455 -275 0
168 425 283 0
-714 -694 235 0
556 959 -23 0
-422 -267 -539 0
941 -65 -787 0
178 -363 272 0
245 -101 979 0
847 -624 416 0
668 872 691 0
-386 -874 323 0
-497 -709 -258 0
639 480 769 0
526 194 413 0
-392 543 -690 0
354 950 289 0
-890 -354 147 0
-644 3 297 0
-595 220 -862 0
549 849 -23 0
549 567 703 0
94 -578 -586 0
-782 702 -187 0
-305 219 -674 0
-959 869 -540 0
-384 929 273 0
985 234 -749 0
-271 -36 617 0
597 -575 754 0
-911 -387 969 0
453 681 804 0
-891 908 966 0
233 -530 -565 0
-946 740 555 0
-199 308 -433 0
-719 259 43 0
-744 641 867 0
-835 -802 -127 0
-54 208 -770 0
-995 480 216 0
463 241 -161 0
676 -919 -184 0
753 -341 -643 0
-852 -771 428 0
-509 34 599 0
267 -774 634 0
-883 205 -887 0
489 676 631 0
-29 -532 333 0
-983 913 9 0
-832 286 -195 0
-760 -843 9 0
-427 -749 -701 0
639 -612 -575 0
448 -435 -194 0
722 -71 967 0
-311 -252 806 0
162 782 -507 0
-911 545 300 0
-652 -363 -535 0
-404 925 -553 0
192 753 381 0
-566 -457 745 0
-249 4 795 0
-162 707 270 0
189 -553 273 0
472 -405 520 0
-26 228 189 0
-24 604 968 0
-432 755 910 0
-144 -528 -369 0
-715 662 777 0
-20 430 564 0
633 -338 245 0
40 -123 -103 0
390 -135 -307 0
-791 738 -544 0
343 859 967 0
808 -966 -690 0
-514 385 -713 0
727 -536 -20 0
211 -473 439 0
866 131 144 0
-727 406 160 0
126 724 128 0
-611 -496 939 0
-372 -234 843 0
786 -260 -105 0
-777 -97 -482 0
719 -529 546 0
-101 -670 -276 0
-167 -766 -544 0
-86 -910 727 0
-322 -721 132 0
-580 13 578 0
540 -834 129 0
-77 -863 -470 0
-159 101 -489 0
-374 81 -834 0
-933 -961 822 0
709 -953 -737 0
922 -859 502 0
361 166 -616 0
285 -745 -553 0
109 -979 -556 0
-221 -352 -168 0
-184 5 -302 0
-734 -642 -958 0
132 67 448 0
972 -88 -951 0
-324 534 -189 0
482 -358 353 0
-708 -38 -278 0
35 -218 -842 0
-697 -61 -674 0
339 -392 378 0
733 -410 -862 0
-595 699 208 0
415 126 -186 0
70 -965 -791 0
423 -413 333 0
67 102 140 0
-475 -372 -555 0
723 -187 496 0
-664 -230 911 0
149 -575 -5 0
766 557 -310 0
499 327 774 0
-991 981 -989 0
-262 352 -117 0
230 323 -156 0
665 -169 922 0
-939 65 892 0
-615 -453 702 0
-273 184 777 0
787 -784 405 0
531 -801 202 0
-83 442 413 0
-438 134 823 0
475 347 -902 0
-453 133 189 0
869 -709 -517 0
692 885 -918 0
-638 552 764 0
-229 153 349 0
-5 477 -803 0
-724 713 -291 0
-704 -416 -764 0
-211 287 -585 0
-947 -251 751 0
206 -882 855 0
-495 -507 36 0
-311 922 98 0
-522 499 102 0
-742 -795 370 0
357 -276 587 0
79 -740 369 0
508 -188 726 0
23 712 894 0
-61 910 635 0
353 -514 -920 0
825 -429 -130 0
-162 -381 -476 0
901 194 -882 0
284 550 119 0
162 -721 -683 0
-230 -164 48 0
-651 -592 -575 0
-563 369 867 0
-264 -273 -577 0
-850 682 719 0
20 -367 539 0
179 -83 -696 0
562 -318 -471 0
322 -949 -931 0
831 55 104 0
-519 553 -631 0
-985 96 454 0
571 979 -216 0
-80 202 -934 0
918 575 -457 0
221 606 560 0
260 534 548 0
387 621 -293 0
-498 -554 -155 0
811 -195 -469 0
506 672 19 0
556 -84 -301 0
611 -342 -64 0
-330 42 455 0
197 279 856 0
715 -381 -121 0
-224 929 -88 0
-505 -958 736 0
-916 857 308 0
-834 429 738 0
-699 -384 -309 0
512 -370 -431 0
-492 -94 877 0
52 62 893 0
674 174 -119 0
-54 -975 -475 0
-94 -384 -974 0
30 -833 284 0
-222 -255 967 0
-970 969 431 0
315 -957 -405 0
-748 699 976 0
434 339 -409 0
845 -50 926 0
-219 -994 -669 0
434 811 -728 0
-606 827 626 0
530 -838 -205 0
-877 267 -906 0
82 457 -79 0
861 364 -201 0
-363 896 62 0
-815 -65 -351 0
88 847 -697 0
21 -775 -233 0
300 357 646 0
701 25 307 0
753 294 -567 0
448 -859 713 0
422 664 575 0
-674 493 -919 0
963 509 411 0
149 -621 234 0
-245 -562 21 0
582 366 -314 0
-642 670 44 0
-651 397 67 0
-765 -628 -727 0
218 328 444 0
-167 -897 -811 0
-572 355 627 0
-933 782 -734 0
-209 -133 -867 0
-239 -140 645 0
-817 -377 548 0
777 -145 -262 0
-870 276 420 0
166 -393 -918 0
-727 880 -822 0
422 -44 204 0
-91 -216 -334 0
-782 921 306 0
-286 187 -447 0
-991 585 88 0
555 -174 -462 0
401 888 314 0
-998 -848 430 0
-630 -821 -897 0
-816 -639 181 0
983 -168 -176 0
658 485 -779 0
