p cnf 1000 4250
107 -660 238 0
-145 420 976 0
52 795 657 0
700 -672 983 0
808 -343 483 0
526 393 32 0
367 -242 99 0
689 -265 -391 0
-301 -426 -606 0
-400 -454 995 0
618 710 -795 0
700 550 -85 0
-702 -8 993 0
81 -329 -742 0
-529 382 -737 0
208 -45 719 0
50 136 834 0
-74 793 -951 0
-609 720 -87 0
-690 -767 -320 0
480 248 595 0
-282 -874 -625 0
-545 -424 285 0
789 -123 641 0
-601 -955 684 0
-28 -463 -797 0
-977 887 641 0
-545 -283 953 0
-763 -806 703 0
469 -858 -379 0
-531 392 -252 0
-383 -463 78 0
450 208 -508 0
-512 833 -19 0
749 189 53 0
-761 375 -422 0
-983 -359 548 0
-14 155 307 0
531 -942 -416 0
-457 -1 181 0
967 467 -654 0
184 275 -376 0
-398 -919 397 0
611 328 -953 0
-773 861 -77 0
102 -972 507 0
674 459 967 0
-198 885 557 0
905 -500 656 0
944 462 745 0
-13 45 234 0
-640 862 108 0
-740 610 826 0
-946 -144 -25 0
489 -216 -656 0
-664 -194 -702 0
-494 -719 -384 0
899 554 -338 0
65 211 249 0
-125 442 344 0
737 -31 -928 0
53 482 795 0
-457 467 559 0
694 -38 726 0
826 -21 -401 0
-510 -538 862 0
-443 794 969 0
258 -191 -530 0
-477 -747 593 0
992 -536 -136 0
244 -865 -824 0
-870 -331 -897 0
188 282 660 0
-960 424 -801 0
-861 -300 590 0
55 -981 -67 0
-882 -272 -179 0
-412 -526 -468 0
-340 -891 -776 0
-614 666 425 0
395 942 766 0
-784 699 240 0
-914 -790 664 0
737 -549 305 0
-608 -522 -996 0
246 -545 -158 0
349 270 -319 0
987 -335 -95 0
123 197 410 0
-151 -959 -773 0
-345 -210 -421 0
737 682 -366 0
354 931 -739 0
-79 -913 -507 0
507 -900 31 0
986 -165 -304 0
374 -360 -192 0
-396 948 -527 0
956 551 -279 0
-145 -3 988 0
-247 -493 658 0
-975 593 880 0
277 -453 -81 0
562 415 -110 0
466 315 340 0
-118 -258 693 0
-396 -247 -374 0
-34 287 -784 0
-810 563 817 0
584 532 -776 0
964 -254 866 0
790 657 728 0
-878 -500 -167 0
-923 917 -666 0
-417 -654 -803 0
108 -88 445 0
295 -149 -34 0
765 -87 -785 0
-53 58 109 0
-241 628 440 0
-280 -658 309 0
502 -239 266 0
545 583 -725 0
347 -96 -824 0
699 741 261 0
738 -808 -878 0
602 -999 -767 0
-641 -733 984 0
899 936 -728 0
501 293 -213 0
-341 170 -972 0
-346 -319 950 0
343 437 612 0
-286 -793 159 0
-501 954 630 0
85 235 -449 0
-421 -45 -424 0
816 88 -796 0
933 966 163 0
722 -711 92 0
-327 -759 943 0
-264 781 105 0
-937 -948 780 0
-832 -321 -543 0
596 687 957 0
-971 -134 -934 0
736 -810 117 0
-494 -5 -251 0
-603 125 -373 0
878 931 -109 0
50 -163 268 0
817 -725 -471 0
-730 404 221 0
-798 -248 852 0
-24 -872 212 0
227 -421 -596 0
418 805 649 0
893 -549 -512 0
-12 -138 -413 0
163 -609 814 0
-397 746 -525 0
-525 322 734 0
-260 662 -484 0
434 309 18 0
320 -957 995 0
698 -857 255 0
477 637 514 0
-124 639 -915 0
-977 599 402 0
-478 -688 661 0
-272 -546 -479 0
406 -763 -327 0
337 -618 -632 0
-1000 -145 -538 0
395 -619 430 0
-979 -646 -66 0
204 -549 -634 0
284 -228 522 0
545 893 20 0
-940 540 -531 0
-260 593 -251 0
-59 224 -320 0
-809 22 844 0
-481 251 -563 0
18 815 -300 0
871 937 -795 0
-430 148 114 0
875 308 -371 0
381 -632 874 0
-404 960 -141 0
163 697 -930 0
-467 134 -452 0
337 -958 -252 0
454 -168 -320 0
891 269 -317 0
-674 -685 -52 0
567 -424 -615 0
97 434 -451 0
199 300 -792 0
-129 902 -36 0
317 -22 136 0
605 587 -427 0
501 -865 25 0
-950 -16 -362 0
577 -716 448 0
-668 -391 -702 0
821 996 -442 0
-834 -558 -645 0
-791 -706 -644 0
-372 380 -688 0
-207 772 -486 0
-171 364 -799 0
342 -466 -625 0
-696 -213 -72 0
506 659 -573 0
746 -896 429 0
-513 55 405 0
611 -410 746 0
450 -807 524 0
-914 -257 -357 0
-72 127 61 0
991 942 377 0
-308 -890 690 0
296 -301 -589 0
602 -902 -522 0
720 -167 783 0
-259 -879 829 0
658 -939 -835 0
531 883 790 0
-268 849 -847 0
-600 497 504 0
-316 412 -826 0
634 -512 156 0
177 -696 541 0
-649 -178 610 0
-798 -277 241 0
127 -499 -670 0
-534 -848 296 0
934 -138 -31 0
200 -643 -501 0
782 -960 826 0
40 -968 951 0
-959 -43 630 0
314 520 75 0
64 -102 843 0
-691 -390 790 0
813 77 -554 0
971 -766 -270 0
-571 -956 989 0
-539 345 910 0
439 333 -902 0
-103 26 -883 0
194 -872 633 0
164 -852 742 0
-352 872 800 0
-613 712 232 0
153 169 -776 0
-722 480 873 0
-186 258 354 0
833 -559 699 0
328 342 -92 0
154 466 516 0
-31 -205 549 0
71 -830 -383 0
-484 545 706 0
-649 33 568 0
134 392 -237 0
954 395 698 0
-415 186 271 0
384 -160 762 0
406 -112 -558 0
728 460 957 0
784 -261 -43 0
-602 -318 862 0
-233 130 -667 0
232 615 997 0
912 678 884 0
681 633 108 0
524 880 -306 0
-338 314 -462 0
564 126 -626 0
894 -729 76 0
350 -783 -933 0
-551 -948 -242 0
411 -321 -355 0
-538 -869 -503 0
942 895 -407 0
-253 -35 -828 0
36 248 922 0
-408 -504 785 0
-914 -471 581 0
-165 432 83 0
718 482 659 0
568 -63 -961 0
741 -722 -400 0
85 363 -444 0
751 -597 82 0
-264 -434 -539 0
-836 40 683 0
909 586 -752 0
-288 897 -626 0
-477 762 129 0
-111 -598 411 0
-85 301 316 0
153 -891 -40 0
-800 925 356 0
549 316 -383 0
461 -284 594 0
560 -445 366 0
-692 -579 708 0
-384 -513 471 0
-815 -260 731 0
-861 -555 -288 0
-847 385 -53 0
900 468 -666 0
-26 56 292 0
95 -103 202 0
-355 -293 990 0
117 942 124 0
-390 346 -962 0
39 -101 -296 0
-675 170 402 0
579 283 -199 0
283 67 -796 0
-149 501 518 0
751 717 292 0
-505 -413 -901 0
858 -684 84 0
228 -635 -711 0
-885 173 499 0
292 -278 98 0
-108 -10 780 0
935 37 -626 0
-986 -325 -187 0
344 -794 -943 0
-495 -371 -804 0
440 -968 344 0
282 616 145 0
467 -727 -710 0
-652 -362 -481 0
479 248 677 0
-932 998 -796 0
-292 -452 981 0
-115 434 295 0
286 -583 806 0
480 720 -764 0
877 -60 328 0
807 -105 885 0
-778 -917 -217 0
-43 327 779 0
397 -764 -218 0
633 -72 587 0
807 424 -601 0
677 -362 -535 0
-864 -137 -736 0
321 331 796 0
848 -112 128 0
655 836 -339 0
-899 743 71 0
-339 356 751 0
-11 -680 262 0
384 -582 132 0
-79 680 450 0
-799 -474 -33 0
944 283 -205 0
-520 352 -588 0
972 776 -982 0
894 -55 508 0
-68 -885 856 0
71 -121 409 0
895 815 206 0
158 -453 -560 0
-736 -206 263 0
-219 -121 -360 0
122 -61 -452 0
466 -969 73 0
177 52 -873 0
-771 -291 985 0
584 -582 27 0
907 586 -425 0
691 932 2 0
-600 -139 211 0
-853 768 186 0
967 519 -265 0
24 -879 -695 0
-724 -151 -600 0
555 239 -104 0
290 -184 860 0
735 675 814 0
768 759 -513 0
-896 637 -708 0
828 -279 -916 0
992 586 -492 0
-438 -266 188 0
817 891 131 0
-82 180 461 0
-288 -965 -501 0
998 352 7 0
763 943 851 0
-114 -737 578 0
165 -742 599 0
-290 -239 44 0
941 932 577 0
-468 58 92 0
-948 -261 -472 0
-95 -146 741 0
255 -21 -909 0
8 -105 159 0
-6 -527 438 0
-855 -204 835 0
281 605 -806 0
978 531 112 0
517 -760 -126 0
-336 942 -228 0
359 -735 -382 0
-728 -727 263 0
329 -285 -956 0
-184 580 652 0
-615 -548 998 0
575 -517 23 0
-781 -109 -722 0
-92 43 579 0
978 725 -322 0
503 488 604 0
819 -717 -70 0
-770 -856 -52 0
392 483 187 0
688 -493 -609 0
-620 -247 86 0
-682 386 310 0
-651 677 907 0
-820 434 816 0
97 -897 -767 0
148 -888 673 0
-527 136 -300 0
-718 140 -239 0
874 -963 970 0
-513 499 37 0
-217 333 -408 0
-434 836 330 0
823 746 -805 0
-644 346 -297 0
-493 431 219 0
-307 192 -718 0
202 36 675 0
225 -670 293 0
-132 -47 -4 0
400 -326 343 0
83 815 -31 0
350 85 122 0
-900 624 -363 0
301 -914 507 0
-582 -88 33 0
-411 243 -410 0
449 773 -664 0
-56 -455 -154 0
638 264 186 0
-490 -431 673 0
688 -213 -228 0
854 111 410 0
202 -979 217 0
518 25 -838 0
-772 354 831 0
-494 -931 354 0
189 531 82 0
975 -562 47 0
236 844 587 0
-167 -347 -439 0
755 -925 -559 0
-674 903 895 0
216 117 -511 0
-546 877 -884 0
-711 391 115 0
14 266 -365 0
744 666 886 0
504 925 892 0
185 -809 -210 0
-100 -764 -460 0
-987 932 -945 0
-337 71 -249 0
-508 503 -176 0
-785 414 32 0
886 732 486 0
-603 210 -717 0
357 -128 904 0
935 567 -635 0
271 954 -674 0
563 -154 524 0
462 -251 -794 0
-129 271 967 0
72 73 626 0
585 -334 426 0
-901 548 -543 0
-328 659 -722 0
-232 819 -397 0
501 808 564 0
-822 -306 -658 0
501 381 -288 0
-234 2 653 0
-848 72 371 0
-265 369 -983 0
437 42 214 0
184 263 233 0
-837 -134 188 0
-75 944 -507 0
-410 -865 -515 0
-338 76 -356 0
366 579 -250 0
707 -754 900 0
560 616 -729 0
-551 958 -68 0
576 -604 -40 0
801 749 780 0
-80 -495 -992 0
389 730 297 0
-330 959 231 0
-68 720 -595 0
-961 917 -334 0
-228 370 633 0
969 361 -21 0
467 -656 182 0
723 127 680 0
-108 696 -276 0
931 914 -166 0
249 109 -392 0
-376 434 -472 0
33 191 172 0
371 530 -315 0
-52 -927 -438 0
654 -219 980 0
-504 692 12 0
-164 39 -720 0
278 831 -938 0
441 686 -31 0
52 895 -623 0
813 -195 -97 0
-414 -710 -199 0
-464 844 156 0
773 -237 -808 0
656 920 -707 0
-657 -499 665 0
-428 981 98 0
-615 671 525 0
-841 408 -304 0
487 508 697 0
-237 919 -141 0
-770 -98 273 0
844 84 998 0
-77 915 657 0
498 -911 307 0
495 -506 -541 0
-651 -317 -108 0
-573 -109 -957 0
-874 -352 -855 0
703 -231 -946 0
168 676 40 0
-666 -689 177 0
899 867 -203 0
-306 247 -990 0
-652 -722 372 0
479 445 885 0
-670 -391 -84 0
863 -251 27 0
574 174 850 0
858 246 839 0
407 902 -226 0
764 -484 -35 0
492 -587 593 0
-209 817 382 0
94 786 -815 0
-999 -3 -787 0
77 326 521 0
-96 163 -496 0
-198 -463 780 0
859 625 473 0
316 770 465 0
-190 -487 -773 0
590 439 -60 0
479 850 -500 0
365 -531 -628 0
-103 616 146 0
740 393 429 0
194 -17 -932 0
627 699 -209 0
-770 -757 -600 0
-806 902 97 0
-178 -423 633 0
116 -583 459 0
-858 -450 122 0
-125 928 -733 0
560 426 941 0
-257 581 828 0
-606 157 659 0
795 952 -410 0
-650 195 263 0
-278 -93 466 0
-570 -981 -544 0
491 -956 393 0
440 -821 373 0
-938 -944 684 0
-439 -979 -772 0
663 -618 -399 0
338 366 77 0
-940 533 519 0
-414 265 -126 0
453 393 125 0
-361 -143 488 0
-685 -784 -617 0
-271 829 -125 0
-407 -398 -666 0
385 -243 -496 0
735 242 -591 0
-415 -84 -204 0
-972 543 -706 0
-63 -67 -303 0
37 -16 535 0
-610 953 -462 0
-514 591 -942 0
-369 384 602 0
381 -79 -388 0
-30 836 -926 0
-887 -306 -526 0
-941 -261 -768 0
-321 -977 -4 0
-186 -176 372 0
-511 -958 -450 0
-685 -113 928 0
-415 471 211 0
-37 -863 686 0
-981 -638 310 0
199 483 434 0
744 -225 -479 0
-334 -24 643 0
-159 -577 -567 0
112 -252 577 0
892 596 -143 0
-822 634 156 0
91 -55 -203 0
293 5 -15 0
112 -605 -413 0
-518 924 341 0
891 -531 -875 0
-548 665 106 0
275 -514 240 0
170 -793 -635 0
-661 -396 883 0
62 -496 305 0
660 73 -45 0
375 538 -575 0
540 -965 232 0
301 237 595 0
-213 787 -956 0
468 -812 505 0
683 -463 -670 0
637 945 606 0
942 373 -949 0
959 847 -264 0
-905 601 110 0
943 889 348 0
833 -290 163 0
-89 -735 -762 0
472 575 913 0
173 -222 -203 0
-4 -490 354 0
-286 831 -547 0
103 -51 -639 0
-111 515 181 0
475 -257 -899 0
-474 -618 -31 0
906 582 -980 0
57 -75 559 0
83 -631 -517 0
-965 480 -357 0
459 -578 -657 0
82 58 155 0
-994 -157 -485 0
775 606 673 0
-177 -643 -447 0
-807 -559 -654 0
-371 -871 -252 0
863 -611 240 0
-410 -504 794 0
243 281 -81 0
749 675 821 0
-144 -576 -197 0
891 109 493 0
987 323 811 0
595 351 -141 0
78 358 161 0
363 -624 887 0
-994 -327 -512 0
846 157 -506 0
525 -8 -233 0
992 -1 -364 0
669 157 -66 0
-687 -983 876 0
871 584 -915 0
-862 -23 221 0
-424 -896 -351 0
-149 604 239 0
-59 -467 -338 0
826 552 779 0
-378 750 -923 0
630 700 -407 0
795 947 -236 0
348 -475 -597 0
-235 -243 918 0
240 858 -739 0
-333 -210 856 0
-321 -625 78 0
352 789 557 0
397 -219 -986 0
431 -838 -437 0
-354 -837 661 0
518 -6 -722 0
327 275 -869 0
87 14 932 0
896 -203 -843 0
214 808 489 0
810 832 248 0
-69 -993 672 0
-95 -505 322 0
-556 718 306 0
363 -487 -268 0
-856 857 210 0
24 -202 -350 0
112 -31 -860 0
-865 980 -474 0
613 594 292 0
-455 -729 -328 0
-64 -26 -131 0
-279 84 479 0
-764 877 709 0
4 330 -673 0
202 -934 -475 0
617 -252 -944 0
-563 -34 223 0
-236 -568 345 0
-972 537 -323 0
645 -959 636 0
970 -123 -891 0
-634 -271 -607 0
-454 614 474 0
-825 -839 187 0
837 936 -655 0
794 677 978 0
307 471 -872 0
-614 -919 699 0
-533 -829 840 0
895 867 688 0
-55 83 -58 0
-903 821 952 0
-735 -773 82 0
-971 -253 541 0
499 -688 -439 0
247 458 849 0
660 -198 -477 0
-244 493 631 0
-641 846 -261 0
-46 -28 -843 0
-752 254 -501 0
680 -431 -168 0
-591 -880 382 0
-572 -200 -267 0
753 282 -806 0
811 576 -356 0
998 763 -293 0
294 -348 -507 0
125 -782 979 0
-840 800 -531 0
-621 486 805 0
-343 198 991 0
-708 641 415 0
814 74 -446 0
-382 952 -693 0
563 -141 544 0
995 -133 -219 0
-684 -364 929 0
-708 497 -368 0
556 660 828 0
-432 -76 -523 0
-895 -615 883 0
426 835 -435 0
244 -303 521 0
66 725 567 0
-401 -333 36 0
-367 267 -8 0
-510 -361 63 0
-64 -970 -813 0
-181 -795 -252 0
829 626 -403 0
-435 -944 -171 0
827 705 -590 0
756 907 -188 0
-609 -698 -755 0
40 -980 -138 0
927 -640 572 0
613 -369 -953 0
-429 -94 966 0
612 -579 451 0
183 -104 -221 0
-791 -879 -771 0
59 -40 -956 0
-121 126 -150 0
-406 119 262 0
505 -529 -129 0
883 -474 385 0
-981 856 395 0
-783 309 483 0
-795 -239 357 0
-627 -965 438 0
-634 -257 -14 0
207 414 786 0
127 591 676 0
440 -298 -712 0
-469 -421 820 0
765 867 104 0
366 -457 300 0
631 -346 -805 0
-635 -856 -382 0
437 604 888 0
348 229 -426 0
-893 -926 637 0
-232 -637 248 0
106 -206 -517 0
-136 -848 321 0
459 544 737 0
816 -351 665 0
-578 -638 -32 0
-838 -18 777 0
600 -774 830 0
400 225 937 0
-89 727 -290 0
520 -699 -318 0
-536 -372 -559 0
-691 -772 -509 0
-708 -564 634 0
277 130 -530 0
956 884 -839 0
-604 547 -193 0
-243 183 -838 0
-564 -519 684 0
75 -290 295 0
-907 -761 546 0
835 268 -812 0
560 658 852 0
850 -483 242 0
-21 682 519 0
-76 -704 -445 0
-258 -201 -309 0
526 -991 -47 0
-198 905 92 0
210 -64 784 0
-807 -919 -450 0
185 115 -996 0
371 925 -963 0
-227 439 621 0
716 -807 492 0
256 -304 70 0
-516 269 694 0
882 583 -886 0
785 872 908 0
478 -734 948 0
94 217 -30 0
663 -497 388 0
423 -462 438 0
-458 906 786 0
-232 -43 524 0
-316 -600 -174 0
-965 26 7 0
922 -149 597 0
83 155 495 0
-446 -694 780 0
370 774 -251 0
8 239 739 0
-845 -419 -77 0
-234 956 861 0
-400 -760 579 0
912 -241 21 0
-578 303 -544 0
-998 -268 -336 0
-214 -166 372 0
-111 556 -853 0
-433 374 -466 0
-764 -532 -830 0
13 -522 -799 0
202 826 -471 0
-35 235 722 0
866 36 133 0
-515 441 202 0
-385 -608 -884 0
530 355 -866 0
903 223 945 0
-735 771 187 0
84 -469 -443 0
-720 98 -18 0
-482 983 -187 0
-217 -781 223 0
117 -22 -174 0
-81 792 -285 0
245 -607 -668 0
303 -45 727 0
401 -109 -415 0
-697 229 192 0
-68 -35 -507 0
336 46 136 0
270 314 -837 0
-887 -225 -570 0
429 521 -315 0
642 -543 166 0
645 953 -662 0
253 38 268 0
-960 -929 914 0
-950 55 -798 0
90 804 -525 0
-239 798 -646 0
562 877 848 0
-258 -24 -190 0
266 880 -354 0
-254 -644 -73 0
-139 -768 699 0
793 647 445 0
969 352 447 0
-609 -887 -640 0
-447 -974 887 0
-66 745 919 0
-235 -718 -584 0
745 286 539 0
-633 676 417 0
-279 400 487 0
-560 246 637 0
588 897 44 0
802 -843 11 0
-743 -39 211 0
-289 -202 796 0
-158 -32 337 0
983 -736 291 0
499 -290 -555 0
-831 -228 587 0
-842 -974 569 0
-763 739 228 0
-762 -502 -534 0
138 899 722 0
-84 -268 266 0
-445 -514 967 0
625 732 1000 0
996 560 -714 0
25 605 541 0
-982 105 -128 0
153 425 -78 0
228 -853 651 0
-976 -674 325 0
27 -642 -881 0
-981 -760 371 0
-453 -373 600 0
-999 -16 844 0
46 376 319 0
181 322 -491 0
-73 613 898 0
968 674 -755 0
-958 582 198 0
818 985 215 0
-511 -531 -593 0
-765 105 861 0
538 -576 -438 0
-266 950 -556 0
-732 214 -352 0
-676 879 699 0
-505 -221 119 0
549 420 101 0
274 -836 696 0
-14 -812 -727 0
659 -53 211 0
828 637 368 0
-465 -499 811 0
-130 189 -745 0
-4 -562 36 0
-102 257 -818 0
834 230 631 0
286 -352 -423 0
-37 -890 -379 0
667 -668 -703 0
-531 521 -870 0
-115 -511 600 0
-818 -476 742 0
628 -135 -164 0
-706 -927 -416 0
-937 -588 -439 0
841 56 -616 0
-288 -735 -902 0
448 -693 -452 0
-844 -470 827 0
-838 -181 746 0
694 794 323 0
-456 -776 -418 0
-645 705 -287 0
-482 39 -966 0
712 -200 -886 0
-257 -107 -134 0
-919 98 67 0
818 -80 846 0
926 -89 -993 0
179 265 -695 0
752 -801 -468 0
496 582 654 0
-988 -194 -13 0
-936 -892 -408 0
603 38 271 0
-153 506 -913 0
-282 -457 -985 0
-444 53 589 0
897 -530 -540 0
-42 -410 797 0
-513 -127 -561 0
-901 741 -657 0
874 -165 -177 0
-758 -391 719 0
142 252 5 0
-801 200 -187 0
-738 -167 635 0
664 449 318 0
-375 -588 635 0
414 -562 -268 0
-554 945 497 0
496 471 766 0
246 687 -202 0
-960 -947 -545 0
45 -528 19 0
312 930 -734 0
292 338 -576 0
420 -369 -335 0
187 -194 -243 0
438 319 -765 0
-298 -724 542 0
-514 -163 -555 0
281 224 284 0
-930 -354 369 0
928 409 -24 0
-659 -441 -928 0
-180 954 687 0
-232 -871 -9 0
-32 714 -87 0
923 -28 -880 0
576 472 -942 0
-84 -722 -902 0
607 968 -286 0
-602 142 -757 0
-339 -817 -82 0
756 576 -596 0
188 281 -152 0
-881 694 575 0
116 47 835 0
792 233 -305 0
53 649 -887 0
-963 -721 -261 0
137 53 -26 0
-154 923 871 0
304 30 368 0
-504 623 476 0
-748 90 712 0
-937 148 56 0
860 362 765 0
-215 -374 -53 0
901 -863 -403 0
259 784 -970 0
207 -310 -566 0
-582 397 -655 0
-944 286 -602 0
-323 -966 -191 0
448 -731 -683 0
-564 194 165 0
77 489 -72 0
-768 21 828 0
-885 736 854 0
740 900 103 0
899 -950 158 0
-456 593 284 0
916 906 -831 0
-191 638 906 0
-658 408 -330 0
-215 -481 -49 0
120 212 -795 0
-459 -539 -386 0
10 -905 -559 0
756 338 -402 0
-588 26 883 0
758 -883 -905 0
-561 -532 446 0
582 91 740 0
-973 -932 403 0
782 -718 771 0
182 -904 225 0
-199 452 -378 0
357 -530 300 0
-2 137 510 0
610 -711 -866 0
686 904 -575 0
-520 807 200 0
-765 241 767 0
54 20 612 0
267 489 531 0
142 -21 474 0
299 -584 895 0
373 522 129 0
-255 -315 767 0
-494 -449 507 0
-495 -180 367 0
278 -781 381 0
288 -908 -283 0
758 -242 246 0
309 571 548 0
-995 -832 140 0
969 632 -938 0
396 199 492 0
-664 359 -237 0
-496 -937 977 0
120 727 554 0
-264 908 -813 0
216 419 109 0
92 455 525 0
-263 386 935 0
-824 -964 351 0
-58 -548 47 0
-811 25 -198 0
-976 173 299 0
308 62 719 0
353 -913 818 0
-468 -576 -823 0
631 897 400 0
-814 -414 -553 0
39 887 -399 0
952 -129 -67 0
490 578 -188 0
-460 -749 -379 0
-195 461 -370 0
156 910 -529 0
-114 177 435 0
157 -137 -455 0
-623 -481 -276 0
-637 969 -48 0
127 905 -745 0
-826 -652 -738 0
-999 -149 256 0
339 -350 -210 0
-85 29 412 0
-954 -559 594 0
-463 -865 856 0
738 -573 -500 0
259 -129 -295 0
555 995 472 0
-628 -910 583 0
971 -657 -880 0
282 -221 179 0
-366 -887 -960 0
38 615 -742 0
-96 367 998 0
-128 -562 612 0
-511 784 2 0
-983 652 969 0
-487 -835 -82 0
817 -996 -582 0
-923 -887 172 0
-497 -892 267 0
-195 465 -546 0
7 -326 956 0
223 -124 979 0
-950 -778 555 0
375 415 -732 0
-669 -629 820 0
928 -481 -711 0
573 867 326 0
375 -39 573 0
681 -462 -905 0
-905 543 337 0
-56 -941 434 0
579 602 248 0
248 -967 -881 0
-783 996 -954 0
-747 -783 969 0
-260 -445 684 0
-257 -760 874 0
696 433 94 0
688 971 96 0
-591 945 906 0
-751 731 -920 0
-292 -807 363 0
-615 537 -257 0
-119 459 -197 0
745 -662 -992 0
-690 -825 -364 0
883 741 288 0
-87 404 -812 0
825 977 209 0
612 76 -761 0
959 -738 821 0
977 820 17 0
974 -612 -523 0
-868 -161 418 0
904 354 892 0
-508 480 433 0
-930 -94 841 0
-257 154 847 0
-952 613 39 0
917 150 -555 0
625 -691 102 0
915 -180 -708 0
-243 571 -541 0
755 -228 -278 0
896 -419 630 0
-566 -393 -554 0
61 -150 344 0
483 -44 -73 0
-756 810 -261 0
-536 234 -896 0
434 784 980 0
540 236 -721 0
713 881 436 0
-172 -717 -257 0
-419 -678 -546 0
605 665 831 0
-292 887 823 0
378 95 772 0
-969 -406 -781 0
-609 124 120 0
516 642 782 0
-161 -304 -74 0
-758 -790 -712 0
461 823 -439 0
508 -899 153 0
763 -675 911 0
924 607 110 0
753 -749 -709 0
631 -49 959 0
-27 -792 516 0
-334 -131 -945 0
-204 572 766 0
-74 102 995 0
-773 -795 610 0
-379 -890 536 0
-819 -151 948 0
-13 -108 -553 0
534 -115 111 0
882 -464 -55 0
182 118 -665 0
321 -481 714 0
393 -671 -128 0
181 -517 709 0
-59 -647 -993 0
326 -498 508 0
-347 975 -271 0
-992 -473 -351 0
-80 621 -867 0
508 143 -408 0
-741 992 77 0
-761 -54 -626 0
-19 -438 583 0
-504 638 460 0
-396 -390 -818 0
-6 -234 705 0
448 -532 -417 0
495 355 739 0
512 894 -104 0
574 486 200 0
-431 -10 893 0
783 282 -747 0
735 772 295 0
425 813 -381 0
-913 -308 434 0
164 954 216 0
605 244 -417 0
662 769 42 0
975 571 596 0
882 -776 -645 0
-988 -119 -9 0
440 -137 415 0
-971 167 524 0
-737 642 -602 0
-290 287 -664 0
-385 -783 -865 0
202 -503 452 0
884 893 461 0
-191 517 374 0
282 -801 865 0
234 -170 -880 0
-585 -135 -486 0
870 -191 -242 0
648 711 504 0
566 742 -849 0
-621 183 -144 0
-119 -150 -933 0
615 -489 -795 0
-650 -391 -584 0
172 244 839 0
-874 56 572 0
-539 -326 -215 0
-57 -4 -359 0
-799 67 -805 0
-589 -211 941 0
-959 771 439 0
45 -236 -602 0
914 820 304 0
-670 -238 -20 0
-223 -500 717 0
-967 -815 -16 0
-955 264 -353 0
-237 188 644 0
729 121 138 0
220 363 -328 0
-213 172 -372 0
-263 989 -303 0
-944 -806 991 0
527 -913 524 0
-78 961 125 0
699 -786 411 0
342 -711 -568 0
794 507 -263 0
-968 -697 -657 0
602 -169 272 0
473 -729 209 0
428 930 -315 0
-312 -983 -722 0
-957 -276 -407 0
739 939 -726 0
-980 -161 473 0
-280 -188 584 0
963 920 908 0
427 432 -966 0
-394 -76 82 0
982 -668 365 0
-518 772 -327 0
36 146 763 0
-372 89 703 0
461 -897 640 0
568 -74 199 0
-774 928 599 0
384 894 577 0
739 -254 -576 0
-355 977 -412 0
-268 787 954 0
-835 467 302 0
-152 32 426 0
-551 -557 193 0
-549 901 961 0
-248 174 -629 0
989 -619 610 0
-7 959 -402 0
-151 -616 -217 0
482 -580 -185 0
971 350 -26 0
-100 354 151 0
8 -894 345 0
-103 -228 351 0
-900 70 -192 0
614 -651 743 0
-846 704 483 0
92 -214 154 0
-925 -682 -786 0
-414 2 170 0
266 -406 -513 0
-306 -490 -572 0
-228 187 30 0
880 3 -513 0
540 873 958 0
-798 -480 -377 0
695 149 11 0
951 -372 463 0
-525 -569 -163 0
-189 -28 519 0
391 388 581 0
674 -208 351 0
62 440 -965 0
-552 519 966 0
576 428 -86 0
-976 -352 33 0
100 -78 365 0
-214 -656 424 0
799 -410 -487 0
695 -30 329 0
953 -481 -893 0
217 -991 -989 0
544 -349 -826 0
511 -387 886 0
-213 -343 -445 0
-676 -461 -917 0
301 92 316 0
-502 -876 -758 0
-579 340 254 0
-896 -709 -904 0
731 350 -172 0
-786 675 791 0
378 -224 -515 0
41 -248 743 0
-786 285 -166 0
-281 -121 113 0
-379 290 -154 0
-763 -523 430 0
544 811 -324 0
-334 -341 910 0
-189 -160 -876 0
316 -659 -336 0
144 -881 -453 0
80 630 200 0
528 -367 54 0
-682 10 716 0
-940 -474 872 0
284 108 -95 0
500 846 783 0
180 -871 969 0
137 67 -676 0
994 58 717 0
840 638 -754 0
-988 480 -808 0
762 954 816 0
-442 -492 -472 0
207 217 448 0
894 35 381 0
827 -686 80 0
-644 -610 -884 0
631 -663 -578 0
-275 -42 142 0
560 844 -633 0
-584 -548 -77 0
759 773 173 0
-941 641 -747 0
-908 -287 -688 0
-27 -861 -484 0
-632 803 -859 0
-136 100 -904 0
-493 319 485 0
-145 -375 -842 0
-92 158 -200 0
-43 -389 326 0
802 -189 515 0
-567 815 -851 0
-478 -262 -765 0
-562 682 247 0
733 888 725 0
563 958 335 0
-645 -500 -883 0
724 123 -667 0
251 778 485 0
-439 -184 -293 0
507 310 -695 0
387 826 854 0
514 -650 -313 0
-22 951 551 0
883 -652 650 0
-898 -408 -717 0
-705 -244 978 0
-309 -666 53 0
-711 833 163 0
-958 121 278 0
-720 982 637 0
332 125 704 0
-261 -448 569 0
43 822 -308 0
398 581 297 0
-642 -940 -617 0
113 877 -101 0
-158 726 238 0
-374 -656 423 0
856 -3 363 0
-451 -616 -779 0
420 613 396 0
-545 252 992 0
347 -746 -96 0
233 -16 63 0
466 232 -789 0
335 621 -187 0
166 847 -83 0
-993 -457 -467 0
-856 845 425 0
-316 911 -327 0
-922 -630 63 0
586 -207 -63 0
-896 391 587 0
977 52 -50 0
718 -71 700 0
-336 -276 -699 0
609 -23 -370 0
119 -694 571 0
973 -764 484 0
306 -806 946 0
-930 695 148 0
-154 -133 -621 0
989 264 275 0
-162 -562 65 0
-730 -52 -203 0
216 366 578 0
-123 33 -580 0
947 -193 -59 0
304 94 777 0
461 -756 140 0
-434 489 954 0
-693 265 835 0
-195 823 -542 0
-901 -213 527 0
845 57 -825 0
-564 -101 770 0
958 -521 103 0
-40 250 -677 0
488 980 -786 0
413 -810 -364 0
806 -605 594 0
362 456 441 0
-820 -531 -372 0
-11 290 330 0
-709 800 202 0
382 -672 530 0
884 47 350 0
162 -221 -381 0
145 93 -810 0
-516 -953 63 0
-92 -841 111 0
621 -744 206 0
-530 874 -686 0
912 -821 412 0
-852 713 -770 0
-880 110 -578 0
-553 766 -217 0
-587 115 209 0
-457 -888 -922 0
820 -863 -140 0
-982 -713 -836 0
723 -61 470 0
-523 122 654 0
975 359 394 0
-421 -38 -413 0
386 554 515 0
-86 -598 428 0
51 473 -222 0
99 -936 963 0
-851 -530 -256 0
405 -426 -799 0
278 514 -962 0
-754 -39 247 0
-205 -147 270 0
-617 -409 616 0
-506 -498 -922 0
545 773 -365 0
710 100 595 0
327 910 -780 0
827 -655 -613 0
863 -687 -986 0
94 272 -51 0
903 318 -715 0
224 -174 -595 0
-671 -356 335 0
59 395 877 0
39 888 -291 0
11 -466 -611 0
-943 -994 -568 0
-338 -206 183 0
-960 -487 346 0
-882 -416 -665 0
544 -553 -747 0
788 330 -666 0
-646 278 64 0
795 -869 109 0
-840 374 -39 0
-925 330 95 0
-170 -912 -554 0
-637 229 -663 0
325 631 -672 0
411 -186 898 0
-968 -223 -420 0
891 -868 66 0
117 -405 -490 0
414 -913 382 0
-213 692 345 0
-876 -182 -473 0
449 934 -835 0
276 365 -386 0
-127 -977 -555 0
343 -23 254 0
-637 -950 105 0
647 14 504 0
-276 586 -61 0
-760 875 419 0
-941 721 -986 0
968 -550 492 0
-281 -40 33 0
-973 555 -168 0
675 334 -703 0
-416 -816 -70 0
-909 246 -857 0
91 -301 386 0
-368 -791 761 0
-760 -658 -954 0
84 -684 354 0
173 -609 -964 0
-55 -825 -609 0
-976 -318 274 0
-117 -755 165 0
415 551 -824 0
-350 -293 871 0
-731 -343 -11 0
517 657 -754 0
149 -503 953 0
-660 -112 922 0
164 208 175 0
-51 -573 -398 0
829 -80 -159 0
222 -380 -136 0
26 -450 -550 0
-770 -162 533 0
-821 -625 152 0
-708 495 -95 0
-394 -924 981 0
472 -897 -339 0
966 986 459 0
-412 225 142 0
-221 329 203 0
325 -938 -712 0
-724 -511 -955 0
21 -256 885 0
-76 357 -346 0
332 488 -158 0
-13 215 -262 0
679 -434 614 0
-570 -2 948 0
236 16 669 0
121 895 220 0
-919 -777 -799 0
-896 948 -855 0
-584 -49 -791 0
-99 64 -541 0
-335 520 819 0
-849 850 -206 0
602 -520 261 0
538 75 -640 0
-31 205 -309 0
486 -284 779 0
-222 664 -853 0
75 -213 -862 0
-194 -791 529 0
869 651 -445 0
953 593 259 0
-307 -648 -855 0
-376 -762 507 0
-125 -954 -72 0
437 867 971 0
-68 -703 142 0
-755 -492 259 0
905 983 835 0
975 452 944 0
-330 -212 -866 0
702 173 813 0
-942 -200 -984 0
943 -51 529 0
731 787 973 0
-235 -711 -992 0
-947 646 354 0
277 -265 -55 0
377 32 18 0
891 457 841 0
-328 -253 916 0
802 26 -14 0
134 -647 518 0
-731 -56 810 0
476 -579 446 0
528 -563 265 0
-515 -54 817 0
42 117 816 0
149 -379 -462 0
827 978 177 0
611 -170 -822 0
-869 386 -178 0
965 2 790 0
306 -769 -99 0
-178 -462 -727 0
770 476 722 0
-304 509 -218 0
-254 495 -87 0
-353 550 530 0
-188 -298 -702 0
82 -557 -229 0
930 -612 187 0
955 -616 314 0
-758 -619 -460 0
536 -516 298 0
744 -149 -322 0
-858 -214 -227 0
-593 -136 -142 0
-382 -36 364 0
-486 -226 -315 0
928 -849 677 0
401 -962 -825 0
-839 -583 -915 0
475 431 -444 0
329 475 361 0
-77 134 941 0
160 -679 -881 0
-377 -825 577 0
851 192 -902 0
-281 986 -647 0
-248 -414 -886 0
-952 -741 713 0
990 948 -188 0
692 521 -937 0
-392 -942 -635 0
229 214 -154 0
-675 -185 -620 0
681 -640 57 0
357 551 648 0
-822 601 -903 0
194 -867 -60 0
352 -839 314 0
-957 905 -746 0
924 417 -80 0
57 501 -968 0
-188 152 922 0
49 -769 -954 0
569 52 -310 0
717 321 -498 0
-241 37 954 0
983 -452 117 0
540 -539 -658 0
-720 581 192 0
-291 465 196 0
-775 -311 -575 0
886 -239 -278 0
-929 959 577 0
-991 295 -382 0
891 -13 970 0
-814 -428 691 0
27 -896 978 0
-465 -464 690 0
386 625 332 0
-680 -664 -892 0
916 878 -596 0
545 577 -841 0
162 705 -123 0
-860 -957 -383 0
-637 -267 -282 0
295 114 -581 0
-495 217 -193 0
479 872 -309 0
-843 -578 192 0
465 687 -754 0
-763 675 900 0
-211 833 -59 0
-147 -284 818 0
423 499 396 0
-738 461 -330 0
-423 -613 -177 0
438 -290 99 0
-477 654 731 0
-778 -685 584 0
894 -649 -602 0
435 273 -113 0
-893 708 -551 0
-336 371 -127 0
575 -583 55 0
-449 231 349 0
-394 619 -713 0
-376 171 241 0
-258 -25 -392 0
490 -179 -570 0
487 665 275 0
-168 133 100 0
793 736 -904 0
-721 74 187 0
-51 -756 496 0
709 431 -511 0
855 197 474 0
288 252 931 0
441 -821 -507 0
-83 740 -235 0
274 141 -220 0
-482 98 -935 0
613 865 269 0
-252 485 -265 0
-237 525 -925 0
190 -998 -312 0
289 -467 627 0
97 -477 -820 0
-756 -341 199 0
-176 -930 201 0
-118 931 829 0
301 996 83 0
-44 -672 -425 0
938 950 796 0
709 -812 182 0
-706 172 -425 0
-569 384 47 0
-50 -379 -340 0
-221 641 402 0
-628 -379 5 0
-509 990 -756 0
-109 68 -665 0
-90 -202 528 0
-323 -348 682 0
202 -855 -992 0
123 442 406 0
-698 -77 -749 0
-224 -660 -737 0
813 779 351 0
539 -746 -664 0
374 646 -828 0
754 -34 744 0
146 172 -906 0
52 -306 -242 0
-541 -245 -586 0
364 94 160 0
529 470 448 0
-819 803 -779 0
783 -383 -516 0
826 -739 241 0
159 86 18 0
346 -946 -525 0
-647 -995 -869 0
845 -952 727 0
-276 886 -581 0
996 964 -668 0
353 301 149 0
-660 916 -255 0
-794 -21 215 0
67 328 -659 0
-931 968 887 0
-191 791 462 0
-419 -516 82 0
139 186 681 0
296 -846 -212 0
197 -51 -532 0
-81 193 -860 0
646 910 938 0
630 -788 456 0
-797 -422 52 0
918 -636 -132 0
782 -679 -644 0
747 -412 -151 0
264 440 -59 0
191 111 -440 0
-507 592 916 0
-660 -786 856 0
-163 -409 -755 0
495 -197 385 0
-268 -642 4 0
567 432 -434 0
899 -428 465 0
226 -779 -252 0
-848 -672 -37 0
-942 191 819 0
-226 681 126 0
-910 -694 -659 0
-388 -146 696 0
823 -374 25 0
-692 -68 318 0
-133 -484 529 0
805 -878 -819 0
-815 -486 -418 0
-1000 -382 557 0
-119 135 -565 0
-330 -960 -877 0
952 -335 216 0
-516 -530 -84 0
207 695 755 0
-110 -80 779 0
-183 723 207 0
-285 -998 -56 0
-21 -205 160 0
962 311 -883 0
-269 -782 -604 0
136 548 -36 0
509 -223 -642 0
-139 -255 821 0
272 395 -466 0
-87 -103 39 0
196 -732 -676 0
989 -611 607 0
-468 936 808 0
-431 303 -424 0
-64 -127 397 0
-655 -15 390 0
-180 725 -985 0
664 -492 -426 0
-272 108 271 0
-808 906 -991 0
-541 935 -279 0
-572 64 852 0
-897 -985 -317 0
-207 -101 224 0
365 830 -63 0
-190 -634 719 0
8 281 -71 0
-721 -383 451 0
-430 -360 77 0
-442 -739 887 0
-744 107 -88 0
-25 -456 -919 0
961 501 9 0
196 -988 723 0
-302 -673 348 0
933 -950 976 0
136 504 -454 0
336 -786 720 0
-907 989 611 0
-152 -696 -144 0
314 653 670 0
-345 -683 591 0
807 120 -183 0
-804 929 -608 0
-775 -409 408 0
268 561 -206 0
934 -991 581 0
812 678 708 0
-969 -980 -369 0
353 285 -119 0
238 902 -539 0
756 821 520 0
-290 -573 384 0
-112 851 715 0
697 598 -259 0
-524 151 417 0
317 -645 409 0
429 58 75 0
-393 28 597 0
-196 825 88 0
438 160 797 0
-155 767 228 0
-351 -798 -289 0
-710 -706 -98 0
-693 -633 291 0
-840 -814 714 0
-376 -343 933 0
845 -577 665 0
-851 -383 558 0
-160 755 -559 0
233 577 52 0
-81 698 912 0
-298 112 -17 0
475 29 925 0
620 704 361 0
-293 -443 582 0
754 -99 238 0
-665 -417 861 0
-628 640 207 0
538 958 397 0
-432 -40 697 0
131 637 72 0
627 -513 -951 0
413 722 642 0
-889 532 56 0
-367 -162 -808 0
-72 -965 -455 0
945 -170 486 0
-873 32 -202 0
-173 -550 -11 0
-795 -904 -854 0
-853 58 380 0
676 -593 17 0
-499 800 -653 0
531 118 974 0
-905 -620 -408 0
-552 -666 668 0
291 -679 849 0
-395 595 910 0
195 212 451 0
946 351 -769 0
-691 164 -222 0
-751 692 657 0
945 153 990 0
-548 698 -244 0
-743 349 319 0
663 -317 299 0
316 -609 -900 0
202 -438 127 0
-743 -815 26 0
981 463 -473 0
-316 411 -324 0
508 396 442 0
-971 589 591 0
-717 -270 39 0
734 602 -386 0
-761 -1 120 0
-220 968 596 0
-444 -621 -346 0
455 58 496 0
202 837 637 0
-204 -837 245 0
-271 -335 677 0
130 977 668 0
684 -184 521 0
62 802 787 0
230 -234 -914 0
837 138 -734 0
-768 -538 -55 0
759 784 706 0
728 -110 315 0
944 710 -304 0
610 -809 -667 0
-483 464 976 0
-847 112 -30 0
384 353 -994 0
774 -849 32 0
816 -886 759 0
811 -61 770 0
-122 730 337 0
-433 740 283 0
208 811 463 0
708 851 -939 0
295 -333 551 0
-862 -35 772 0
-74 -513 -258 0
-778 556 651 0
-78 -494 882 0
-789 518 307 0
810 -659 529 0
87 928 -656 0
685 803 -740 0
-332 -833 -608 0
468 942 -29 0
-88 -140 994 0
50 589 -880 0
-545 704 -539 0
-410 -491 399 0
81 870 357 0
772 743 -994 0
626 825 18 0
-54 143 -6 0
-474 -804 305 0
-113 603 -223 0
740 977 -84 0
-251 -281 -497 0
-965 -439 560 0
455 438 959 0
580 -637 296 0
-982 470 365 0
-961 -506 -660 0
44 -447 370 0
-973 -989 -258 0
67 -920 787 0
898 536 -664 0
862 -441 -653 0
346 -606 678 0
604 -639 -393 0
580 615 -593 0
754 138 -58 0
553 -663 573 0
116 -403 -370 0
-886 287 792 0
-939 206 684 0
-490 610 -100 0
-332 -394 -822 0
-581 856 -198 0
404 -933 -637 0
468 943 -604 0
-639 -768 -703 0
-310 78 -53 0
-208 863 521 0
-459 914 765 0
667 802 -899 0
-181 -648 842 0
-1000 418 325 0
-283 970 782 0
-185 -38 101 0
-734 -995 116 0
340 350 321 0
586 -16 9 0
441 429 622 0
253 942 120 0
139 -400 -767 0
451 948 231 0
-816 988 965 0
465 -318 197 0
830 629 -879 0
269 -511 -781 0
-428 37 159 0
-779 291 509 0
208 492 -304 0
647 985 -15 0
510 -710 59 0
-61 878 949 0
-304 573 590 0
599 921 -133 0
-616 -483 670 0
587 -271 -576 0
-877 -15 960 0
448 84 143 0
-767 25 857 0
-602 -370 -312 0
131 879 831 0
-933 -177 -953 0
862 -204 36 0
847 421 -432 0
318 261 453 0
-162 -386 -857 0
-50 909 978 0
805 425 -778 0
238 -397 -464 0
215 847 -656 0
-577 -420 689 0
-743 -711 -852 0
-940 -363 -860 0
918 318 -90 0
487 -614 46 0
934 801 -827 0
837 355 931 0
426 441 568 0
-243 -835 240 0
693 -872 154 0
207 -180 150 0
-871 492 -401 0
964 -2 -245 0
12 510 562 0
-986 887 -907 0
-980 225 -420 0
530 715 200 0
-984 -787 14 0
-459 92 -124 0
-50 803 -824 0
-662 915 384 0
901 265 -384 0
-277 75 97 0
512 254 42 0
547 108 -849 0
41 -74 -707 0
419 -601 312 0
329 556 -387 0
722 -350 367 0
438 336 -103 0
-501 -296 764 0
-159 -734 -791 0
-563 138 597 0
474 64 -731 0
-74 412 841 0
-309 -203 421 0
629 -821 342 0
338 -169 478 0
478 -320 957 0
-345 666 -813 0
-752 -577 -292 0
445 -90 823 0
248 -230 848 0
437 217 -465 0
717 -890 664 0
-850 -498 -266 0
-707 -738 262 0
-805 -474 988 0
-581 -715 -751 0
-507 -405 -879 0
-911 821 501 0
462 -894 -577 0
-800 -249 407 0
-638 327 -878 0
826 401 -940 0
972 -449 11 0
724 -71 994 0
908 -248 217 0
-714 -80 -68 0
-859 527 430 0
15 717 375 0
188 133 -128 0
-423 992 913 0
-11 -794 744 0
377 -293 339 0
-778 -663 -119 0
-675 822 556 0
-750 -54 372 0
353 708 -676 0
-219 -493 -101 0
-398 -11 -80 0
691 -640 554 0
545 -994 437 0
-333 -484 -309 0
411 -117 -633 0
50 -961 439 0
988 -177 -535 0
847 877 737 0
542 271 306 0
-257 241 449 0
458 -190 -152 0
-215 -15 519 0
-599 -822 -410 0
-3 -734 853 0
-174 -814 971 0
202 108 -550 0
-405 567 264 0
-735 374 840 0
-42 -697 132 0
-784 -903 800 0
134 -967 716 0
-842 -112 93 0
309 -524 214 0
132 -926 -840 0
93 478 -104 0
173 339 673 0
942 -743 -884 0
-481 -916 371 0
602 -176 -193 0
21 383 -489 0
934 -258 -728 0
120 -251 -23 0
-63 251 -597 0
347 781 -653 0
402 902 -463 0
497 -76 -197 0
-702 244 -9 0
-855 -676 84 0
821 284 329 0
-615 -87 -61 0
977 -952 -393 0
-284 -84 162 0
961 -101 186 0
-225 -756 -621 0
463 -179 347 0
-279 -331 199 0
-213 281 -877 0
-557 830 -753 0
-390 -274 630 0
469 129 100 0
-709 -608 -363 0
-453 -890 -702 0
-825 700 -81 0
702 -624 -980 0
-374 -43 -391 0
-178 -742 -256 0
-782 -329 390 0
-407 266 -584 0
-539 -840 -498 0
-790 -61 383 0
287 983 852 0
-548 -139 714 0
470 454 115 0
-73 -592 -556 0
819 921 -742 0
-69 343 -91 0
425 849 903 0
402 -997 531 0
-450 -478 -14 0
-876 598 -553 0
788 501 -912 0
-740 -399 20 0
-596 184 646 0
608 -556 86 0
258 -78 -313 0
927 -709 200 0
609 -789 663 0
-798 949 573 0
-751 -721 155 0
757 582 774 0
-529 562 501 0
920 -72 -235 0
398 608 60 0
-239 169 -401 0
-468 -159 -920 0
-816 752 286 0
-302 202 185 0
769 -521 669 0
350 -209 818 0
918 900 57 0
-269 734 38 0
999 -783 -16 0
844 598 -137 0
285 727 -735 0
282 614 -600 0
-664 273 -165 0
-890 920 -322 0
241 600 601 0
-257 888 -403 0
-34 932 373 0
149 278 -170 0
512 889 65 0
917 866 586 0
-206 62 216 0
439 -233 -429 0
369 -203 -824 0
312 85 -895 0
189 -934 657 0
4 -22 321 0
672 -259 -518 0
-403 251 -397 0
356 886 988 0
300 -247 932 0
-655 881 -193 0
-298 -460 -165 0
412 -448 -900 0
154 -677 -777 0
999 -388 351 0
856 364 768 0
-347 -633 58 0
578 -651 663 0
601 -108 -146 0
629 -234 527 0
-439 -930 696 0
395 377 -438 0
22 514 -110 0
487 -108 568 0
831 -335 345 0
145 -672 863 0
-107 -16 -515 0
370 -374 873 0
167 19 125 0
-943 177 -195 0
-563 762 635 0
612 329 198 0
-611 -294 864 0
-456 85 720 0
-480 499 -971 0
-38 345 409 0
517 -526 -49 0
698 992 -599 0
920 -761 679 0
-610 -156 423 0
243 414 -296 0
144 -106 -304 0
-997 -924 -620 0
-405 -958 495 0
-10 -528 795 0
-802 -749 -792 0
-86 473 925 0
785 -699 -963 0
-650 749 -7 0
609 209 136 0
425 355 -190 0
-826 -948 708 0
597 -303 -836 0
-961 546 934 0
-122 79 -483 0
180 194 -659 0
-228 652 732 0
-17 726 327 0
873 197 113 0
97 -96 -244 0
-320 375 337 0
-390 810 843 0
202 -210 -153 0
324 198 630 0
995 950 287 0
-408 -67 -16 0
-240 -218 590 0
-342 418 280 0
846 99 322 0
4 -89 -387 0
-566 206 -586 0
-460 96 507 0
737 -837 632 0
368 223 -2 0
88 123 310 0
759 876 -59 0
-413 -167 -493 0
356 -917 -749 0
643 -228 568 0
-735 61 -212 0
-205 -514 -511 0
-330 -27 -341 0
267 971 -768 0
415 741 851 0
-331 566 -126 0
821 50 -21 0
910 -829 326 0
-805 -719 918 0
412 -859 -653 0
-117 853 -710 0
-133 899 253 0
-26 244 255 0
-175 -82 -854 0
156 -423 -554 0
72 -67 -589 0
911 -58 -517 0
153 682 208 0
-176 308 982 0
-625 -447 -443 0
-57 -961 -811 0
-594 8 902 0
250 -290 10 0
591 128 -309 0
261 -118 363 0
670 922 -106 0
106 140 770 0
933 -421 -201 0
642 -987 124 0
-791 121 719 0
955 604 -140 0
-168 -958 -1 0
-929 -425 994 0
627 678 656 0
-144 817 -572 0
-830 -818 653 0
-19 -854 -50 0
-989 138 -178 0
425 242 -620 0
-762 -686 -328 0
318 656 -130 0
629 -688 990 0
-857 -578 -479 0
-367 581 580 0
555 94 -464 0
169 595 335 0
-10 268 149 0
-635 596 -505 0
646 971 722 0
883 160 -909 0
-81 531 529 0
-45 622 -280 0
-493 -148 67 0
-819 -425 850 0
615 365 182 0
851 676 873 0
400 735 974 0
200 -300 142 0
-782 845 -663 0
225 176 198 0
-200 146 -649 0
482 -633 943 0
5 994 -532 0
-517 411 451 0
-206 961 451 0
202 25 -955 0
-736 -245 239 0
-521 389 851 0
694 -745 806 0
318 -633 284 0
560 -768 -784 0
752 51 -906 0
-905 -49 -277 0
-605 949 -360 0
-81 444 -14 0
-259 767 -334 0
83 809 -854 0
186 363 -106 0
402 -22 -968 0
-97 -783 547 0
570 -469 -666 0
133 735 671 0
-334 -548 -248 0
984 846 -90 0
140 -525 -379 0
197 641 -408 0
214 -703 600 0
-163 -14 356 0
-509 -663 -182 0
-906 304 -418 0
-645 227 578 0
-86 -283 -972 0
97 -824 -269 0
839 -735 134 0
-667 702 611 0
558 -509 460 0
-888 411 149 0
230 840 -109 0
-637 954 -638 0
188 932 -636 0
895 507 207 0
-431 -725 -383 0
-108 -106 469 0
-508 617 855 0
406 -31 872 0
-722 -523 720 0
-111 -422 -763 0
632 79 951 0
-177 -387 295 0
-150 -753 497 0
-92 -733 -174 0
-824 632 -191 0
-743 -247 582 0
-516 -124 978 0
-615 939 186 0
-112 936 338 0
122 -977 68 0
-867 -593 708 0
-746 -705 470 0
774 615 860 0
-34 846 -351 0
-214 -578 -492 0
-32 233 -203 0
251 866 -461 0
-798 -42 314 0
-279 -906 -83 0
920 851 -588 0
-177 -598 -504 0
127 44 867 0
-819 -458 -189 0
136 -709 933 0
-352 713 881 0
-317 -113 626 0
-376 630 368 0
660 124 -608 0
-295 -388 -762 0
331 886 688 0
-31 -180 248 0
-905 334 -612 0
728 920 135 0
916 -312 168 0
-879 -712 -773 0
-340 -200 -637 0
-938 -553 -241 0
873 877 -876 0
-35 355 -626 0
-998 -429 -208 0
137 611 -669 0
70 180 -453 0
978 -242 118 0
-276 -680 -554 0
-220 -200 669 0
-765 191 -55 0
-583 810 218 0
-823 613 -620 0
214 73 -511 0
560 89 -109 0
-145 -18 511 0
749 -370 -431 0
-200 -373 -248 0
538 -432 937 0
693 638 547 0
-305 -726 234 0
-925 855 594 0
845 -969 793 0
-662 155 -588 0
-116 -569 492 0
144 -630 -879 0
322 -754 -628 0
-901 -481 235 0
-941 961 -392 0
-737 -583 -546 0
-61 537 -352 0
623 488 -793 0
714 799 -314 0
159 537 -641 0
-934 -716 -431 0
-663 -895 -846 0
-392 131 963 0
-219 872 793 0
107 42 604 0
72 -23 -130 0
-761 -746 -462 0
-128 -532 -351 0
711 -636 -865 0
183 719 -11 0
-92 -134 -301 0
87 839 970 0
489 464 -938 0
247 -80 695 0
-594 -993 -217 0
217 214 -970 0
-381 -914 -127 0
-336 845 -829 0
1000 -713 277 0
390 660 445 0
344 -225 62 0
185 188 -254 0
-60 -833 -550 0
867 -855 -665 0
894 -46 -701 0
-633 -369 -268 0
735 -90 269 0
-769 -280 324 0
302 -744 398 0
-57 -815 -56 0
-165 -110 -370 0
-651 997 -622 0
-980 40 784 0
-15 556 147 0
-489 -213 339 0
-49 203 73 0
-75 -305 -659 0
-825 484 452 0
354 -624 -161 0
-813 586 927 0
-193 346 -384 0
67 -772 311 0
-666 -323 578 0
-266 558 -556 0
93 -78 -67 0
-105 -242 672 0
-564 -791 38 0
-198 -538 400 0
-372 -350 545 0
463 261 473 0
-561 -79 -503 0
560 -587 -122 0
36 -325 -755 0
-433 616 252 0
-203 -581 775 0
109 770 693 0
-312 471 164 0
251 -793 -326 0
-824 -936 -30 0
772 -155 -395 0
-348 -958 409 0
167 844 662 0
-750 3 648 0
664 -715 202 0
741 -606 -780 0
-678 934 621 0
40 -488 3 0
640 -161 846 0
-372 -805 879 0
927 -676 415 0
-780 497 -305 0
938 -100 119 0
889 728 -256 0
-427 323 -403 0
332 205 657 0
79 -399 702 0
384 -526 979 0
-472 994 -340 0
891 911 922 0
-785 -114 868 0
791 216 -665 0
201 -720 -116 0
264 -9 241 0
439 -379 220 0
487 647 -131 0
944 -474 -134 0
-717 -539 809 0
-307 312 94 0
400 -118 -336 0
-973 -235 548 0
-458 -223 442 0
-727 -958 153 0
-541 505 -658 0
561 617 492 0
894 -377 667 0
626 697 -685 0
-408 -57 -492 0
-195 538 -435 0
459 -551 153 0
-702 769 852 0
491 -464 303 0
795 220 -898 0
-990 894 -111 0
-377 -508 -417 0
-11 544 216 0
-798 -904 206 0
452 -626 -156 0
95 -492 -614 0
926 797 -228 0
280 -417 153 0
593 -879 -289 0
898 -58 110 0
-284 -969 -594 0
-534 -409 -938 0
195 515 712 0
-75 28 449 0
-664 -440 -201 0
864 269 -950 0
-758 -619 -671 0
-610 140 242 0
-751 -100 -732 0
-478 -800 -640 0
-889 -817 -809 0
-158 -645 -882 0
161 735 -778 0
-340 190 -932 0
-343 783 -910 0
487 -971 638 0
-217 587 926 0
746 532 660 0
-620 195 -663 0
160 763 -604 0
35 -195 780 0
689 566 362 0
-549 557 133 0
138 -104 -592 0
953 159 -8 0
756 -953 -922 0
-169 793 125 0
-72 -148 -802 0
-49 -130 -401 0
531 403 339 0
-916 88 871 0
-100 -461 -436 0
453 -849 346 0
-625 879 852 0
691 -808 -932 0
965 -987 -659 0
224 -702 -903 0
-906 -3 -765 0
717 247 699 0
444 -560 581 0
374 706 -561 0
635 -803 991 0
-917 950 174 0
-498 385 -945 0
-984 805 769 0
-737 -960 -963 0
-623 -738 -125 0
-473 793 -770 0
926 -107 -125 0
-310 -976 -967 0
325 144 -156 0
-632 -287 -581 0
470 -221 718 0
-248 988 372 0
-252 -24 711 0
-460 559 -379 0
-37 -680 -193 0
-770 -748 259 0
-79 400 840 0
-278 514 416 0
-102 -201 -70 0
-960 510 -127 0
839 -919 -124 0
-336 -408 -616 0
220 20 150 0
772 174 303 0
483 -321 706 0
570 -64 -510 0
314 637 437 0
125 -878 -53 0
-260 -800 -860 0
20 -966 -568 0
702 543 788 0
-443 -929 -474 0
-783 366 -228 0
-184 290 -347 0
294 -91 690 0
908 -538 814 0
479 315 73 0
800 892 276 0
-192 943 -553 0
-642 173 461 0
775 -534 329 0
-528 -561 940 0
-107 879 -195 0
508 -635 -833 0
-488 -149 -98 0
516 534 -147 0
29 -339 -161 0
567 -84 67 0
599 -254 66 0
-202 -234 107 0
-280 573 338 0
-624 204 -206 0
-274 -147 -232 0
-549 -109 774 0
844 -291 -914 0
717 196 758 0
85 -453 -635 0
894 97 -156 0
-274 690 829 0
-593 -77 371 0
580 37 376 0
488 -376 387 0
-212 -277 -911 0
918 -476 -202 0
-913 -253 -549 0
496 95 474 0
74 467 421 0
475 624 126 0
528 -371 431 0
959 463 35 0
616 -746 764 0
-588 -133 -130 0
178 -583 -338 0
751 -716 206 0
-266 -881 657 0
-529 -17 753 0
300 467 -137 0
265 435 395 0
-529 210 -343 0
669 -414 -931 0
730 625 -110 0
-439 406 -583 0
-29 -952 86 0
-789 -290 -879 0
-858 158 -890 0
590 571 -358 0
199 -84 -672 0
838 406 -831 0
-325 638 -276 0
703 -231 -697 0
257 -166 -63 0
194 291 -24 0
-121 -483 200 0
36 758 731 0
-759 889 367 0
-732 898 -807 0
402 48 641 0
-915 79 218 0
-446 210 475 0
960 -446 -895 0
-311 532 -507 0
-424 247 567 0
913 576 -768 0
412 -968 -332 0
729 569 71 0
-817 -142 29 0
844 449 857 0
-921 390 -458 0
715 -913 -10 0
-388 -361 -697 0
745 -855 91 0
-8 430 735 0
358 -767 -387 0
-855 172 26 0
365 -597 354 0
-359 -657 -158 0
679 795 593 0
981 958 -312 0
-119 -177 315 0
888 997 801 0
103 290 505 0
214 761 -126 0
436 802 -118 0
391 -1 -344 0
4 -962 -603 0
706 -626 -933 0
-390 766 -428 0
295 -478 224 0
-112 364 -175 0
-381 126 -850 0
178 -523 457 0
958 576 403 0
-243 -530 599 0
209 -753 633 0
389 273 258 0
-816 -720 -5 0
140 859 -746 0
-181 96 515 0
885 -225 992 0
925 -817 -325 0
-45 104 -821 0
-62 507 636 0
563 -920 913 0
-160 899 662 0
687 -980 -87 0
410 -75 932 0
218 -581 14 0
-143 37 463 0
-538 -713 868 0
519 -609 956 0
127 -625 28 0
804 5 -338 0
443 905 -205 0
-161 -201 -751 0
17 -736 168 0
-257 906 -152 0
-75 961 -42 0
-903 -396 521 0
-501 370 -924 0
-596 -122 838 0
-95 -497 -10 0
-472 897 614 0
720 -556 -201 0
-876 -757 -600 0
-23 -490 -854 0
-754 -745 445 0
-142 74 -725 0
-880 -175 -568 0
850 -126 -668 0
713 853 462 0
-351 674 -991 0
-531 -181 761 0
-908 256 -933 0
439 -451 918 0
626 902 -115 0
523 909 -187 0
-222 -357 45 0
-408 271 -737 0
-978 560 766 0
-184 557 563 0
380 61 -832 0
-261 -22 -849 0
624 833 -200 0
-83 222 -865 0
-1 676 -545 0
-481 539 -918 0
407 743 -672 0
-720 170 9 0
-10 -373 691 0
963 -747 640 0
628 -6 597 0
-993 690 248 0
387 -723 789 0
274 -896 -55 0
719 -442 180 0
469 -667 839 0
-693 -765 -696 0
-26 -264 317 0
-185 757 -663 0
-424 -315 -538 0
-3 169 549 0
147 -746 -502 0
190 -355 -237 0
-389 -254 34 0
503 897 726 0
-931 -612 -413 0
-572 891 663 0
-14 150 376 0
827 -907 159 0
-511 -359 488 0
-940 400 847 0
-624 -110 721 0
807 487 -758 0
-79 -981 733 0
-448 641 613 0
482 530 523 0
43 287 91 0
-82 -820 -747 0
763 636 780 0
-465 -577 -15 0
-41 -844 95 0
-496 825 841 0
-740 523 -286 0
117 486 557 0
887 -188 29 0
-684 -235 686 0
-445 908 279 0
844 -30 -683 0
590 -954 -813 0
494 393 490 0
245 968 627 0
360 134 878 0
736 -838 -599 0
791 767 -768 0
-265 -445 505 0
-634 -724 35 0
-489 782 358 0
963 344 -639 0
-652 297 301 0
555 -43 357 0
159 -840 104 0
-438 -161 -552 0
43 527 494 0
-260 244 389 0
-295 369 487 0
319 -868 -439 0
905 -22 -447 0
-723 914 437 0
287 805 271 0
-413 -885 755 0
16 797 696 0
505 178 -486 0
-984 -976 593 0
174 -269 -762 0
-753 -112 178 0
720 -980 -300 0
-380 120 -784 0
-797 -577 -272 0
137 -27 1 0
-303 -605 361 0
786 644 715 0
69 -959 -212 0
841 159 227 0
-862 -144 38 0
-816 -876 -873 0
759 530 -116 0
-758 -256 -891 0
-49 -402 -818 0
-485 -804 63 0
-846 544 -53 0
-502 251 -900 0
-221 -595 530 0
-948 -827 433 0
846 -312 -527 0
926 -684 -820 0
-634 -723 65 0
486 -479 -59 0
142 -940 178 0
-637 709 -312 0
-328 -598 944 0
-591 -978 -755 0
-435 183 -400 0
-670 -129 200 0
-284 -700 -544 0
989 -41 909 0
-542 871 -345 0
-171 908 247 0
118 -6 193 0
-785 -857 211 0
-971 -505 -562 0
-842 255 43 0
-650 -961 -930 0
318 377 100 0
779 -603 -88 0
-246 -225 617 0
-182 -174 905 0
839 421 -351 0
534 865 -51 0
305 802 662 0
-121 -851 -940 0
-133 -378 -255 0
-137 631 133 0
-624 843 -167 0
-56 -646 -73 0
-32 -867 -238 0
-887 768 -18 0
-765 -887 -620 0
396 -386 -794 0
-717 293 -350 0
-990 -521 518 0
333 208 775 0
-777 -117 -556 0
155 -104 118 0
-221 -744 -642 0
880 906 739 0
-299 -780 -877 0
-88 -540 -278 0
862 -759 -499 0
-447 -915 -716 0
611 1000 474 0
972 -600 137 0
870 -123 -241 0
210 421 -675 0
712 987 -820 0
811 -599 -49 0
151 884 188 0
-948 -479 536 0
888 -518 -626 0
-692 742 5 0
-501 995 114 0
59 264 -337 0
-107 765 855 0
145 -125 -298 0
-175 410 -870 0
130 145 -481 0
-375 -259 898 0
-126 -163 -655 0
491 -284 941 0
235 431 975 0
119 -103 -977 0
-783 411 -288 0
898 -442 -485 0
-414 -479 769 0
-5 543 301 0
-242 480 -236 0
173 -949 -13 0
315 148 471 0
913 -240 437 0
165 -402 -312 0
110 828 -401 0
-70 -130 -649 0
183 -584 814 0
-959 -410 -760 0
286 -763 -76 0
-790 -366 -107 0
-137 776 -287 0
-642 -876 104 0
-59 640 -254 0
-750 480 160 0
-846 -591 863 0
480 749 -832 0
478 -791 533 0
-839 320 906 0
-170 -929 -687 0
-642 333 -873 0
438 894 404 0
645 -742 -357 0
-330 -698 194 0
477 333 713 0
-492 -989 462 0
737 -216 849 0
-102 -885 -638 0
-607 -881 894 0
-32 800 -746 0
-69 22 -342 0
892 -324 627 0
-345 578 -222 0
-405 -868 -43 0
-281 343 -454 0
-913 848 -350 0
604 690 510 0
-347 336 270 0
171 293 -259 0
895 992 539 0
874 866 -963 0
392 260 24 0
-426 -658 -562 0
-128 -875 971 0
-12 -346 869 0
-645 214 -39 0
414 994 -549 0
-616 -898 109 0
-286 -610 -170 0
-503 -573 577 0
26 16 678 0
-964 658 144 0
-139 431 -540 0
-483 -818 -749 0
-41 -685 -370 0
-457 -63 -570 0
274 332 -696 0
-783 749 295 0
-448 -54 235 0
-342 775 -520 0
-808 60 503 0
-662 -996 114 0
-497 -350 90 0
-490 578 -178 0
156 -36 -252 0
346 -723 325 0
-776 -509 -841 0
858 -986 -244 0
-115 973 -860 0
247 886 752 0
258 -334 -59 0
-260 -60 -312 0
614 83 -106 0
-498 -971 -741 0
38 -88 137 0
-573 -904 830 0
457 236 348 0
778 -803 186 0
-219 -821 163 0
421 -267 -190 0
296 -5 -70 0
302 613 669 0
-996 -605 -241 0
-452 -858 963 0
619 -509 979 0
286 564 -947 0
-313 242 -786 0
-229 491 815 0
134 -179 -284 0
-531 -391 755 0
-50 -343 -846 0
-285 79 634 0
-28 -854 -373 0
539 902 104 0
-845 -478 -167 0
557 615 -378 0
-513 -476 -138 0
460 -465 -673 0
-149 -565 -667 0
895 826 821 0
-77 -10 -673 0
393 268 987 0
807 -194 690 0
-350 -254 359 0
992 -838 408 0
373 -958 -845 0
-32 832 -82 0
-286 756 -928 0
-763 -448 -543 0
-316 961 491 0
-592 -626 343 0
-282 921 647 0
783 354 795 0
744 -807 332 0
-154 851 217 0
-917 751 847 0
-248 -348 844 0
882 630 808 0
234 -76 406 0
-658 135 -737 0
141 -928 26 0
-751 398 304 0
-323 908 -554 0
660 -78 -895 0
-889 762 -726 0
125 291 952 0
-103 -673 -64 0
-661 663 -414 0
-962 52 -845 0
149 -987 -216 0
-92 764 -743 0
246 -871 537 0
-214 915 131 0
-374 -160 -229 0
637 473 97 0
289 -173 -447 0
283 -299 165 0
-361 883 -702 0
-893 613 -124 0
-43 830 -912 0
149 -95 -594 0
678 929 815 0
329 432 685 0
-690 579 -110 0
-782 -488 -20 0
-339 -909 692 0
559 -167 855 0
814 726 -517 0
-238 191 -249 0
141 -776 15 0
-953 523 745 0
-100 699 -135 0
-688 671 -477 0
-637 153 -217 0
-20 487 815 0
441 -715 -489 0
562 48 -524 0
286 8 42 0
800 -4 859 0
984 972 -709 0
334 219 809 0
229 -851 561 0
-974 -135 -682 0
-108 -684 -347 0
-855 924 -740 0
-518 635 224 0
-373 449 627 0
-926 533 990 0
-458 -707 -183 0
-24 -842 -682 0
-552 474 706 0
646 -62 545 0
503 -810 -369 0
-817 992 -703 0
742 3 -435 0
39 190 -555 0
-208 -477 804 0
-59 -385 -21 0
961 -164 -365 0
-566 567 -114 0
-160 512 -781 0
-678 -865 469 0
-478 369 531 0
408 -872 -180 0
332 846 406 0
-45 -675 -533 0
-609 -649 519 0
-227 384 698 0
-470 279 444 0
848 -654 -161 0
582 730 -413 0
-426 67 -862 0
-920 -770 -506 0
-475 -138 -322 0
921 970 215 0
34 -854 29 0
-552 546 296 0
-429 983 792 0
-551 -457 -79 0
18 -334 -505 0
791 769 447 0
555 845 -784 0
801 305 893 0
778 277 -856 0
-523 193 483 0
596 639 -288 0
-963 -528 -32 0
321 -578 699 0
294 215 -867 0
736 -799 987 0
300 -239 -783 0
160 -574 334 0
-91 -177 -917 0
689 119 -701 0
987 -479 763 0
-397 -195 -278 0
-610 -295 -630 0
985 650 96 0
410 -877 -443 0
37 56 979 0
111 728 438 0
-760 -181 -124 0
-180 301 566 0
-249 -258 -106 0
-242 -960 899 0
382 590 -790 0
-118 -361 -374 0
-773 -955 -189 0
-698 -724 -44 0
-866 -820 384 0
581 -963 256 0
1 -933 -728 0
932 -325 742 0
12 731 129 0
-126 934 -529 0
-751 228 271 0
996 993 -737 0
-82 -496 -471 0
-390 317 174 0
-424 733 585 0
131 -176 -82 0
-155 -899 649 0
688 -239 323 0
264 853 276 0
-404 -688 481 0
-20 923 -305 0
585 -301 734 0
-407 -468 -453 0
-130 -575 462 0
-50 -636 -841 0
-750 240 686 0
-1 -517 -973 0
337 -555 -6 0
-155 165 -129 0
536 -322 751 0
620 -522 906 0
442 182 739 0
426 -656 237 0
837 366 -682 0
-807 124 -230 0
-798 -317 -730 0
992 701 -646 0
-777 -397 704 0
468 -556 411 0
-352 -504 -681 0
-668 702 363 0
-751 738 -870 0
-328 -402 853 0
-707 -952 327 0
-997 -402 110 0
-585 977 527 0
673 -463 648 0
-932 333 234 0
991 -687 -424 0
-49 -632 311 0
-628 -361 94 0
321 -6 -230 0
511 575 999 0
-166 374 914 0
15 -223 -997 0
668 -830 -155 0
331 949 480 0
-963 226 -304 0
-598 686 -805 0
153 -420 242 0
-11 752 10 0
609 51 -542 0
-566 137 -640 0
607 -108 743 0
82 -116 -876 0
-942 -634 11 0
302 -497 964 0
-91 259 784 0
298 594 -562 0
-229 995 767 0
-970 -747 -68 0
655 310 -591 0
-231 -639 -132 0
-317 264 -596 0
-1000 -597 667 0
86 330 793 0
193 645 137 0
-649 416 -445 0
-438 703 -639 0
-931 709 -395 0
-727 -61 404 0
-832 820 -214 0
707 -558 -875 0
876 731 528 0
368 706 538 0
-174 456 -239 0
829 122 826 0
393 627 388 0
-444 537 112 0
-612 399 -78 0
213 -174 369 0
712 -750 -883 0
-307 940 -801 0
486 -821 -355 0
216 163 354 0
316 57 322 0
-997 540 329 0
-265 755 -393 0
-933 -703 -593 0
375 377 695 0
-557 176 939 0
-840 120 -287 0
945 -42 -202 0
-538 807 791 0
676 946 552 0
433 679 -772 0
-613 -639 -155 0
-775 -136 403 0
-735 -996 488 0
-310 483 -945 0
-140 -556 -386 0
-239 -292 567 0
551 -295 516 0
885 -361 208 0
522 -444 -201 0
323 -194 318 0
305 -780 -812 0
-334 247 -195 0
989 -686 -789 0
-64 -15 138 0
308 852 -878 0
198 180 126 0
730 -810 359 0
-441 380 -299 0
579 566 -658 0
536 479 657 0
-824 -637 103 0
657 355 576 0
601 -984 870 0
-853 -863 -297 0
-270 -282 -755 0
-658 741 380 0
-478 174 383 0
-519 150 -534 0
402 632 843 0
665 -182 26 0
-950 -364 566 0
-847 -112 639 0
869 -493 -492 0
-914 733 181 0
576 23 164 0
-560 -853 501 0
-197 14 -540 0
-449 -862 122 0
-580 386 389 0
-976 -9 503 0
-327 314 -489 0
-133 -172 144 0
-153 539 -473 0
717 931 -347 0
206 -786 275 0
-624 -124 -6 0
928 -348 -752 0
424 -803 459 0
580 -190 930 0
589 -418 463 0
-734 -633 376 0
387 105 -695 0
876 -898 -295 0
-888 -252 152 0
918 -903 599 0
327 73 463 0
-287 392 353 0
-170 -571 -608 0
-140 399 -738 0
-909 -18 -950 0
-337 460 414 0
14 332 325 0
-33 -848 -512 0
954 415 -771 0
589 -560 -187 0
-326 -521 -791 0
668 308 140 0
-255 -769 -868 0
-389 -933 -20 0
-5 800 -198 0
898 -649 916 0
262 -382 -316 0
824 -469 -870 0
599 -196 -761 0
742 661 -471 0
-384 -785 -289 0
-335 864 -318 0
-777 -535 888 0
662 -260 -630 0
32 891 -760 0
24 882 -665 0
-303 -889 -138 0
-765 859 -198 0
446 861 -781 0
454 -16 631 0
698 3 613 0
-417 551 -731 0
-266 -630 -801 0
-891 -849 -118 0
960 -669 59 0
-829 -700 757 0
778 867 254 0
112 961 797 0
-799 947 -691 0
165 872 596 0
-210 164 940 0
-58 -5 234 0
390 939 -590 0
304 -346 -192 0
-556 612 223 0
986 987 530 0
914 -249 -677 0
-868 642 -974 0
952 983 424 0
224 500 -821 0
-80 -994 -676 0
-962 -984 179 0
831 -962 337 0
-186 398 381 0
788 927 360 0
374 -901 550 0
-738 17 855 0
392 304 305 0
-348 897 -393 0
358 -360 960 0
807 703 -732 0
934 716 -357 0
575 -508 -704 0
706 -946 -228 0
-957 870 955 0
-214 113 244 0
415 364 -233 0
-40 57 -859 0
913 787 706 0
84 263 893 0
934 769 438 0
847 -720 800 0
900 -533 -399 0
-750 -892 -758 0
425 114 -909 0
-155 -475 -377 0
647 429 -236 0
-403 -417 599 0
-649 60 570 0
546 -129 -554 0
453 -189 -771 0
-66 -790 920 0
-25 -494 678 0
859 929 153 0
-988 -925 391 0
756 -255 -367 0
-35 -108 -832 0
-444 -123 -185 0
551 3 -327 0
741 162 -8 0
83 644 143 0
-831 -468 -676 0
-939 -601 679 0
-367 -261 -1 0
560 -294 -979 0
210 579 -187 0
966 -523 -14 0
33 -56 591 0
187 190 128 0
823 -301 494 0
-554 200 -334 0
478 -816 405 0
-306 504 -229 0
497 21 -300 0
265 780 -162 0
139 -665 331 0
-301 -681 424 0
-172 87 161 0
-13 -917 -957 0
221 -482 -25 0
-253 -340 -441 0
936 -926 -57 0
-161 753 992 0
935 709 610 0
-858 796 -228 0
427 444 386 0
-566 41 -490 0
-602 -201 -463 0
549 -697 399 0
-614 -647 -183 0
609 -592 801 0
414 -322 592 0
-28 134 509 0
-15 -560 856 0
-483 -591 -533 0
-390 333 177 0
570 -70 -378 0
-631 -155 -992 0
-700 -47 -190 0
967 726 -237 0
-198 669 -698 0
54 -519 883 0
-296 -105 -184 0
228 -688 -367 0
868 -865 -965 0
233 -487 -371 0
-539 958 -43 0
865 -636 -994 0
-161 144 -468 0
834 833 148 0
360 -540 -686 0
316 -877 -583 0
-521 -492 405 0
22 776 -49 0
802 -857 -502 0
481 826 -636 0
-244 423 310 0
498 275 -732 0
805 611 -562 0
-5 -13 136 0
-188 808 -677 0
-297 660 938 0
917 -603 636 0
98 -91 -384 0
-33 -710 703 0
812 -544 -340 0
425 -751 860 0
-415 -722 -60 0
413 -729 -369 0
-70 44 -133 0
906 -965 -422 0
716 959 240 0
-594 858 -449 0
-653 -352 -683 0
-351 -633 216 0
-908 502 -740 0
530 -571 51 0
237 869 -199 0
-997 274 -904 0
834 412 349 0
657 -370 982 0
-97 310 397 0
830 246 -738 0
613 -778 -765 0
858 -524 517 0
795 -172 -496 0
245 759 -680 0
-79 257 -619 0
-261 443 413 0
532 206 -101 0
-515 608 -796 0
501 774 -98 0
-454 -757 765 0
-294 -75 -944 0
-275 -37 -109 0
347 -452 -644 0
117 718 -912 0
492 339 565 0
830 -83 -458 0
940 923 709 0
224 -871 -94 0
584 79 -392 0
-844 -613 -56 0
719 -990 215 0
-549 -744 -48 0
816 180 749 0
-646 -709 -183 0
199 70 -835 0
371 -52 489 0
756 940 719 0
688 672 -36 0
-342 406 780 0
-4 432 59 0
-674 -461 273 0
-957 505 756 0
160 -971 313 0
-250 813 54 0
-873 502 273 0
327 575 413 0
647 -469 740 0
-758 487 -512 0
-657 419 -50 0
7 -1000 354 0
899 339 -368 0
330 -21 -460 0
-700 -57 557 0
-606 813 203 0
-937 587 -252 0
128 -878 -480 0
78 944 -408 0
470 -122 -81 0
483 -192 579 0
323 -220 -189 0
-75 -942 558 0
-707 240 600 0
-664 828 890 0
-56 -861 550 0
-430 -800 -678 0
939 -259 10 0
2 -81 -84 0
707 -720 -14 0
-394 -516 33 0
87 912 849 0
796 -937 236 0
-568 758 -580 0
149 -911 -437 0
115 888 318 0
-132 -157 -390 0
295 -68 878 0
27 819 474 0
979 88 145 0
-746 -456 337 0
9 -759 -430 0
-353 878 -378 0
-606 -785 347 0
976 -972 528 0
-505 204 -788 0
-927 456 468 0
-100 -840 -344 0
299 806 820 0
327 -96 -196 0
-143 467 -539 0
-495 -568 547 0
258 452 -650 0
784 -620 574 0
208 -268 -775 0
242 -382 -425 0
45 -780 -107 0
-597 789 -991 0
-663 -185 850 0
97 -394 -831 0
-78 494 -235 0
-735 491 -829 0
191 -172 -923 0
172 503 -716 0
516 717 433 0
239 -105 -872 0
-49 342 -74 0
470 564 700 0
367 -43 -67 0
-437 -784 -209 0
973 203 450 0
985 598 812 0
228 217 113 0
-364 218 613 0
705 -360 -891 0
166 -164 836 0
-752 249 -749 0
-696 -101 -588 0
364 851 -348 0
203 389 217 0
811 -522 -406 0
125 -217 -766 0
-629 875 -332 0
-648 -19 -619 0
439 443 -455 0
235 347 292 0
956 -265 626 0
467 -600 258 0
-131 416 -851 0
390 -219 567 0
401 -924 -724 0
781 -312 355 0
545 43 489 0
844 -693 581 0
-409 527 -375 0
-263 254 -426 0
-859 172 520 0
-699 687 615 0
-962 51 187 0
-174 -477 172 0
192 919 -968 0
136 233 -936 0
764 -277 704 0
539 917 -276 0
-541 -900 938 0
-612 63 -906 0
-320 178 660 0
772 -188 -501 0
147 955 399 0
-728 278 280 0
519 153 -370 0
167 82 704 0
245 -700 190 0
-738 -954 593 0
-331 706 -265 0
127 -216 -881 0
-891 -334 -316 0
-901 91 724 0
271 454 -657 0
906 981 748 0
-140 956 -308 0
51 323 733 0
463 472 -468 0
132 -119 14 0
-871 -296 -134 0
-842 -180 -993 0
-97 418 -475 0
-961 905 -424 0
780 -813 -510 0
462 670 -259 0
-313 -455 -285 0
-874 153 -50 0
66 -293 -746 0
-775 813 328 0
-113 787 180 0
-290 894 323 0
603 -770 733 0
-455 -541 167 0
724 -474 -202 0
-815 -6 -105 0
-945 -573 141 0
841 -917 120 0
-308 -772 303 0
926 -438 -268 0
-943 -57 -771 0
-877 118 -119 0
-679 407 893 0
39 532 855 0
763 10 836 0
-1000 526 -162 0
581 -498 -120 0
-27 -626 -125 0
767 -787 -632 0
937 106 -557 0
609 -676 -76 0
-505 -681 -125 0
103 967 -282 0
-140 -300 -495 0
-180 228 46 0
-667 13 -859 0
766 786 -745 0
-819 -359 -480 0
665 -892 -640 0
-714 -33 -634 0
-245 -229 638 0
745 -376 -805 0
-131 -850 -184 0
-987 579 -516 0
670 867 173 0
-888 -557 -537 0
100 127 313 0
252 663 176 0
-400 -368 138 0
5 -464 -744 0
66 -653 -910 0
573 42 -848 0
-588 -339 -896 0
-378 -275 -594 0
245 40 587 0
596 -376 684 0
-429 -644 -386 0
944 559 134 0
-449 308 617 0
-175 -6 833 0
732 -148 -895 0
-479 301 -334 0
719 511 -938 0
476 -937 -564 0
260 190 -765 0
-601 313 569 0
903 229 815 0
-776 -987 -76 0
971 775 763 0
257 -919 99 0
-831 -27 -45 0
-396 -244 -686 0
-857 111 -899 0
299 110 -211 0
204 -921 1 0
71 -976 349 0
198 110 -412 0
-656 -297 349 0
737 873 -454 0
-459 775 273 0
-983 -693 258 0
64 515 -237 0
-863 -243 -410 0
-743 -302 204 0
-391 -596 877 0
798 -986 747 0
-622 111 165 0
-967 -911 136 0
-841 24 603 0
-645 600 829 0
291 93 111 0
-610 697 88 0
895 261 571 0
-550 -555 733 0
-991 761 -150 0
-992 -971 -464 0
560 -675 427 0
857 437 -310 0
377 872 210 0
319 470 371 0
-960 849 7 0
519 -436 -308 0
297 344 -829 0
-671 277 626 0
773 927 293 0
-197 -516 799 0
-749 -472 88 0
755 -174 -470 0
-28 -626 44 0
-107 -54 -907 0
813 -520 696 0
827 -317 -805 0
720 -502 904 0
529 86 755 0
-157 527 -383 0
-784 -191 62 0
299 -373 -685 0
-546 -638 16 0
-49 189 -915 0
969 -779 -943 0
-292 -63 -186 0
-671 -977 -518 0
514 -143 422 0
-1000 737 806 0
910 7 -890 0
-357 538 290 0
602 95 -767 0
125 -863 91 0
890 826 -4 0
-750 360 404 0
-380 -650 -111 0
-828 160 584 0
932 733 229 0
300 -16 220 0
-515 712 -847 0
-868 5 797 0
963 681 -953 0
-101 -790 -736 0
-595 -270 300 0
-465 -371 700 0
-655 -162 846 0
144 455 -374 0
827 -907 -278 0
-667 -21 -565 0
-650 -907 68 0
-770 916 522 0
746 108 421 0
584 279 -354 0
780 -894 214 0
-244 389 -814 0
845 766 -841 0
589 834 -512 0
-881 -527 -406 0
594 708 -247 0
172 437 -87 0
587 678 -168 0
891 64 833 0
-855 508 -255 0
306 967 470 0
-440 -633 -393 0
607 352 809 0
528 -272 -244 0
34 -382 352 0
267 583 838 0
-640 954 647 0
989 -441 723 0
-17 -707 388 0
-589 -839 133 0
-389 73 547 0
-604 428 583 0
885 -437 -920 0
-282 711 -472 0
717 -958 -2 0
345 331 -748 0
-726 -112 356 0
-359 335 964 0
-697 120 510 0
540 -621 801 0
-566 977 -698 0
261 357 -771 0
915 649 437 0
445 74 -385 0
194 799 -594 0
-72 348 -724 0
927 870 -762 0
518 -71 629 0
-960 333 955 0
77 -821 945 0
-167 942 -241 0
240 -731 977 0
969 335 -588 0
268 -921 250 0
-949 431 31 0
407 126 -972 0
-426 37 412 0
592 629 36 0
373 602 679 0
275 -478 601 0
95 -552 961 0
178 204 2 0
-529 -454 811 0
350 283 -803 0
-732 -707 -692 0
223 -165 708 0
306 459 -640 0
-186 -83 -11 0
290 866 -371 0
-596 -245 -910 0
-416 922 -364 0
465 712 -288 0
-241 -200 848 0
849 -176 -594 0
745 -67 -808 0
-774 -714 644 0
-309 -396 61 0
79 393 120 0
645 397 -947 0
593 487 -740 0
112 628 -35 0
583 -512 927 0
-824 -18 -645 0
-181 121 -182 0
334 -754 251 0
628 256 -876 0
-250 333 514 0
-905 354 399 0
476 904 313 0
192 -932 51 0
463 326 -275 0
-155 -558 9 0
555 173 676 0
-638 475 -784 0
654 -138 695 0
750 -5 -613 0
901 -945 707 0
968 630 -516 0
-472 539 122 0
-333 -94 -55 0
832 -990 -184 0
645 16 389 0
56 -893 -498 0
822 -981 -622 0
124 -666 637 0
-694 222 -306 0
147 -57 -849 0
-189 -610 562 0
-590 997 -143 0
319 -894 -563 0
971 986 390 0
-414 776 -60 0
385 737 -542 0
421 -537 364 0
-908 290 62 0
145 309 88 0
917 -116 442 0
-981 357 -591 0
937 -524 -186 0
11 -49 979 0
-451 340 597 0
-659 171 591 0
-627 447 581 0
566 387 -128 0
911 605 -914 0
-173 642 698 0
492 883 531 0
-31 -577 49 0
-833 -737 -409 0
929 777 515 0
647 -522 -908 0
530 25 491 0
-678 914 278 0
-530 592 -121 0
745 803 -591 0
-220 -562 175 0
301 -207 -132 0
50 627 -828 0
752 -942 211 0
-341 -49 -435 0
235 654 670 0
579 -434 -217 0
-910 157 -332 0
777 822 -769 0
-839 30 -435 0
972 -404 299 0
992 -442 164 0
453 548 -663 0
-210 -63 -710 0
981 -871 889 0
907 52 698 0
-175 -216 647 0
-811 -462 943 0
740 -6 -237 0
-100 840 -926 0
607 154 624 0
-160 61 947 0
-510 712 -307 0
866 594 655 0
-741 -332 -536 0
-976 232 390 0
-276 921 852 0
754 516 535 0
20 42 -973 0
-890 834 1000 0
634 778 77 0
-303 -979 405 0
-353 -644 227 0
-574 877 394 0
-434 827 905 0
-390 -341 992 0
918 -556 -691 0
830 177 306 0
497 705 786 0
-585 691 158 0
-53 -888 741 0
705 460 -151 0
591 646 623 0
-675 -127 538 0
-180 -377 383 0
942 524 -261 0
898 -554 989 0
-901 -595 316 0
209 -635 -660 0
-427 -232 973 0
-509 -38 -567 0
-318 424 -645 0
413 -218 -833 0
805 -867 -242 0
263 -245 -141 0
680 -117 -938 0
-694 -408 476 0
634 188 437 0
-462 359 -170 0
-799 638 -558 0
-120 897 -337 0
-501 -727 -199 0
926 814 176 0
949 262 -749 0
8 -238 655 0
870 -652 325 0
-333 -636 457 0
-762 -244 -208 0
-234 957 5 0
-125 613 -317 0
-7 -689 -548 0
-242 -857 -137 0
841 126 -203 0
-408 357 391 0
-509 463 219 0
-678 684 -949 0
159 -600 -388 0
540 285 17 0
886 -31 111 0
113 -353 728 0
977 687 -854 0
-847 -541 67 0
-182 324 -212 0
580 -108 762 0
-157 254 603 0
-405 -730 468 0
-674 -374 -631 0
300 -737 630 0
179 -140 -736 0
-286 -916 574 0
191 609 -339 0
-195 -514 461 0
68 -912 -813 0
-737 -125 747 0
-600 363 206 0
113 906 -290 0
-183 326 587 0
869 701 -823 0
972 372 -61 0
24 -399 779 0
-82 574 828 0
806 -995 322 0
-328 -60 816 0
-951 -287 -841 0
353 737 953 0
-70 18 -368 0
-703 356 209 0
710 956 -522 0
72 300 335 0
361 453 199 0
214 390 966 0
-28 -72 -510 0
-247 -242 130 0
-794 -876 -862 0
-59 322 435 0
-94 -818 177 0
304 -309 -250 0
-354 899 -294 0
226 -712 -168 0
654 -84 -725 0
700 731 172 0
408 504 509 0
-688 876 -410 0
191 166 979 0
662 536 -850 0
752 817 403 0
-970 -438 -396 0
558 -885 -333 0
-654 -786 -465 0
127 -250 847 0
-984 561 -37 0
-159 488 667 0
-629 -659 -926 0
44 783 -46 0
-212 -445 -467 0
-455 564 -184 0
843 -170 295 0
-914 -350 -532 0
-601 -704 150 0
-125 565 399 0
-204 344 71 0
-82 535 109 0
474 68 -458 0
852 -137 239 0
691 -628 -810 0
388 234 570 0
986 339 310 0
-523 614 -64 0
-718 255 -253 0
436 545 -719 0
737 -9 -91 0
752 -297 -181 0
-851 597 -209 0
536 -328 64 0
-157 -252 512 0
834 -750 -428 0
758 -545 -754 0
55 -629 817 0
525 273 -549 0
-760 864 -836 0
-910 952 687 0
-536 -38 -744 0
-140 13 -454 0
-854 -645 699 0
501 972 -354 0
-663 251 -197 0
-254 429 -972 0
-604 -838 -602 0
951 28 -2 0
687 -739 304 0
386 -251 -663 0
943 365 -456 0
-868 635 437 0
-10 -814 -733 0
-247 -843 -169 0
-552 293 -916 0
-147 -359 692 0
626 -720 168 0
-223 356 523 0
937 461 -714 0
-485 31 479 0
746 -520 644 0
-365 -627 839 0
-8 963 -438 0
508 376 -773 0
-965 262 -354 0
662 -723 -955 0
686 -576 -122 0
775 -673 -754 0
584 -199 -686 0
507 379 -108 0
106 -60 537 0
-701 121 -304 0
-342 -830 -92 0
867 118 -585 0
502 -490 673 0
-963 937 -122 0
575 -159 -179 0
487 368 -457 0
-230 -504 413 0
-626 -374 -314 0
-633 -209 -520 0
248 418 528 0
242 -301 -764 0
-776 339 -498 0
436 442 -669 0
125 626 -181 0
-898 -114 910 0
-280 -341 -251 0
392 680 649 0
-733 -615 951 0
217 614 237 0
-324 710 -563 0
-544 -562 401 0
686 268 833 0
-617 -599 -252 0
-598 -869 -429 0
-840 -669 137 0
-830 874 705 0
-737 -444 852 0
965 260 -975 0
394 -53 -139 0
-179 443 -634 0
-597 -380 -639 0
-80 194 -68 0
-241 73 310 0
-508 -780 -910 0
132 832 -415 0
-565 843 206 0
-564 -379 -16 0
690 -178 -750 0
106 111 -100 0
185 -400 539 0
82 310 -960 0
-193 -495 858 0
-960 -870 -930 0
671 -348 513 0
-933 -523 69 0
-332 -758 -107 0
50 404 432 0
-234 -920 206 0
893 -56 948 0
-118 885 859 0
697 90 226 0
-374 -526 -19 0
-286 331 650 0
147 -421 240 0
-475 111 -718 0
