p cnf 1000 2350
537 994 226 0
-741 -193 -571 0
-421 -371 -301 0
-924 616 495 0
271 660 -608 0
-537 -608 -879 0
-29 -80 219 0
466 -152 -855 0
-980 -29 796 0
687 -876 -359 0
-356 -934 -987 0
945 -76 -551 0
537 442 191 0
876 -736 559 0
78 -841 902 0
-728 396 258 0
289 -519 583 0
-755 -52 -445 0
-48 -141 176 0
-679 -711 -634 0
59 631 632 0
821 -510 336 0
636 600 -475 0
-519 953 -176 0
-476 397 643 0
-870 -144 -844 0
-784 -88 -158 0
269 595 -148 0
-928 380 -833 0
-751 453 -130 0
-895 -696 129 0
196 895 570 0
696 953 -422 0
813 -188 271 0
816 -905 -29 0
-747 -37 580 0
966 388 528 0
73 -139 -766 0
-421 -153 -292 0
-103 -449 58 0
555 -630 -834 0
22 -314 -496 0
818 -965 -230 0
329 -805 -670 0
-815 673 827 0
579 503 49 0
-172 539 -680 0
-849 763 -561 0
806 67 192 0
182 -151 891 0
799 -133 -116 0
-442 -264 -378 0
122 89 78 0
-122 106 -318 0
241 957 36 0
-800 181 -543 0
812 14 -777 0
707 717 194 0
-897 927 30 0
-347 992 42 0
-824 -441 624 0
168 -295 349 0
-744 633 -647 0
-272 627 149 0
554 -407 95 0
538 -511 389 0
404 392 925 0
-607 -469 -450 0
271 -823 962 0
623 570 835 0
236 -249 -363 0
-78 -365 498 0
320 988 -981 0
-373 68 664 0
883 -96 221 0
-638 602 -499 0
-249 -745 -473 0
802 -790 173 0
535 -584 -297 0
-167 -24 -196 0
-547 -280 543 0
302 939 -972 0
-625 -359 166 0
192 -8 289 0
-679 -858 738 0
-179 854 770 0
-27 -871 116 0
-537 -937 190 0
458 593 -711 0
406 70 597 0
630 165 -609 0
-265 696 699 0
-929 -46 -910 0
-827 401 495 0
-443 942 -176 0
678 -779 371 0
-917 -933 -493 0
97 616 424 0
-127 -487 147 0
753 652 -942 0
884 499 -637 0
177 969 527 0
973 32 -675 0
-106 -241 918 0
124 -271 -543 0
710 -368 -936 0
997 -550 -984 0
-76 51 -286 0
593 571 -237 0
727 -641 -642 0
-556 781 406 0
184 358 830 0
-830 -26 566 0
198 -5 579 0
-835 562 672 0
-453 423 -61 0
684 -242 433 0
492 -469 256 0
-379 634 685 0
-434 459 723 0
-302 -220 -688 0
468 -611 -806 0
-667 -221 -378 0
997 13 160 0
470 -780 -9 0
-898 133 812 0
576 -965 -125 0
-617 -474 -291 0
835 -975 2 0
601 -822 -756 0
-851 466 158 0
370 350 -505 0
-698 658 800 0
921 513 330 0
123 849 -311 0
241 734 196 0
-348 759 125 0
799 -805 710 0
-548 491 -349 0
111 -691 687 0
620 47 -258 0
-992 696 -238 0
-329 338 718 0
-90 -34 140 0
925 -795 -39 0
888 -859 -187 0
-756 786 -291 0
-261 408 -700 0
448 349 252 0
60 480 292 0
325 1000 -255 0
-318 -799 -206 0
-438 -502 -632 0
133 -608 -100 0
-404 598 325 0
985 -686 -496 0
-639 100 -66 0
994 153 106 0
262 -129 -610 0
773 504 558 0
976 -849 -674 0
-35 293 801 0
873 391 157 0
172 -332 22 0
433 -935 773 0
77 213 -921 0
684 961 660 0
607 622 -938 0
-58 851 -261 0
-827 -168 227 0
436 -804 -879 0
-984 783 595 0
306 266 -54 0
-508 717 -953 0
827 262 -713 0
-283 76 871 0
-574 -39 491 0
194 -620 -582 0
-995 199 170 0
462 576 55 0
-844 -622 618 0
445 -280 -804 0
879 931 -323 0
487 -693 367 0
396 -595 -504 0
-450 -715 -34 0
-605 40 685 0
-214 -959 -509 0
36 136 -33 0
-818 746 444 0
201 80 -215 0
-627 486 85 0
329 390 846 0
668 701 -296 0
488 -658 -567 0
-964 -827 249 0
971 -337 235 0
-349 -949 -827 0
690 616 -696 0
-632 -141 -230 0
640 -638 857 0
885 840 -690 0
-826 841 -827 0
-203 473 991 0
-557 305 -395 0
78 455 -589 0
450 817 -754 0
362 -22 322 0
-481 -787 405 0
-652 -701 283 0
-628 856 -735 0
906 -104 -891 0
168 -580 505 0
716 -24 -925 0
-659 288 998 0
716 820 -131 0
-974 -217 605 0
-921 674 -202 0
-378 914 -188 0
-602 -722 -774 0
-328 -487 398 0
239 316 -918 0
-231 -779 -97 0
-240 -858 -563 0
-511 -231 185 0
-214 -948 -209 0
890 -885 737 0
815 357 738 0
563 -296 548 0
655 594 878 0
-297 -445 -290 0
-125 321 688 0
369 -924 -771 0
358 -713 2 0
-240 -257 -740 0
615 129 185 0
291 -586 968 0
990 521 667 0
-568 -552 -789 0
-366 -525 -204 0
-464 -43 668 0
335 159 679 0
864 614 150 0
262 953 -71 0
840 -17 -733 0
651 975 -944 0
847 831 638 0
-738 -916 -304 0
392 992 150 0
-584 -872 33 0
-13 -668 472 0
-87 534 -643 0
75 524 -928 0
756 -555 -242 0
607 751 -109 0
759 -998 288 0
139 -25 152 0
415 -924 -614 0
-324 712 -890 0
-607 396 906 0
-650 -946 592 0
-441 409 -137 0
-904 -148 588 0
-45 -794 888 0
-726 -368 684 0
594 739 -289 0
988 83 991 0
-122 -21 291 0
674 -445 -723 0
-831 -463 -167 0
706 611 3 0
-366 336 266 0
-602 870 -480 0
632 -385 798 0
-250 -914 827 0
-761 -918 -557 0
-103 150 688 0
37 -576 -844 0
990 -382 255 0
655 -215 819 0
879 -720 -86 0
371 17 46 0
957 637 65 0
-919 -363 -821 0
-11 -798 613 0
817 814 918 0
-954 -778 -664 0
639 16 -884 0
-515 -51 -662 0
214 -3 323 0
459 -393 -455 0
259 599 624 0
-98 -495 -828 0
301 597 -670 0
-25 -717 -753 0
-727 194 464 0
358 -955 775 0
503 -285 54 0
-153 -391 -18 0
-555 528 -912 0
413 -372 -338 0
494 -907 264 0
844 341 -220 0
-375 928 -779 0
66 638 -268 0
631 -172 -237 0
-765 244 934 0
-491 240 142 0
153 531 846 0
-482 383 -418 0
-715 379 -494 0
-956 366 -77 0
-487 714 -979 0
-836 -246 693 0
-568 557 -767 0
-727 -695 900 0
-130 358 227 0
526 55 -854 0
722 59 -549 0
765 495 -449 0
777 9 -524 0
317 460 -333 0
-180 510 920 0
-634 816 -382 0
265 648 78 0
925 240 -786 0
-922 23 -839 0
-267 300 838 0
-178 748 634 0
168 -105 -852 0
88 -868 990 0
425 -404 275 0
251 -700 -556 0
112 314 -52 0
-784 -932 -587 0
103 -239 -956 0
50 -526 -708 0
640 354 -205 0
884 405 817 0
-32 -621 416 0
930 967 -513 0
-699 -418 -848 0
-179 86 -883 0
311 -949 628 0
-552 -729 -672 0
281 -624 -552 0
-88 -889 -263 0
-755 -102 297 0
-20 236 297 0
258 453 958 0
-606 -218 -244 0
942 468 355 0
975 -636 589 0
354 611 28 0
601 437 -357 0
-858 723 71 0
242 305 661 0
-90 933 -223 0
-659 -643 -147 0
-586 401 322 0
380 -182 -856 0
-139 -320 352 0
-625 474 -329 0
216 -278 -901 0
-856 -599 526 0
-192 246 -101 0
621 -791 -192 0
83 158 -434 0
-588 341 -409 0
-730 -190 -641 0
-800 -312 962 0
577 942 486 0
-637 352 113 0
-258 -190 104 0
-443 -882 844 0
-573 -109 -244 0
282 947 -427 0
704 267 466 0
862 619 -410 0
293 -861 -640 0
-266 940 -427 0
906 -465 626 0
429 777 446 0
-442 405 -945 0
-320 601 -741 0
-526 -714 -618 0
301 -909 -806 0
507 -480 -658 0
-29 452 -183 0
-642 -868 936 0
28 43 -554 0
-202 -118 -732 0
-78 948 -848 0
546 -957 -566 0
-211 -802 860 0
16 -587 -577 0
805 -585 10 0
-395 -739 -247 0
-53 231 957 0
267 45 844 0
-752 -646 -999 0
350 743 -464 0
-965 418 452 0
-764 939 815 0
858 -234 -177 0
-407 -346 975 0
-280 -675 445 0
362 851 -295 0
715 -847 -129 0
-918 -905 -473 0
-435 -683 -196 0
-248 250 837 0
-846 288 484 0
782 -182 -897 0
-773 -855 409 0
290 882 707 0
7 422 260 0
510 -758 -315 0
-968 411 -535 0
558 49 732 0
-469 991 -990 0
504 -83 -185 0
-871 225 862 0
990 -966 971 0
-301 292 -180 0
-357 -805 52 0
682 198 -456 0
-370 204 -811 0
-187 256 129 0
-660 511 -96 0
792 -853 206 0
441 96 843 0
-827 863 350 0
952 36 498 0
-296 -242 -500 0
995 -537 194 0
242 13 267 0
197 531 234 0
935 372 697 0
590 -388 121 0
564 -320 -126 0
-780 412 48 0
-260 -103 596 0
-550 -485 359 0
-128 97 417 0
-885 -143 250 0
-204 -264 49 0
30 445 908 0
104 454 281 0
582 826 378 0
832 579 358 0
-523 685 -752 0
489 46 742 0
-492 708 -662 0
-650 511 -770 0
188 639 76 0
574 -686 505 0
79 29 617 0
882 4 189 0
539 -568 357 0
950 636 504 0
-634 917 743 0
-990 999 -221 0
-627 -761 -41 0
692 -235 755 0
842 -826 899 0
-141 913 694 0
-587 200 736 0
196 -2 -225 0
893 747 283 0
-387 516 98 0
-936 563 -79 0
-270 628 939 0
155 962 541 0
-2 997 -135 0
-722 -81 756 0
185 193 -431 0
764 -475 728 0
565 -723 -763 0
-843 -412 782 0
281 61 447 0
-496 -927 -580 0
-315 -919 577 0
415 -369 444 0
-659 346 792 0
846 -936 -334 0
705 716 273 0
136 -133 -867 0
-348 647 225 0
-495 -737 463 0
-424 -42 681 0
-772 563 -918 0
-148 879 -959 0
922 966 -826 0
-9 766 -85 0
-750 -671 467 0
895 881 -109 0
247 -178 -137 0
-466 984 -700 0
-94 -722 875 0
168 361 421 0
370 780 -829 0
-758 -177 794 0
72 -225 310 0
46 307 671 0
725 953 -557 0
-689 -345 659 0
641 704 -868 0
-312 -670 325 0
867 996 -765 0
-844 -43 872 0
983 -83 460 0
28 -954 -884 0
-648 236 96 0
444 997 10 0
-682 914 -985 0
304 628 158 0
-663 551 728 0
79 207 302 0
313 -844 382 0
673 -12 774 0
-929 -773 -280 0
-894 668 75 0
-300 916 969 0
-302 -305 -265 0
-580 -370 -616 0
594 601 -239 0
67 227 -321 0
-470 930 -79 0
-603 -93 -677 0
144 857 525 0
135 260 391 0
-137 589 -66 0
-140 -678 495 0
825 -488 660 0
-306 -251 608 0
-314 -5 -652 0
-869 599 379 0
1 -526 463 0
275 -936 347 0
-66 -482 198 0
-898 481 -182 0
-797 222 831 0
381 309 780 0
-673 -609 317 0
-987 702 939 0
-939 576 444 0
-505 -269 328 0
754 -597 -825 0
274 941 -41 0
480 -919 -998 0
610 -800 -298 0
262 916 -584 0
487 -542 479 0
-832 -119 82 0
-351 -665 431 0
984 535 397 0
-34 -413 -397 0
-154 839 -512 0
-289 -625 -792 0
693 896 -799 0
734 -670 325 0
719 447 709 0
547 -175 566 0
-265 543 -365 0
-285 -272 505 0
-530 309 -580 0
-422 939 -541 0
836 -209 819 0
205 -443 -541 0
-371 -568 613 0
340 -538 76 0
-463 -435 952 0
216 512 -953 0
88 -9 -620 0
-666 954 822 0
507 -694 -438 0
61 -789 931 0
827 -414 -612 0
360 512 -283 0
-11 -141 -830 0
-647 -754 633 0
-675 -310 493 0
-447 -875 330 0
414 397 -651 0
-449 -910 -135 0
993 333 427 0
702 2 97 0
-70 437 773 0
-736 734 332 0
630 -365 -969 0
-545 438 -361 0
-276 745 -310 0
-539 -219 -764 0
-821 712 -255 0
-93 658 -369 0
359 259 351 0
194 -209 -919 0
280 200 -973 0
-708 87 -787 0
-582 -12 -605 0
-744 -465 950 0
427 -763 -80 0
-889 -738 420 0
-794 864 255 0
28 72 -160 0
400 -454 -143 0
-933 -619 150 0
449 -37 661 0
415 -965 819 0
-163 901 441 0
400 9 -200 0
545 761 -674 0
-116 -660 -819 0
606 -576 -610 0
-326 -886 776 0
275 -237 -793 0
-267 760 -735 0
950 -608 900 0
627 273 786 0
695 535 495 0
609 328 580 0
81 -197 274 0
-41 669 920 0
-857 742 55 0
31 574 -383 0
-122 601 -12 0
616 85 293 0
488 61 135 0
718 504 -675 0
603 36 -240 0
-786 -12 -965 0
166 -928 431 0
-972 133 -445 0
-563 422 793 0
784 -188 -428 0
-118 -201 345 0
689 -567 -604 0
366 284 -711 0
278 -704 -150 0
-21 -97 -944 0
-621 -1000 159 0
-629 80 -942 0
-606 -433 44 0
-165 -705 269 0
-391 93 -228 0
-153 350 -530 0
873 391 848 0
983 112 -307 0
331 271 925 0
615 -546 -185 0
898 890 -758 0
437 100 101 0
263 -730 -949 0
-763 -730 995 0
-46 871 732 0
328 755 -362 0
-174 -38 -945 0
-587 -949 681 0
159 791 379 0
982 -691 -485 0
-58 942 -825 0
-630 -884 91 0
250 -930 -201 0
-925 -454 -874 0
-167 763 413 0
-636 757 833 0
494 -350 627 0
-610 -869 -317 0
-910 -630 918 0
-486 -127 93 0
951 556 -317 0
289 501 940 0
824 -151 346 0
-414 -163 -282 0
-369 228 176 0
-781 792 -949 0
156 497 998 0
-994 -140 783 0
889 -507 361 0
-626 -346 23 0
-113 915 41 0
-436 -932 -12 0
355 906 447 0
396 190 349 0
564 -758 -871 0
119 92 136 0
-735 -876 -304 0
252 -620 -405 0
879 -855 -564 0
28 -335 -788 0
547 85 -399 0
-3 -695 -870 0
-445 201 -768 0
764 299 -159 0
-690 -15 -246 0
-500 102 -220 0
664 951 401 0
734 -725 -715 0
370 -619 965 0
-464 955 751 0
-986 561 -195 0
-924 -763 -428 0
528 -351 -194 0
-106 592 -698 0
-546 466 -400 0
801 542 508 0
92 -493 -336 0
-636 -561 195 0
-384 -448 -22 0
-610 -578 -621 0
-295 899 269 0
732 -74 -978 0
71 996 -816 0
599 -1000 -667 0
508 -527 93 0
50 963 404 0
649 -831 246 0
259 -865 -611 0
-52 637 -480 0
-454 539 993 0
-51 -906 -869 0
-411 -651 -491 0
700 283 121 0
700 40 -355 0
820 634 -852 0
893 -678 -616 0
-958 714 610 0
922 492 -907 0
494 -996 993 0
399 -551 -851 0
52 -695 489 0
-143 -738 273 0
-682 -487 -528 0
-467 353 831 0
-381 753 -134 0
6 829 -743 0
-441 174 -184 0
-278 243 -871 0
-288 964 -93 0
-797 473 -239 0
890 -145 -32 0
-795 -820 -510 0
763 92 -958 0
-672 -698 -740 0
-464 -782 -45 0
352 -301 -853 0
-650 -763 -817 0
-521 408 -301 0
445 380 -343 0
-999 981 452 0
-357 -252 -55 0
-571 -133 932 0
-536 291 -9 0
-549 -365 -558 0
822 438 -162 0
-584 -627 132 0
-705 406 443 0
-40 -407 998 0
-636 -818 -890 0
438 641 548 0
771 -501 -775 0
154 682 -800 0
-360 -207 42 0
-699 -321 517 0
839 -599 -358 0
203 -465 490 0
-92 -617 496 0
-553 -707 607 0
-946 82 -499 0
-460 -162 436 0
414 995 731 0
-426 -754 708 0
-621 -741 -612 0
808 -224 -5 0
-167 455 -896 0
-584 -100 -829 0
-262 -510 -455 0
-220 -483 -556 0
218 -412 31 0
-638 531 -416 0
-988 548 -509 0
-357 46 -20 0
782 -891 -479 0
927 836 -231 0
249 51 133 0
-241 66 583 0
525 -593 753 0
823 448 854 0
-99 397 92 0
-769 -362 -649 0
907 434 498 0
928 -519 -704 0
962 -426 -809 0
-54 6 -523 0
387 706 -950 0
387 -248 492 0
-732 -804 -582 0
418 -795 696 0
219 478 37 0
-87 619 300 0
-203 85 200 0
179 -152 -197 0
843 623 912 0
-638 -712 147 0
383 -453 -588 0
952 70 898 0
-565 -985 -394 0
-384 -411 -542 0
259 946 -15 0
473 927 -435 0
-832 -999 -896 0
66 -914 149 0
-633 -603 6 0
714 -24 565 0
-495 640 -365 0
-132 4 -969 0
59 -893 -320 0
-463 -203 18 0
-988 -190 569 0
-553 -7 614 0
-788 580 -16 0
-70 -360 294 0
-460 -176 -624 0
-897 571 272 0
89 -587 495 0
-701 91 -972 0
723 -423 30 0
-245 978 -628 0
-102 553 382 0
229 -497 -823 0
-222 496 -280 0
-954 -845 -790 0
-53 904 -941 0
386 425 -617 0
-733 913 -938 0
-101 981 -16 0
73 826 899 0
-331 152 871 0
-115 676 -11 0
-819 -352 336 0
-890 542 -846 0
750 -273 525 0
577 -162 405 0
-26 -661 610 0
-757 -851 -561 0
-105 679 339 0
136 -145 -300 0
-640 -822 39 0
-764 68 935 0
16 96 -929 0
-744 226 30 0
-946 983 -702 0
-256 997 -458 0
-667 847 896 0
-69 953 -218 0
-707 459 -913 0
-652 398 -327 0
-231 -736 -329 0
-904 444 108 0
-213 599 -542 0
402 100 621 0
-817 972 677 0
677 76 633 0
159 -220 960 0
-137 991 35 0
-127 212 -232 0
10 -130 -465 0
75 738 -491 0
-890 -679 571 0
926 193 78 0
672 146 -43 0
-373 -493 -487 0
-944 -106 219 0
455 -499 297 0
-357 490 420 0
663 -69 -426 0
-513 531 -769 0
-221 818 663 0
5 -369 468 0
281 -350 385 0
522 784 103 0
657 -209 -410 0
-855 43 -97 0
-583 -321 -538 0
81 -974 -762 0
380 -614 451 0
191 550 76 0
-693 -171 6 0
-738 -256 -488 0
424 530 -983 0
-319 341 162 0
-865 -8 -39 0
502 -937 -571 0
767 -888 -605 0
76 -517 583 0
-724 49 -807 0
58 -814 -874 0
-12 -435 -527 0
-780 -204 776 0
977 351 -433 0
745 -848 -639 0
-451 603 -994 0
-557 -451 332 0
672 13 -464 0
-338 571 -255 0
8 -644 -873 0
-909 -799 -420 0
-310 -403 -363 0
-656 -914 140 0
-22 -528 -705 0
929 14 22 0
415 679 -70 0
-342 108 -474 0
76 -229 104 0
376 -663 400 0
600 41 446 0
-522 -264 538 0
707 -650 -995 0
621 -874 -324 0
863 -593 -153 0
-928 -128 552 0
283 984 -383 0
13 -705 730 0
103 -234 287 0
964 -399 246 0
-525 -897 338 0
636 -504 -269 0
302 520 872 0
180 921 -432 0
-479 -180 -874 0
456 119 898 0
-284 -644 681 0
280 364 271 0
863 -114 -798 0
172 -25 -297 0
-369 511 89 0
740 377 -969 0
-244 -952 477 0
-991 55 -445 0
-197 195 345 0
195 -731 18 0
-549 373 430 0
-276 957 -21 0
234 -171 977 0
195 -480 26 0
287 -775 -848 0
-673 -728 777 0
-122 -485 164 0
300 -555 -168 0
-196 -15 -362 0
-107 -424 275 0
187 -6 -823 0
-263 926 27 0
686 -796 -469 0
-6 -539 519 0
-459 397 -891 0
-476 -367 -273 0
34 -496 410 0
497 -852 -810 0
-34 -263 -641 0
196 -96 488 0
-796 -895 -462 0
-742 143 -498 0
-568 861 -882 0
881 657 294 0
-458 257 -285 0
-818 279 459 0
485 314 960 0
-819 277 584 0
454 843 134 0
-200 -164 683 0
-55 599 -390 0
-753 -81 878 0
-264 409 -167 0
-564 753 132 0
-423 124 843 0
-762 80 852 0
196 -814 592 0
641 883 200 0
463 207 -677 0
-37 950 -217 0
123 -262 876 0
-974 -192 -220 0
701 -803 27 0
163 -158 480 0
158 476 -167 0
574 603 -121 0
891 -378 -987 0
263 373 587 0
-795 37 -408 0
503 -743 -9 0
854 -159 -84 0
-421 696 859 0
-520 211 -710 0
-481 349 -998 0
-656 223 -447 0
-5 -523 -692 0
-542 893 -827 0
406 649 -597 0
-878 485 -261 0
635 766 423 0
-545 -292 427 0
733 -408 -900 0
21 -57 532 0
-529 -814 -552 0
234 -247 -694 0
-908 -967 642 0
486 777 -438 0
-856 -213 -257 0
891 206 180 0
855 -363 330 0
-878 575 469 0
932 416 469 0
735 -511 -550 0
2 -745 -565 0
236 -265 454 0
961 221 34 0
724 -554 68 0
-870 -878 386 0
913 997 757 0
-12 -69 -531 0
304 -43 -235 0
686 945 -199 0
-541 669 -369 0
-226 302 -503 0
213 -885 -50 0
-432 966 -114 0
-243 -65 769 0
-273 -937 829 0
551 -324 -45 0
-131 -191 141 0
-846 521 -725 0
365 187 821 0
-935 100 34 0
-378 -439 -263 0
669 859 581 0
364 -855 583 0
973 -330 -804 0
-992 676 -878 0
-408 -854 -206 0
-989 974 21 0
-390 324 923 0
-113 -748 905 0
342 88 146 0
698 826 148 0
-153 -933 -502 0
409 920 -688 0
669 -970 950 0
-616 503 589 0
-990 408 847 0
-261 -723 516 0
515 -520 500 0
791 -547 50 0
556 -530 740 0
299 984 93 0
708 487 -186 0
233 -924 161 0
376 -963 -679 0
-369 -354 -191 0
-886 189 696 0
-526 295 196 0
256 656 804 0
94 118 -865 0
285 -1 59 0
-36 999 758 0
-464 -801 -96 0
228 599 -360 0
387 -843 176 0
-330 201 -255 0
831 -865 -69 0
-506 998 152 0
977 -548 -988 0
-126 440 -945 0
582 773 329 0
-388 889 219 0
737 -55 -551 0
210 720 -971 0
714 -756 239 0
-952 42 -322 0
-463 115 -277 0
590 975 144 0
-943 -171 -371 0
-165 640 198 0
-768 -196 -385 0
597 -441 385 0
723 -396 46 0
-273 -890 -615 0
-853 835 245 0
-872 -41 -92 0
310 -698 331 0
-907 -173 -301 0
-602 808 -173 0
294 116 -475 0
570 36 -435 0
-119 -192 262 0
432 536 868 0
452 -835 -268 0
272 -965 -203 0
893 604 888 0
379 283 -867 0
918 -643 -948 0
556 779 -784 0
284 700 54 0
425 -706 -56 0
-884 -32 -479 0
400 280 495 0
-905 -568 -829 0
570 -937 296 0
524 -633 -726 0
-745 -757 -258 0
-954 385 408 0
240 -356 -16 0
752 -562 972 0
171 729 -529 0
-980 354 -921 0
945 130 167 0
98 523 -245 0
-55 57 -198 0
69 837 133 0
-24 -581 153 0
-157 579 -361 0
-260 -362 -839 0
-969 365 609 0
-893 -740 -798 0
594 654 -958 0
128 -156 73 0
443 -392 143 0
390 -524 -328 0
-577 -198 268 0
-201 478 -668 0
98 -608 -43 0
-270 -873 993 0
-660 -65 -648 0
-344 -667 279 0
336 -844 777 0
-384 553 -249 0
779 317 242 0
-834 -594 -959 0
315 377 796 0
536 662 -759 0
-141 -828 822 0
800 -949 992 0
-968 446 254 0
-698 718 682 0
265 256 38 0
449 -184 954 0
-362 696 -743 0
-80 -825 -926 0
815 168 446 0
469 -555 -643 0
-59 -502 728 0
-407 161 60 0
60 -104 281 0
-631 -943 663 0
-254 909 106 0
8 832 63 0
-775 -134 -716 0
146 761 12 0
-811 -16 267 0
287 584 -923 0
836 572 801 0
963 529 955 0
278 -535 -978 0
-971 -197 696 0
55 43 842 0
-803 -497 -502 0
-980 -473 925 0
-646 38 -244 0
-303 -76 -667 0
-554 264 -55 0
-6 -68 -635 0
74 -834 418 0
-928 -809 -850 0
-447 57 221 0
16 404 136 0
-286 -470 482 0
324 14 595 0
403 50 83 0
65 936 -706 0
79 -173 777 0
717 -315 -821 0
-698 -280 437 0
754 -483 147 0
175 -679 -209 0
707 453 -145 0
402 730 9 0
-918 683 288 0
500 271 554 0
630 536 -832 0
-206 884 -194 0
-161 275 -165 0
-542 868 -218 0
989 869 -599 0
621 -60 -142 0
-165 -640 624 0
-663 518 -886 0
-20 -742 307 0
-82 321 744 0
-732 -73 -804 0
-690 202 -985 0
733 -630 812 0
697 997 816 0
-287 553 -585 0
588 -149 542 0
501 -867 487 0
-276 195 -212 0
-926 -681 -422 0
596 472 -759 0
918 656 -742 0
250 7 -131 0
141 238 323 0
896 -32 572 0
688 990 413 0
563 620 -14 0
567 -455 -311 0
30 -289 619 0
-833 -945 -692 0
-380 163 350 0
-205 146 -521 0
920 -840 -369 0
257 -448 -680 0
534 -137 308 0
504 167 554 0
-432 -837 180 0
188 -32 -274 0
227 -388 -477 0
-539 345 -707 0
-492 329 -411 0
-480 38 -314 0
542 936 187 0
116 -388 110 0
609 149 -760 0
-950 647 -630 0
-7 990 -901 0
656 484 -187 0
898 223 152 0
-370 -175 628 0
989 -99 -725 0
579 372 -36 0
969 -843 253 0
232 -410 73 0
192 99 908 0
-415 -835 -205 0
-599 958 -266 0
-635 758 299 0
-683 -176 -192 0
-247 -206 578 0
-838 -999 -816 0
-297 -124 -892 0
-634 384 -886 0
-476 120 180 0
494 252 52 0
959 795 -183 0
-841 526 -769 0
850 730 -938 0
-995 -138 -319 0
-49 -361 -550 0
33 -928 -562 0
106 15 -475 0
-652 -868 -55 0
413 420 -6 0
-462 71 -989 0
-155 -727 -260 0
-61 343 -162 0
825 202 -873 0
782 -71 823 0
558 370 -769 0
419 361 -491 0
-463 -347 -557 0
555 76 -749 0
43 -357 -877 0
277 438 738 0
465 -326 -530 0
-438 -238 -825 0
969 578 -434 0
-51 337 988 0
632 667 -970 0
-786 762 -584 0
631 657 274 0
-773 -80 -73 0
518 736 -268 0
360 493 -432 0
-136 -291 -310 0
-402 379 -101 0
741 720 -454 0
121 -36 481 0
-669 403 594 0
78 -616 -660 0
811 491 -827 0
-743 -492 211 0
329 -551 -694 0
30 -728 -586 0
851 -340 -538 0
-203 -125 558 0
-785 -26 946 0
728 125 -63 0
558 64 -523 0
477 -511 745 0
298 -387 -725 0
219 890 450 0
-34 160 393 0
-224 110 583 0
281 -20 -267 0
413 -287 568 0
163 461 313 0
786 990 290 0
44 -559 773 0
-256 779 -450 0
959 655 -253 0
-581 265 -642 0
-45 -88 368 0
885 386 -172 0
793 941 -787 0
-769 -812 976 0
916 -432 -520 0
-859 587 -590 0
853 133 159 0
483 732 533 0
352 724 -5 0
-745 515 313 0
766 991 -8 0
569 669 -63 0
-606 16 552 0
-155 -755 -457 0
-834 536 442 0
410 384 462 0
-675 127 -514 0
-829 989 312 0
448 861 -799 0
-117 -627 -363 0
-523 -628 -753 0
-724 71 161 0
57 -317 -127 0
-270 736 -631 0
-519 -259 -517 0
513 129 -275 0
538 -566 -205 0
-137 641 224 0
-670 -873 -141 0
-607 231 -762 0
868 759 -639 0
30 514 733 0
163 -340 -253 0
-946 504 -910 0
51 -855 -865 0
-864 -444 -234 0
-679 -248 -950 0
291 416 222 0
-209 -219 966 0
136 62 -950 0
86 -829 55 0
-841 -620 973 0
-284 853 340 0
51 893 125 0
-93 -498 -435 0
-766 -635 399 0
-311 -720 97 0
-547 -495 -750 0
996 -316 797 0
-552 -921 894 0
93 -766 181 0
-807 -888 429 0
555 529 611 0
-569 475 -280 0
-36 777 -579 0
-770 -11 -632 0
720 -261 584 0
580 478 -128 0
413 -654 -155 0
897 -636 -440 0
-671 322 506 0
79 793 -412 0
-860 -936 -466 0
-259 744 -463 0
-443 -98 831 0
172 823 717 0
-84 -653 183 0
-491 -600 -334 0
-212 -893 -665 0
-512 635 -750 0
634 271 366 0
280 595 352 0
65 432 531 0
210 323 966 0
-143 788 -931 0
334 403 -214 0
683 409 956 0
912 -365 -616 0
-516 439 418 0
-568 -306 848 0
-681 -736 -722 0
350 -489 -234 0
244 428 635 0
-589 906 407 0
-155 693 123 0
-815 477 513 0
-632 -386 -355 0
514 857 -789 0
347 -999 706 0
235 -208 288 0
-752 -178 -158 0
707 -88 -419 0
-386 -867 60 0
618 762 -596 0
309 442 23 0
730 -945 -502 0
219 -55 -424 0
842 361 472 0
-96 -42 185 0
181 -466 780 0
785 471 -833 0
-978 -707 -559 0
-596 370 -445 0
-914 -167 720 0
391 -445 212 0
-490 634 -632 0
-939 668 857 0
-736 -951 900 0
-554 206 -961 0
-436 412 -484 0
-37 -402 510 0
458 -369 343 0
-896 832 53 0
-198 -200 305 0
330 134 -920 0
-928 -612 -330 0
-142 -189 791 0
488 221 -421 0
-709 514 -867 0
207 171 895 0
-740 -401 -119 0
-690 233 -216 0
338 588 860 0
-378 751 895 0
31 -473 940 0
118 -200 -579 0
-575 -474 373 0
609 -116 -942 0
233 99 -433 0
-420 738 534 0
808 -667 -989 0
-481 494 859 0
-953 -416 890 0
-860 83 697 0
168 703 672 0
-844 82 -575 0
225 -333 361 0
107 857 -933 0
-63 -413 218 0
-561 -543 -535 0
-572 260 47 0
772 880 845 0
-984 763 -295 0
789 979 179 0
-89 -568 -686 0
757 925 830 0
-287 -938 518 0
-730 -284 739 0
-635 66 -952 0
36 -58 996 0
-685 515 -318 0
245 749 900 0
-697 169 715 0
-812 -214 66 0
-404 -454 -169 0
-272 -917 669 0
-206 389 -884 0
-640 -682 -863 0
-648 306 264 0
249 442 909 0
210 -7 774 0
595 -530 -977 0
626 -532 -137 0
740 -667 -541 0
-617 -147 698 0
-15 1000 694 0
-935 -97 -524 0
803 298 756 0
-671 252 -997 0
-886 82 -894 0
-108 -668 536 0
501 874 156 0
676 60 -969 0
393 815 864 0
237 219 145 0
-788 -843 772 0
-441 682 757 0
265 -542 947 0
406 970 -489 0
829 -624 -274 0
595 151 581 0
260 114 -390 0
-228 -70 679 0
-987 -277 252 0
754 -263 -956 0
-14 932 -854 0
-104 -908 -415 0
-626 906 -100 0
-607 265 391 0
784 845 215 0
754 -725 -944 0
-397 -911 -851 0
-385 916 203 0
-969 759 369 0
-925 -696 193 0
46 263 69 0
-393 421 -604 0
426 392 -63 0
790 32 -464 0
-398 655 204 0
680 -196 54 0
853 -52 145 0
17 341 169 0
280 -830 138 0
687 -539 455 0
-598 -273 -313 0
-499 -251 233 0
-695 -719 -463 0
-481 -557 -952 0
725 -55 26 0
706 -195 779 0
-398 851 -451 0
-696 -128 -517 0
608 13 -959 0
577 42 -767 0
-932 -411 771 0
-15 484 -234 0
-847 360 301 0
992 -53 -591 0
119 929 -586 0
143 345 -566 0
-793 -376 -566 0
-989 904 871 0
-441 -432 -583 0
832 908 183 0
-768 -335 200 0
622 -9 809 0
-227 -696 191 0
754 635 450 0
-475 -88 -859 0
-302 -447 138 0
-942 -78 906 0
-353 -541 -124 0
-752 -209 -308 0
543 -175 583 0
664 -924 855 0
456 -460 -63 0
-782 -781 -362 0
927 -139 -158 0
-209 796 427 0
-218 530 522 0
-188 -290 -770 0
390 772 347 0
255 290 -194 0
755 897 -705 0
-250 -125 365 0
-893 -908 623 0
416 -315 348 0
151 122 -373 0
-383 -179 517 0
376 -45 -643 0
881 597 -277 0
-673 171 867 0
-241 454 514 0
-344 -998 761 0
-119 -904 476 0
109 -154 -470 0
-217 194 421 0
228 170 633 0
550 -626 -291 0
171 -360 -324 0
683 -114 327 0
-172 978 36 0
-608 -795 -111 0
-143 -117 -480 0
-289 -349 72 0
-177 458 367 0
380 -792 379 0
530 11 705 0
458 -322 270 0
-8 375 -389 0
966 -759 586 0
-79 659 183 0
27 -253 -518 0
-175 -57 178 0
-1 -151 -746 0
68 -569 235 0
483 -131 -756 0
77 -294 -687 0
-218 -95 -336 0
-597 980 -82 0
-660 -700 -601 0
-572 284 -423 0
128 -718 -973 0
913 -364 834 0
-317 660 472 0
-255 922 -308 0
-30 178 -643 0
458 -983 -625 0
-446 -52 76 0
85 664 420 0
495 942 572 0
-3 377 -405 0
736 197 -690 0
3 -416 895 0
-731 381 -556 0
13 581 416 0
888 539 742 0
581 -140 -495 0
-978 803 595 0
-348 833 857 0
-516 -735 -14 0
251 -390 -115 0
105 162 406 0
-932 509 761 0
37 -999 -322 0
-61 -289 11 0
-11 391 642 0
-968 833 855 0
727 804 -659 0
828 7 904 0
-762 415 540 0
563 -487 71 0
487 460 -81 0
330 -509 327 0
-965 12 -759 0
898 460 40 0
913 -272 -300 0
-5 -425 -814 0
996 664 666 0
314 79 -420 0
235 -231 -634 0
-47 -329 -302 0
-945 897 94 0
-553 727 354 0
313 -254 978 0
-183 391 -428 0
143 -814 164 0
-206 -232 102 0
-57 -140 -59 0
76 -522 -558 0
-989 -414 -591 0
837 616 85 0
-59 709 -492 0
-547 -809 -289 0
-138 118 -79 0
-907 -570 56 0
-755 -761 871 0
-585 505 -806 0
-116 463 107 0
343 561 121 0
604 370 219 0
-185 583 391 0
541 412 177 0
752 26 493 0
892 1 -30 0
174 955 629 0
235 957 149 0
-938 -857 -980 0
-119 -710 -918 0
610 -840 -104 0
-883 -747 315 0
-432 270 646 0
419 478 895 0
272 913 824 0
-470 -494 -60 0
-165 -179 -692 0
-360 -712 -610 0
625 -74 -825 0
44 -369 -762 0
435 4 -681 0
-38 -526 978 0
782 -742 654 0
-618 893 -802 0
307 -654 -304 0
267 882 522 0
-155 -452 921 0
348 734 605 0
554 164 417 0
-874 -554 386 0
-807 383 -50 0
-201 644 -122 0
-374 245 453 0
933 -56 -166 0
-255 582 -430 0
185 -576 838 0
-370 535 -515 0
406 -126 -279 0
210 -27 -657 0
543 -888 807 0
34 -233 -240 0
-343 108 -101 0
-704 -550 22 0
461 811 264 0
-37 -246 441 0
-150 -107 -675 0
529 -430 -178 0
-907 -993 865 0
-16 652 734 0
-943 693 330 0
626 796 -879 0
-11 -640 -373 0
-148 65 424 0
100 881 666 0
277 32 164 0
813 -473 573 0
752 -226 367 0
109 -449 82 0
360 57 -310 0
-755 911 -127 0
206 555 763 0
422 -428 936 0
639 -153 -781 0
-561 129 -601 0
-666 958 770 0
101 518 -370 0
-654 440 -58 0
-711 -7 -669 0
755 956 410 0
-42 -195 -793 0
677 807 -816 0
89 654 668 0
-541 -848 -730 0
-689 -518 936 0
869 -285 49 0
647 -108 153 0
-18 153 -953 0
123 -268 -571 0
-260 533 -712 0
-892 809 -738 0
-567 739 -464 0
-186 158 -538 0
-278 265 289 0
782 -508 -3 0
-352 102 -150 0
-505 -416 -812 0
-818 589 -493 0
-256 -64 598 0
-97 961 402 0
-961 100 153 0
-245 320 -109 0
836 -771 70 0
800 -404 -694 0
-292 179 485 0
401 -349 -729 0
-414 -190 444 0
-803 -324 871 0
277 112 950 0
493 -409 -267 0
74 -892 -239 0
-415 -349 -553 0
-310 940 967 0
-999 -547 -616 0
946 -840 569 0
-256 245 23 0
-544 -739 -835 0
438 -52 -391 0
503 -21 982 0
537 -530 699 0
136 315 -812 0
-123 -779 604 0
394 -694 -388 0
71 -243 -697 0
-913 438 970 0
-517 445 858 0
519 -578 -416 0
720 733 -296 0
387 695 624 0
734 340 -282 0
540 -239 -844 0
-714 -307 -218 0
-893 944 961 0
894 -877 -137 0
324 157 -366 0
-863 -885 90 0
871 -764 -615 0
842 10 -48 0
334 677 -978 0
-658 505 -593 0
300 -471 -87 0
957 972 -247 0
728 564 183 0
450 -702 -940 0
42 -322 -916 0
-650 31 563 0
-847 140 549 0
534 -434 -986 0
-250 501 359 0
497 610 842 0
936 267 -179 0
163 605 431 0
143 -199 -882 0
370 954 368 0
-876 -257 -702 0
170 -338 458 0
624 5 92 0
-210 -642 -337 0
207 -298 442 0
747 -93 458 0
-869 -399 64 0
-887 132 -957 0
723 688 894 0
-146 220 185 0
559 -414 341 0
-155 592 -521 0
-268 327 196 0
-733 832 -375 0
-217 -140 -554 0
-37 -389 -124 0
-394 -725 -856 0
284 889 924 0
706 678 112 0
307 -204 -4 0
-942 -950 795 0
-469 -456 489 0
803 -896 -58 0
-40 989 678 0
-871 -637 -984 0
412 -913 880 0
737 75 -800 0
592 391 -414 0
-625 -935 -310 0
474 627 -664 0
257 259 224 0
745 175 -173 0
-857 666 613 0
-974 481 -72 0
476 -545 -430 0
962 358 -541 0
-123 206 -641 0
-663 -768 182 0
286 -133 944 0
-28 -468 -371 0
566 -31 -713 0
455 -797 -477 0
969 307 -468 0
18 263 783 0
696 -855 4 0
350 -493 -331 0
-250 681 -618 0
-961 -15 -120 0
131 336 663 0
-147 -801 161 0
-472 -774 247 0
363 -477 269 0
18 -463 235 0
-463 790 -864 0
246 -549 -128 0
-488 -225 -356 0
-716 621 666 0
771 588 852 0
-615 714 -423 0
-782 -491 -779 0
-912 521 689 0
-665 -364 384 0
953 -337 -714 0
943 -701 896 0
448 220 42 0
173 120 -949 0
1000 869 -196 0
-121 986 841 0
243 988 -38 0
-690 -90 818 0
-272 -903 -942 0
733 176 898 0
493 137 134 0
456 -897 209 0
-958 -58 -79 0
-704 377 754 0
-59 -192 -160 0
-568 109 79 0
-496 356 -862 0
629 590 415 0
670 173 127 0
-483 -156 684 0
548 -137 752 0
294 -832 -959 0
-107 258 93 0
-141 -45 -538 0
973 18 -344 0
435 494 868 0
-649 -848 -914 0
946 -312 -436 0
679 -315 727 0
-160 472 -219 0
-26 42 -271 0
-924 -823 -551 0
397 -943 -129 0
-431 852 7 0
-288 -438 -627 0
161 -63 -597 0
159 -748 570 0
606 175 371 0
701 659 -11 0
-832 -675 294 0
953 -93 899 0
654 422 -978 0
38 524 770 0
960 906 296 0
-536 -797 662 0
821 314 78 0
-395 -668 84 0
-967 -124 -475 0
907 -312 -568 0
375 -4 319 0
-728 -260 -296 0
-147 -738 -61 0
292 -650 854 0
747 294 -712 0
6 -447 416 0
-331 25 68 0
-278 708 765 0
741 358 565 0
-382 347 718 0
-877 803 808 0
866 -260 -746 0
-13 112 -939 0
-87 -683 70 0
-763 -870 -729 0
-530 885 957 0
499 681 -69 0
540 66 990 0
-263 -50 500 0
690 -386 -612 0
876 -268 719 0
-383 -269 -559 0
188 -861 -985 0
-573 925 -56 0
-991 647 -656 0
-179 -509 161 0
-672 58 541 0
369 -743 -166 0
-773 372 -161 0
-766 -823 -907 0
617 702 -273 0
299 272 265 0
-801 803 -944 0
146 -672 190 0
530 -905 -126 0
372 -724 280 0
-313 -484 -28 0
-196 668 777 0
-685 -742 -339 0
384 -835 712 0
-239 -846 141 0
573 -295 835 0
594 858 -687 0
675 528 90 0
-123 -368 -664 0
503 159 -595 0
599 -996 -380 0
908 -851 -16 0
576 -947 137 0
393 72 519 0
-734 461 397 0
-937 -449 -105 0
-802 85 -454 0
-783 549 -276 0
184 -443 -582 0
986 53 405 0
464 44 94 0
549 -217 648 0
-633 321 -702 0
434 -224 827 0
-613 34 773 0
173 -452 18 0
633 -547 -961 0
-240 -720 886 0
-70 -37 -455 0
821 539 932 0
754 712 -716 0
-270 760 -462 0
-218 -248 -772 0
-404 292 -95 0
-437 552 -792 0
205 -116 715 0
-579 37 -509 0
-556 -568 -591 0
-749 486 846 0
-660 326 -264 0
626 -962 238 0
-940 -909 876 0
-982 119 -806 0
100 -523 -577 0
-204 -240 -613 0
-609 663 400 0
57 -816 -985 0
513 338 194 0
179 -696 411 0
-848 -702 581 0
-868 657 205 0
383 110 -17 0
-496 64 -105 0
7 -469 788 0
339 -257 -895 0
426 661 -238 0
-704 914 469 0
278 -924 -468 0
792 -741 350 0
531 -929 640 0
431 -715 -120 0
835 -771 538 0
813 113 -676 0
-584 -704 -674 0
-245 768 -723 0
-683 -618 -117 0
-63 -542 -971 0
-248 705 220 0
-158 569 -193 0
111 -457 -84 0
-525 195 -399 0
-363 -887 -45 0
-915 789 273 0
346 578 -626 0
407 -749 -867 0
797 131 821 0
228 -767 962 0
534 -923 598 0
138 935 422 0
-787 -546 -215 0
-394 272 606 0
-126 511 -681 0
-467 419 -214 0
-838 904 342 0
-124 -471 -189 0
602 -493 -115 0
-981 792 -819 0
-661 -961 -34 0
599 792 -966 0
-501 -732 491 0
418 235 -277 0
-484 6 -515 0
315 -628 905 0
670 -836 -324 0
-532 -617 451 0
317 -20 928 0
411 850 -743 0
-732 -919 947 0
717 681 -235 0
-834 259 14 0
-316 -115 -199 0
-408 -388 -973 0
-938 -582 854 0
-570 431 848 0
403 -638 -60 0
-750 870 -417 0
-160 -234 850 0
880 6 455 0
866 614 -178 0
-324 -235 728 0
-209 -252 68 0
71 744 -949 0
831 -425 -4 0
59 240 511 0
526 -133 -477 0
439 525 688 0
-841 996 453 0
179 86 610 0
886 -954 -465 0
-379 141 240 0
-877 -213 -8 0
-998 -180 -44 0
925 876 824 0
151 240 324 0
93 807 52 0
-591 38 -361 0
288 999 -797 0
811 -955 -134 0
-689 -64 -116 0
-999 -537 -674 0
747 686 982 0
-51 -416 -912 0
725 832 -853 0
-211 885 -905 0
-57 -250 783 0
-589 -504 987 0
627 -201 -256 0
761 813 765 0
-764 933 -214 0
174 374 -245 0
-485 945 620 0
564 -540 -779 0
363 782 195 0
299 -925 346 0
387 -631 134 0
526 -267 805 0
824 262 -472 0
-348 823 -38 0
502 -46 541 0
501 103 -380 0
682 517 54 0
-662 349 558 0
-398 -177 366 0
-444 -105 -88 0
-508 533 -197 0
635 117 328 0
749 144 -805 0
463 545 -990 0
228 468 -268 0
-178 -490 -347 0
350 651 623 0
-234 509 943 0
488 559 -651 0
-87 -109 -581 0
115 159 -51 0
421 -827 -161 0
932 32 -309 0
-766 -771 -162 0
-741 -202 -918 0
-974 669 600 0
3 -734 918 0
-895 956 9 0
-803 416 -441 0
52 249 -461 0
-162 717 105 0
-166 -487 -612 0
402 -883 -819 0
53 -326 -417 0
552 369 457 0
-469 345 547 0
-481 -801 -188 0
811 -929 140 0
-49 -891 -946 0
-490 492 771 0
-338 662 -836 0
-680 403 -910 0
-330 287 806 0
-885 896 -264 0
-623 29 -408 0
650 922 30 0
537 -957 -928 0
173 911 705 0
784 967 263 0
-720 702 85 0
546 -18 -25 0
417 -625 422 0
-294 766 -500 0
634 -659 84 0
-852 800 540 0
395 -482 -178 0
-224 490 330 0
266 193 637 0
568 -663 -347 0
-181 -918 569 0
-579 663 -43 0
-126 -7 128 0
120 -55 758 0
194 -33 41 0
-234 827 -820 0
882 317 -546 0
154 -685 703 0
-174 460 -533 0
-959 -223 300 0
-869 -380 523 0
397 -564 -925 0
-541 -11 -194 0
781 -762 -530 0
19 954 330 0
836 -518 -755 0
544 -183 231 0
-985 407 -670 0
-439 -87 -371 0
970 551 100 0
560 740 974 0
755 -730 -795 0
357 -418 -617 0
997 776 -200 0
-946 253 57 0
-493 -840 -291 0
-856 -364 518 0
-854 163 804 0
297 116 752 0
-770 397 -182 0
345 -233 875 0
-253 422 989 0
213 112 587 0
620 738 -882 0
509 -589 962 0
188 535 678 0
94 -292 771 0
22 952 -200 0
-650 -317 -863 0
-13 392 -514 0
992 60 -874 0
-715 -235 -228 0
299 540 123 0
484 932 969 0
649 721 -287 0
752 17 -889 0
-127 -330 251 0
577 -587 890 0
-920 310 -286 0
-794 -815 -173 0
-662 -288 98 0
142 -458 -620 0
-343 933 14 0
-861 -441 511 0
946 -663 279 0
-951 -420 220 0
-283 455 -447 0
-833 424 -636 0
-624 291 -227 0
-923 424 671 0
-529 -335 245 0
427 449 -233 0
-67 685 41 0
793 127 -361 0
-504 736 501 0
769 90 -473 0
-737 778 28 0
-956 907 -27 0
653 146 -872 0
56 927 -606 0
-590 -817 88 0
47 904 870 0
-766 -22 15 0
78 10 -308 0
-835 313 941 0
-221 83 418 0
642 -578 -470 0
587 -993 983 0
-876 -39 197 0
80 661 242 0
571 147 154 0
-342 -438 389 0
-179 490 444 0
-515 -425 -154 0
735 564 972 0
-993 535 125 0
-801 -485 886 0
-658 -272 950 0
-969 -627 -913 0
-464 -499 -172 0
-473 -775 656 0
-60 789 292 0
601 386 170 0
-335 -564 -369 0
658 -372 16 0
966 213 16 0
577 -636 -619 0
271 400 457 0
237 -787 831 0
209 442 897 0
325 806 788 0
-433 1 265 0
-796 -676 -794 0
745 643 573 0
-682 868 -531 0
-287 -729 514 0
-275 128 -67 0
291 243 -161 0
-878 -215 -321 0
457 -140 -11 0
464 252 -82 0
-645 -581 -67 0
11 463 -483 0
-956 -611 808 0
62 -801 -542 0
-904 -867 -964 0
-360 221 625 0
352 -970 889 0
11 533 670 0
-441 439 317 0
-579 -153 547 0
-781 -932 -63 0
374 464 209 0
600 -336 -80 0
-443 -672 -652 0
-124 -180 100 0
886 -290 791 0
568 -383 -10 0
941 -774 184 0
-681 767 -260 0
-162 -648 100 0
-11 334 718 0
528 -567 857 0
-315 -48 -899 0
382 -705 112 0
-998 574 480 0
332 613 354 0
-930 460 470 0
465 -270 871 0
542 -946 -448 0
-239 417 97 0
4 125 -906 0
-290 -614 -746 0
-704 -152 239 0
152 401 656 0
805 -954 -85 0
723 934 140 0
-213 384 -297 0
-625 -940 280 0
-301 242 -478 0
-580 -894 619 0
158 859 72 0
-234 718 -35 0
-686 -116 -512 0
-156 886 337 0
-572 -201 592 0
-864 -856 -216 0
353 -412 979 0
296 -754 902 0
-534 804 -920 0
532 350 -92 0
999 963 -969 0
-788 -23 838 0
311 528 -979 0
664 891 -695 0
-942 -652 -421 0
910 161 360 0
-482 -976 149 0
-539 84 706 0
-62 -346 -316 0
-190 -207 107 0
860 -177 -5 0
-964 -348 463 0
937 -778 78 0
-784 -121 516 0
252 -331 907 0
-2 512 902 0
318 663 -629 0
253 -836 -680 0
-291 -890 -450 0
-64 -175 758 0
365 398 443 0
94 -153 -377 0
-564 825 -80 0
330 328 -695 0
-859 652 928 0
888 -450 -419 0
-506 -444 -582 0
261 339 614 0
-63 90 534 0
-480 83 29 0
525 -564 -153 0
-597 977 -172 0
535 695 -109 0
13 -669 16 0
-559 627 -267 0
-533 739 280 0
-201 724 -721 0
-205 -637 257 0
-904 5 -110 0
112 77 374 0
734 236 -281 0
-891 -586 -100 0
-1 153 101 0
-74 -813 -234 0
-659 178 -418 0
