p cnf 200 670
-174 -142 -119 0
194 56 -79 0
-64 94 -52 0
138 17 -23 0
-23 148 -33 0
-158 -92 -152 0
142 151 78 0
63 86 163 0
200 -135 -157 0
66 -189 -17 0
80 -122 96 0
6 -15 -28 0
-120 189 -112 0
-198 28 67 0
-191 173 -63 0
30 103 114 0
137 -118 -158 0
54 -92 -177 0
-200 110 24 0
56 -163 188 0
54 38 27 0
182 -188 -51 0
-46 -177 20 0
-172 28 -63 0
180 74 -119 0
19 -73 168 0
194 -24 119 0
72 -159 -103 0
-82 -130 -179 0
179 -29 23 0
-21 184 14 0
25 5 92 0
8 82 84 0
178 153 107 0
111 84 10 0
40 67 -87 0
110 183 -60 0
76 74 -19 0
-35 -98 166 0
43 70 -45 0
148 -16 -146 0
-94 6 -33 0
29 56 -44 0
57 33 35 0
-189 177 -200 0
92 162 -100 0
-175 -199 -169 0
56 -123 -154 0
119 32 186 0
-52 -81 55 0
-110 36 -145 0
192 -37 90 0
56 16 -178 0
-51 43 151 0
-101 -26 -145 0
-23 180 34 0
-106 -63 52 0
-26 -183 -185 0
-35 -149 113 0
99 -33 27 0
-97 -72 49 0
58 179 80 0
-148 -197 99 0
-4 85 -111 0
199 -8 40 0
-178 4 190 0
-178 -33 -130 0
15 10 -134 0
-64 -134 -93 0
-3 16 -15 0
-161 -121 -120 0
-92 -170 24 0
86 -23 -91 0
-165 -162 -126 0
-182 86 18 0
-181 -125 65 0
-56 -89 29 0
-105 -90 -37 0
163 22 -190 0
-73 -148 -178 0
156 144 -147 0
-80 116 -100 0
-6 148 27 0
-103 -181 50 0
159 83 154 0
-45 -102 1 0
122 112 -110 0
-122 179 4 0
-178 68 -84 0
21 -19 -2 0
196 -160 -110 0
195 -91 120 0
122 -35 -159 0
-82 -122 51 0
32 -101 22 0
-187 -188 -13 0
-144 9 194 0
-186 -32 115 0
-186 130 11 0
183 139 92 0
173 -189 31 0
-96 -138 -86 0
-116 135 -88 0
181 42 -77 0
-92 89 147 0
106 55 -13 0
114 -119 170 0
-71 -38 99 0
2 -170 -92 0
-113 -160 16 0
76 -77 -182 0
18 -62 -19 0
91 -120 25 0
-21 -5 14 0
71 -109 -47 0
-75 -194 170 0
-45 -81 199 0
-131 99 185 0
-142 181 -32 0
-25 159 -135 0
102 155 126 0
110 -133 60 0
-28 21 -84 0
-58 71 -2 0
-89 134 -128 0
25 -127 -150 0
180 85 80 0
-170 69 -31 0
150 144 -99 0
26 -42 -131 0
143 27 -103 0
161 51 -64 0
33 -23 -19 0
158 86 33 0
-80 72 -190 0
195 53 -43 0
113 -200 -89 0
143 56 -154 0
72 -137 195 0
-165 50 -9 0
119 -81 29 0
118 -169 -139 0
87 -104 -138 0
177 153 101 0
-54 -12 36 0
50 -145 -137 0
109 155 -65 0
-136 -42 147 0
3 41 127 0
-181 134 68 0
76 -127 57 0
6 -30 97 0
-56 -86 186 0
-42 -139 -93 0
59 178 74 0
98 -125 -143 0
-144 74 153 0
66 -121 36 0
-95 -115 119 0
24 -103 50 0
-132 -18 -21 0
-99 -114 -181 0
-55 105 24 0
-124 -19 -94 0
-18 -62 -109 0
-93 89 165 0
128 -149 178 0
146 34 -77 0
131 103 -140 0
-124 178 -10 0
164 -135 96 0
195 152 22 0
176 -44 193 0
95 115 103 0
-187 199 -111 0
50 -118 123 0
-193 17 -25 0
199 59 90 0
177 120 31 0
-42 -45 -125 0
-101 -95 -141 0
43 -147 -13 0
65 13 -38 0
105 11 118 0
62 -93 197 0
4 17 55 0
102 11 -76 0
178 1 -88 0
-82 -122 33 0
-129 -183 94 0
99 195 -169 0
53 -34 63 0
22 19 -167 0
132 81 163 0
-42 4 52 0
-23 -171 -56 0
168 150 144 0
78 11 -45 0
159 14 -131 0
-87 -160 -192 0
-147 -48 -83 0
-150 111 -108 0
134 -182 -93 0
-172 -198 -123 0
90 -141 -184 0
132 -126 146 0
-98 -199 -177 0
7 75 -106 0
81 -126 -134 0
-162 -29 153 0
-62 49 -68 0
-187 -46 112 0
22 -41 -111 0
86 -24 -70 0
195 63 -61 0
70 -48 -74 0
-161 26 17 0
148 -78 -30 0
47 126 -154 0
-24 -20 46 0
27 -139 -58 0
134 -179 48 0
-110 17 138 0
-116 -146 -61 0
107 128 102 0
-183 -46 175 0
-124 -84 -115 0
171 -74 194 0
-21 -29 -27 0
-8 -132 -150 0
-164 160 -46 0
-77 115 96 0
130 -122 26 0
119 181 132 0
-61 153 76 0
-23 66 26 0
173 -118 -27 0
-180 128 139 0
-179 173 -82 0
149 -115 21 0
58 -97 11 0
-118 -54 -44 0
-33 70 -128 0
-150 187 -42 0
45 91 -109 0
-143 -6 155 0
-70 26 102 0
-49 -107 122 0
46 177 21 0
-82 183 74 0
-2 -119 -115 0
-196 70 42 0
-185 -143 115 0
82 -46 39 0
118 46 158 0
-150 -80 -114 0
29 104 32 0
-200 33 180 0
88 172 148 0
100 -148 77 0
116 110 68 0
-182 -119 199 0
-162 18 -107 0
-169 40 112 0
-103 -200 193 0
74 140 -51 0
78 200 64 0
49 -151 63 0
-56 -96 131 0
63 -16 -19 0
60 156 -12 0
114 -95 65 0
-33 126 -61 0
80 148 -2 0
-122 131 69 0
7 157 -66 0
-167 66 -200 0
-173 -193 -47 0
-117 121 196 0
-22 56 134 0
154 -73 -139 0
20 16 -26 0
-135 -198 -115 0
188 102 -81 0
-167 137 -193 0
-44 1 -192 0
-197 147 126 0
84 67 171 0
-17 153 93 0
-141 -73 -125 0
171 59 168 0
150 10 36 0
154 49 -26 0
-184 -180 -197 0
121 166 69 0
31 189 81 0
163 -37 104 0
-11 138 -183 0
-8 135 18 0
112 -187 -4 0
-84 116 -44 0
-92 121 102 0
-150 131 28 0
128 72 -6 0
35 93 150 0
66 -71 102 0
-23 117 -96 0
169 103 -116 0
-17 97 29 0
74 -107 -185 0
118 -46 -140 0
-44 -155 -171 0
51 -83 57 0
-164 -138 179 0
11 -169 -36 0
-94 132 -85 0
66 -93 20 0
-40 -82 -152 0
-4 192 156 0
-5 -12 -131 0
118 16 172 0
180 -120 -199 0
-97 -140 28 0
-57 -97 125 0
147 160 128 0
-191 -109 56 0
-6 -170 -112 0
-4 118 -53 0
164 -40 51 0
-182 -12 85 0
127 80 -123 0
-66 -152 -169 0
172 14 71 0
-33 -134 -7 0
-86 112 -116 0
-195 -151 -105 0
-18 159 -21 0
-49 142 184 0
-189 163 186 0
18 -119 159 0
80 -142 -46 0
-50 25 -146 0
129 -78 4 0
-115 143 -142 0
-137 93 -99 0
15 68 59 0
-134 -199 -163 0
-4 153 102 0
65 22 -189 0
180 -20 -198 0
32 -160 -85 0
-30 76 -23 0
-172 -88 -28 0
-42 106 -156 0
64 141 143 0
179 -125 -39 0
19 66 -2 0
-163 -108 -35 0
-101 41 105 0
-90 73 -200 0
99 160 84 0
-81 196 -10 0
-24 188 -90 0
-120 51 -72 0
-56 89 -103 0
134 -51 -16 0
112 63 108 0
-35 -155 -170 0
10 45 82 0
172 131 6 0
81 73 199 0
24 -63 -28 0
86 59 -147 0
-134 -83 -26 0
-77 196 177 0
-73 137 -131 0
-188 100 -21 0
-39 -151 153 0
-115 96 192 0
128 -35 -70 0
85 -180 -15 0
-75 150 -39 0
-16 -155 13 0
-92 135 -176 0
-49 196 96 0
60 42 134 0
129 116 -6 0
-8 -90 -115 0
16 -157 -120 0
-23 104 129 0
-64 -116 -51 0
182 177 75 0
-102 129 60 0
148 191 12 0
-144 72 145 0
9 -159 -145 0
72 144 -78 0
-157 22 145 0
163 -34 137 0
-25 -182 -16 0
142 52 -60 0
-196 -80 -141 0
194 -164 -82 0
-51 2 40 0
-101 44 -53 0
38 -92 123 0
-5 160 -65 0
84 -128 59 0
-97 200 195 0
-60 -69 -119 0
15 78 -62 0
189 136 -142 0
5 -194 -4 0
107 97 -103 0
-77 147 -174 0
13 55 -99 0
-138 -125 -157 0
-8 -163 -40 0
191 160 -121 0
74 -23 -83 0
135 81 43 0
88 95 188 0
-31 -6 78 0
104 129 191 0
-200 -26 102 0
-133 -25 18 0
137 183 45 0
36 -67 -94 0
-136 -134 63 0
185 -28 -112 0
-132 122 46 0
-143 -183 30 0
-48 -36 149 0
46 5 -113 0
-186 61 -123 0
-8 -36 -48 0
168 162 23 0
-139 143 120 0
-140 71 -78 0
182 -146 37 0
144 120 121 0
63 -92 40 0
-119 70 115 0
-141 198 -196 0
46 -143 -48 0
-177 -137 34 0
162 142 1 0
-81 -184 167 0
-72 -24 117 0
27 -11 -187 0
-122 124 -106 0
-87 25 121 0
31 -163 -101 0
60 39 -185 0
21 181 124 0
-167 180 -181 0
53 -21 58 0
44 5 200 0
-65 -80 16 0
-123 -145 -176 0
166 86 177 0
139 90 97 0
20 -10 -191 0
161 35 -75 0
162 85 198 0
-79 94 174 0
152 -81 73 0
-181 158 -83 0
32 178 64 0
-110 100 151 0
131 -58 67 0
-28 172 -190 0
84 -142 -163 0
154 -89 -134 0
-53 110 122 0
-44 -40 -33 0
119 -10 26 0
177 -121 192 0
142 -158 -56 0
152 -96 99 0
-70 90 152 0
200 -107 147 0
111 -37 105 0
86 186 38 0
31 159 123 0
38 31 188 0
-66 64 127 0
86 136 60 0
-147 -56 -47 0
-191 -142 -54 0
-22 67 -27 0
124 16 29 0
-21 -35 182 0
149 -93 -142 0
-80 -193 -123 0
115 101 31 0
76 -53 21 0
189 -90 -186 0
-153 -198 195 0
-135 22 21 0
162 -141 -164 0
-53 125 -195 0
-85 -50 -121 0
-76 -2 -83 0
-96 -70 33 0
-132 -116 -115 0
-14 190 1 0
45 -18 -123 0
83 -19 -173 0
29 -135 -200 0
35 -141 41 0
-9 -174 94 0
-65 120 -27 0
174 -194 -100 0
156 49 -114 0
29 171 -90 0
-77 117 70 0
108 -40 162 0
141 64 8 0
103 -183 -93 0
5 -65 21 0
69 -84 161 0
74 -18 179 0
126 -167 179 0
-168 123 -57 0
110 -143 17 0
73 -46 -178 0
-161 141 44 0
-76 192 -179 0
-23 173 -63 0
52 -6 13 0
132 -105 -118 0
-159 114 -198 0
146 156 167 0
-173 16 -98 0
198 -139 -183 0
-39 54 71 0
42 52 45 0
134 -24 -157 0
34 -75 20 0
56 -63 94 0
-179 -20 122 0
-42 10 -32 0
41 183 -65 0
-104 171 -124 0
1 114 66 0
110 -162 -193 0
-77 -158 197 0
-186 142 -51 0
89 -83 32 0
-132 -148 -38 0
185 103 -165 0
7 -8 179 0
-59 111 78 0
154 9 32 0
-91 -79 88 0
184 -164 -188 0
144 -123 -31 0
172 -6 -95 0
-55 72 -24 0
72 -148 168 0
156 -86 -165 0
-126 119 -114 0
-177 -73 14 0
-178 -66 -184 0
-36 13 154 0
113 -60 -128 0
135 99 171 0
-90 12 49 0
-122 100 -15 0
140 -175 52 0
186 18 -128 0
144 -61 -153 0
-57 -126 51 0
-67 -180 -167 0
99 77 -152 0
-193 -12 -176 0
61 154 -138 0
-114 162 -46 0
-39 180 134 0
-37 72 -129 0
102 142 -77 0
-188 -71 198 0
85 -56 -191 0
-106 149 -33 0
-39 -20 -175 0
188 47 75 0
106 -172 123 0
168 -142 4 0
81 147 193 0
-152 -128 -168 0
-24 174 -184 0
-143 11 -36 0
-66 98 -109 0
-21 -126 176 0
-46 -75 -185 0
8 -145 157 0
49 -142 -131 0
33 -87 -17 0
-141 114 190 0
-23 -107 72 0
-53 -9 -74 0
99 -150 154 0
79 -178 88 0
123 38 -145 0
-177 46 -67 0
-6 109 110 0
50 -199 -151 0
30 -3 -182 0
-69 -185 65 0
-103 -128 -118 0
-70 -52 -37 0
81 -95 -191 0
73 34 -133 0
197 110 83 0
79 98 -60 0
-47 3 195 0
-109 -88 127 0
-8 -177 138 0
126 171 19 0
35 55 182 0
-54 -114 177 0
70 -106 14 0
-59 -146 45 0
-180 34 31 0
119 97 177 0
-173 -120 -78 0
-178 161 -72 0
66 -27 52 0
51 79 -106 0
129 190 -150 0
-8 -54 -27 0
12 107 -81 0
-108 152 47 0
-172 32 193 0
104 -198 167 0
148 -169 -162 0
-8 166 189 0
-174 -194 44 0
-51 -194 -117 0
187 188 169 0
178 -156 52 0
47 -122 -114 0
145 -104 73 0
-183 -55 123 0
83 36 131 0
20 124 -36 0
168 167 -133 0
-147 162 148 0
-52 90 -62 0
-61 -136 -94 0
-168 154 -24 0
-127 -58 33 0
-156 -22 141 0
59 -134 -177 0
194 44 7 0
197 -108 2 0
-136 83 -70 0
17 121 -91 0
-180 -120 21 0
188 39 -92 0
33 130 -174 0
126 -102 182 0
-108 119 -158 0
34 -150 40 0
74 -157 -25 0
-99 -13 42 0
19 -169 139 0
-79 122 2 0
-122 -28 -179 0
