p cnf 500 1700
416 -228 161 0
-44 414 -292 0
464 -1 -103 0
226 148 347 0
-270 55 -266 0
-252 -421 186 0
477 48 -271 0
-74 -442 -307 0
382 -433 -177 0
-170 308 -270 0
-296 336 -492 0
-119 -179 -405 0
-307 -463 376 0
-237 -269 -56 0
-458 297 415 0
-407 -306 -84 0
447 -413 38 0
-19 463 281 0
-265 317 -77 0
-333 -179 1 0
400 -182 469 0
-4 56 371 0
-411 -324 399 0
490 420 83 0
418 -21 -90 0
295 -181 -150 0
-193 123 169 0
458 160 48 0
418 424 327 0
63 -467 488 0
-42 64 188 0
346 -244 375 0
87 -47 -5 0
326 12 -451 0
-406 432 95 0
473 -9 -432 0
107 431 -320 0
-194 278 -229 0
278 -376 60 0
-347 -230 -6 0
473 -364 -453 0
-354 57 424 0
243 -376 -218 0
-249 435 -223 0
-76 -175 34 0
-15 281 -326 0
-492 74 224 0
-325 -247 -390 0
299 20 170 0
86 450 163 0
163 105 29 0
-294 -359 132 0
-18 -35 -418 0
-169 -44 -183 0
-239 -356 -496 0
132 -9 335 0
127 -224 -165 0
-263 -51 -306 0
-59 271 73 0
-417 -201 386 0
478 396 -457 0
-260 370 -215 0
-61 -364 -387 0
188 -70 226 0
-83 322 -303 0
-123 206 111 0
87 109 350 0
-94 -211 -17 0
-123 -202 -233 0
-107 -160 453 0
349 286 73 0
248 74 167 0
129 -352 -348 0
-179 -175 -384 0
-303 -173 -461 0
457 -467 75 0
199 -334 190 0
321 -283 382 0
175 -109 393 0
-428 -246 184 0
224 -418 -76 0
-251 -184 -227 0
-98 454 -354 0
326 356 428 0
-300 -255 -421 0
-7 -228 217 0
37 168 -30 0
323 201 3 0
204 -117 -315 0
26 71 142 0
-155 298 344 0
18 -55 481 0
394 -69 -304 0
-280 99 -388 0
-182 -404 219 0
306 -161 96 0
173 395 146 0
402 225 11 0
-169 -475 216 0
292 -85 -135 0
-91 -92 368 0
61 -353 -383 0
216 487 -272 0
-259 -282 431 0
499 277 -355 0
-398 -15 322 0
300 465 -317 0
-453 168 -366 0
189 -496 -107 0
23 -206 355 0
-121 -207 -312 0
199 86 -476 0
-207 282 322 0
-63 131 -410 0
-412 -21 -150 0
-407 400 -453 0
-39 485 -499 0
280 324 -332 0
-18 116 129 0
-409 316 -176 0
-62 -201 279 0
162 187 213 0
438 218 -384 0
461 170 286 0
238 -287 -233 0
334 217 -373 0
-412 -468 -316 0
104 330 431 0
-386 -41 438 0
370 -391 -145 0
-307 -304 -377 0
-282 273 -160 0
-208 -284 -417 0
97 -490 391 0
476 48 -241 0
265 342 437 0
186 474 -322 0
399 -431 214 0
-182 -394 -35 0
-126 -46 131 0
-66 102 464 0
-230 -284 421 0
222 -45 -158 0
115 494 -17 0
357 -466 -339 0
-170 -171 -191 0
275 -263 -329 0
-440 -308 373 0
-348 -186 -286 0
-143 442 -188 0
446 373 202 0
-428 82 314 0
-269 -97 431 0
-468 -398 139 0
434 -202 -208 0
30 331 -175 0
-247 -42 319 0
320 149 -285 0
379 -481 -94 0
-120 -322 145 0
-459 114 -68 0
308 20 -283 0
-414 -90 -86 0
-284 -380 340 0
160 459 -270 0
-378 158 -476 0
-300 -77 288 0
-66 223 168 0
469 -355 109 0
35 449 218 0
398 294 -376 0
95 -325 -316 0
71 -8 161 0
397 -304 68 0
26 -214 -31 0
-302 329 306 0
233 393 156 0
194 447 18 0
162 -47 -127 0
-308 38 54 0
383 -403 -88 0
-208 460 133 0
-306 -16 153 0
-39 19 -347 0
386 181 358 0
117 454 -388 0
481 220 108 0
448 -89 281 0
39 193 -306 0
188 79 211 0
-115 28 13 0
-290 -174 277 0
-109 -46 385 0
75 -475 59 0
259 10 -387 0
43 441 37 0
-311 343 60 0
97 457 486 0
267 426 255 0
-13 -50 315 0
-408 312 432 0
263 -111 147 0
-19 226 80 0
-285 430 -37 0
-444 -385 -15 0
-244 340 312 0
276 -100 -355 0
491 -331 483 0
218 244 -234 0
215 270 -499 0
-153 -1 -92 0
322 84 4 0
-213 -419 28 0
490 152 51 0
358 -450 96 0
125 -286 -140 0
261 320 155 0
-171 259 102 0
-487 -131 440 0
294 -5 195 0
84 -9 77 0
-28 189 125 0
-132 -140 -167 0
97 378 -416 0
231 -3 39 0
-93 -317 -81 0
-75 -121 187 0
-291 -415 419 0
165 -26 -154 0
-156 167 -371 0
-129 -63 -231 0
-103 -49 -243 0
222 -247 227 0
473 416 413 0
268 297 262 0
285 -43 -239 0
264 254 -172 0
-106 -238 362 0
-310 320 99 0
474 -106 375 0
262 -461 203 0
-191 327 476 0
428 -362 475 0
-380 -370 122 0
-468 -134 -188 0
452 361 235 0
-407 -152 27 0
43 -285 49 0
65 -41 263 0
185 297 126 0
-46 159 -33 0
-475 -257 -472 0
300 -290 -318 0
-7 -456 -350 0
419 -223 -295 0
169 366 298 0
324 -187 -114 0
345 -233 -11 0
257 -131 -421 0
-290 -273 241 0
-393 -320 151 0
-10 -318 -323 0
-315 -63 131 0
-3 135 77 0
-392 62 147 0
40 -273 -411 0
-474 -433 348 0
-409 -157 -490 0
315 -135 -204 0
-493 -496 37 0
25 88 -265 0
-277 16 -444 0
237 -326 115 0
390 257 -28 0
-41 330 193 0
-233 297 -298 0
137 395 464 0
208 473 429 0
-353 -213 -197 0
116 -98 -312 0
464 -110 187 0
26 -51 -88 0
260 -151 -378 0
-108 -79 -345 0
-336 -307 351 0
-334 143 -183 0
449 -156 273 0
-165 241 221 0
464 200 164 0
323 -18 -58 0
-460 44 -133 0
287 -468 -424 0
412 -94 212 0
-201 20 35 0
34 286 -258 0
229 -305 42 0
-255 -477 -204 0
120 174 -198 0
-109 -304 -388 0
32 -389 259 0
348 -371 -460 0
477 -319 60 0
-109 -11 381 0
250 -45 240 0
171 -114 -418 0
191 338 356 0
-350 404 -297 0
428 -365 432 0
-382 -41 418 0
-173 -7 -144 0
-223 -138 -161 0
496 -474 -165 0
-120 79 435 0
264 -286 -469 0
73 -451 366 0
290 170 -154 0
-321 -115 277 0
-113 -266 -216 0
-122 -325 69 0
-277 -411 333 0
122 -85 -192 0
295 -472 462 0
107 232 163 0
-251 -444 51 0
154 -363 -391 0
-311 58 285 0
-473 -58 -329 0
-153 232 -381 0
6 -321 115 0
208 411 -122 0
20 23 471 0
-119 319 -264 0
-264 464 424 0
85 -426 -43 0
-5 -448 11 0
-489 -479 -418 0
-287 -215 209 0
-389 332 207 0
-26 154 306 0
426 -195 -213 0
-443 -249 -418 0
308 487 -337 0
-411 -378 -325 0
454 -458 34 0
-300 -180 157 0
337 -310 446 0
-437 386 404 0
-80 -191 -52 0
-238 499 -458 0
81 -210 -305 0
-336 264 177 0
3 354 124 0
-153 -300 -339 0
468 403 345 0
-152 -22 292 0
292 105 22 0
-324 -56 80 0
-70 297 -58 0
-297 -98 330 0
-137 83 -250 0
-407 410 58 0
157 -359 -99 0
186 241 -310 0
-69 -41 303 0
-427 358 323 0
342 255 86 0
-143 248 130 0
-311 -150 416 0
-154 -398 -91 0
424 -475 -164 0
117 -74 295 0
-427 -429 -268 0
307 -99 -341 0
125 219 7 0
190 -36 251 0
377 -310 20 0
428 -408 338 0
15 -368 -422 0
-64 368 112 0
148 -433 156 0
206 -494 489 0
-428 -408 -470 0
-224 -133 -213 0
65 240 -404 0
133 -314 365 0
88 -484 -475 0
147 368 8 0
330 -335 38 0
-447 485 -425 0
-456 329 -30 0
-226 491 137 0
433 -415 149 0
-429 277 -50 0
72 -417 -421 0
-393 -400 -250 0
397 -102 -428 0
-258 479 107 0
285 290 324 0
-457 356 -282 0
225 2 -370 0
-103 -190 -447 0
-222 441 191 0
404 314 469 0
-49 -236 -160 0
-333 484 35 0
322 373 467 0
-286 -17 -13 0
495 -104 -82 0
491 -147 422 0
-343 -424 -439 0
212 -390 483 0
-24 89 12 0
48 -110 -273 0
206 334 -63 0
145 155 114 0
350 112 -248 0
144 137 -190 0
-429 -319 -385 0
388 446 392 0
365 394 308 0
-287 -264 -411 0
-128 -58 -178 0
-18 -441 -291 0
174 189 -168 0
-192 -219 483 0
23 45 -83 0
-102 -246 419 0
-143 -141 430 0
335 318 234 0
-161 432 155 0
-318 22 240 0
426 351 -295 0
-17 295 292 0
427 -294 317 0
137 202 334 0
442 -103 -95 0
-154 466 151 0
41 487 -67 0
260 -160 383 0
299 230 460 0
303 -287 -116 0
-304 -361 -105 0
-32 -482 275 0
236 283 -11 0
221 -389 486 0
-493 370 -184 0
-148 -112 -195 0
-414 272 -153 0
-90 -364 -59 0
-118 -482 -406 0
-110 -237 -452 0
-212 62 312 0
-54 -405 391 0
-491 24 -263 0
429 134 -390 0
-133 483 -76 0
-255 -304 -317 0
-13 105 -15 0
193 -253 14 0
-210 -239 -460 0
118 328 -278 0
80 285 -427 0
34 395 451 0
15 156 -184 0
427 -156 360 0
310 132 -368 0
154 198 57 0
-390 -11 -169 0
149 383 -25 0
-409 -200 -388 0
371 -25 170 0
-188 -372 27 0
27 366 -150 0
-483 405 151 0
312 97 267 0
-437 41 9 0
192 -311 -447 0
384 354 -281 0
295 -337 -414 0
-413 483 256 0
-346 -437 348 0
-102 -201 171 0
148 -335 -392 0
348 -216 -25 0
-321 33 102 0
-361 -316 -20 0
320 298 432 0
-138 -205 -473 0
-84 228 152 0
-343 -65 377 0
-354 345 254 0
-499 355 6 0
-489 -43 -22 0
80 -358 -455 0
307 -225 -369 0
-97 199 -153 0
-285 124 211 0
136 287 385 0
-415 158 -493 0
-261 -223 -337 0
109 369 -417 0
-179 298 39 0
-145 -333 137 0
110 231 77 0
200 173 -7 0
-115 -374 214 0
427 -373 26 0
-29 279 -81 0
-272 317 139 0
151 -266 216 0
-92 -467 132 0
197 -225 39 0
-97 101 126 0
219 -306 -240 0
-421 -221 287 0
-178 -59 449 0
-434 -119 -415 0
22 -493 340 0
70 -274 339 0
-169 101 178 0
377 244 -374 0
-497 -67 187 0
15 318 72 0
-167 -487 13 0
-196 493 466 0
164 472 174 0
73 -314 432 0
-70 131 -443 0
80 -415 -475 0
-226 -415 177 0
-472 292 -245 0
-345 55 -309 0
24 189 -292 0
-358 -418 474 0
441 -407 158 0
-400 262 105 0
-77 345 -47 0
-124 -446 229 0
-4 70 58 0
193 -388 -176 0
-404 -161 80 0
279 389 453 0
491 -162 87 0
296 -310 -236 0
-399 -420 353 0
129 429 -432 0
-411 -287 -306 0
-227 199 220 0
89 19 226 0
305 -284 -417 0
-132 203 229 0
188 -450 -118 0
254 90 -361 0
-353 357 -355 0
-177 406 217 0
242 -335 -354 0
-159 67 -364 0
-419 268 250 0
393 358 463 0
-275 -273 -384 0
6 243 200 0
-247 431 -358 0
-493 42 260 0
-129 410 342 0
-70 -408 225 0
-99 207 340 0
118 73 -464 0
378 -315 68 0
-492 417 48 0
-86 -114 462 0
428 -431 -394 0
429 334 328 0
54 417 439 0
-181 370 -1 0
-312 -238 268 0
-255 120 127 0
146 300 -239 0
149 -422 -381 0
-88 -233 -415 0
-38 93 399 0
-277 -166 100 0
-361 296 60 0
430 -85 -359 0
-60 245 -98 0
69 -178 -383 0
369 -488 -354 0
441 262 -242 0
-495 240 182 0
176 -312 -195 0
-242 414 296 0
461 171 258 0
497 322 -53 0
401 485 458 0
270 340 179 0
267 107 124 0
384 -247 385 0
-354 -32 -185 0
-23 446 204 0
303 9 -117 0
-198 108 376 0
-31 -392 143 0
424 -52 242 0
169 -415 251 0
143 -168 -212 0
134 -449 126 0
166 -5 -223 0
-364 -186 227 0
-455 -206 217 0
428 -87 -337 0
144 -165 -268 0
-215 362 -219 0
115 -442 -447 0
279 315 -351 0
-63 -245 393 0
-169 -472 -149 0
71 -45 128 0
-460 -440 174 0
-420 463 -309 0
-396 -472 127 0
95 -52 -26 0
-38 -494 -260 0
-228 255 -124 0
-260 -298 421 0
-379 -421 -396 0
287 123 400 0
241 48 461 0
-406 376 -90 0
73 -355 321 0
-89 -88 215 0
-210 -395 254 0
-97 -62 -164 0
-313 372 342 0
275 486 162 0
155 86 -19 0
218 -235 -484 0
-387 342 -205 0
100 347 -463 0
314 -324 -188 0
262 64 28 0
49 240 178 0
-462 171 -441 0
296 -223 14 0
-404 -299 -119 0
-190 467 285 0
331 -70 500 0
-66 344 463 0
-119 172 87 0
-221 486 439 0
227 -84 166 0
-487 177 -346 0
-290 -273 445 0
483 -43 -79 0
19 168 -333 0
175 29 473 0
-124 360 6 0
325 -274 17 0
-450 233 210 0
-253 -368 137 0
249 -495 -366 0
-287 118 273 0
299 -267 -330 0
-142 -350 206 0
-58 -275 -281 0
168 -416 -99 0
-365 -247 -68 0
72 -81 27 0
-36 104 -88 0
296 -333 -375 0
182 125 -99 0
308 483 -187 0
-464 449 -434 0
-237 389 166 0
-190 380 1 0
-22 -455 -422 0
434 -489 282 0
300 220 463 0
2 85 -388 0
90 -405 -6 0
-13 -231 -380 0
-362 86 -284 0
95 -113 -7 0
458 -63 -167 0
-183 390 279 0
-244 -410 427 0
212 40 -173 0
121 -453 406 0
-391 -450 470 0
1 40 -74 0
457 24 94 0
286 -340 -415 0
-26 362 -269 0
-346 -181 96 0
69 -93 -478 0
-249 114 278 0
111 405 -368 0
-161 468 -61 0
-192 -419 -291 0
-430 -418 46 0
355 210 37 0
361 -46 -142 0
-176 160 272 0
-153 111 106 0
-6 -164 134 0
-45 346 -480 0
-133 -180 -299 0
-210 -50 -155 0
-50 -310 451 0
-292 195 137 0
55 -116 384 0
296 -255 -160 0
-500 -189 112 0
55 91 223 0
334 -210 -139 0
278 -445 478 0
150 -124 -318 0
-112 -41 435 0
-40 405 -460 0
-97 30 57 0
346 -475 182 0
-485 -372 -429 0
252 424 -348 0
185 -452 165 0
228 -148 15 0
-308 329 -341 0
138 -104 200 0
353 -162 268 0
-117 291 -252 0
-316 57 -165 0
451 -344 194 0
-174 440 -320 0
294 -171 157 0
-327 220 257 0
377 -131 159 0
-190 -204 250 0
179 -93 -232 0
313 -328 -356 0
-17 -106 -38 0
483 227 425 0
269 -47 231 0
-358 -449 -378 0
-383 123 -118 0
-419 56 319 0
37 225 233 0
209 -172 -71 0
426 -240 -137 0
467 251 -264 0
277 -499 -485 0
-432 -260 -322 0
-101 -135 -430 0
-315 327 422 0
74 -416 -405 0
-20 -24 -1 0
-496 257 310 0
226 -69 -464 0
-173 149 -30 0
58 -136 -417 0
500 -49 -36 0
-53 293 -193 0
-81 312 295 0
-192 359 -360 0
-9 -425 -375 0
-423 39 312 0
310 102 159 0
-476 -465 -348 0
-498 -475 -359 0
-27 -209 -266 0
-348 -492 -185 0
338 424 492 0
51 409 192 0
63 -348 -111 0
460 492 -255 0
-422 211 -54 0
463 349 453 0
289 2 -138 0
499 -280 489 0
-432 -489 70 0
-419 457 21 0
-491 399 -145 0
13 438 -373 0
-129 -248 377 0
288 -347 121 0
264 -256 -163 0
-415 -78 23 0
163 295 -219 0
193 -349 226 0
-187 488 -167 0
-149 85 -64 0
181 -156 254 0
-469 -395 143 0
-91 -428 10 0
-42 -265 138 0
145 -219 337 0
92 429 -266 0
423 143 368 0
88 352 -140 0
319 297 132 0
336 -472 -237 0
-170 285 443 0
-259 -36 -132 0
30 -76 282 0
15 281 233 0
48 -496 20 0
-389 271 -479 0
8 -430 -464 0
34 -12 -364 0
364 415 -160 0
298 414 460 0
-369 -322 -334 0
335 315 -276 0
450 -282 212 0
125 394 195 0
258 -23 -80 0
-326 -238 -98 0
13 -415 -492 0
187 -415 154 0
-91 -471 216 0
412 26 413 0
344 244 -445 0
-101 90 -446 0
37 -351 -307 0
241 464 -343 0
251 -109 -418 0
87 -481 462 0
295 162 -263 0
243 -113 348 0
-426 179 414 0
-444 -210 448 0
-242 250 -409 0
-348 145 -243 0
-270 209 -296 0
430 -325 -363 0
350 -155 202 0
225 -474 -498 0
-224 220 -74 0
-217 -9 240 0
-134 -423 -97 0
-89 207 249 0
369 207 6 0
-179 463 280 0
-477 -255 -253 0
-137 374 172 0
83 376 146 0
212 119 -305 0
-484 212 162 0
-34 -75 -186 0
230 160 320 0
339 -383 130 0
-94 -291 -186 0
118 209 -27 0
247 436 -335 0
-100 -416 215 0
237 236 -101 0
-105 207 430 0
-473 92 151 0
231 -190 -110 0
445 -36 -354 0
-40 148 -473 0
-200 -461 485 0
243 -298 107 0
-388 415 182 0
296 -488 -465 0
-194 395 -225 0
477 232 113 0
-256 -138 -440 0
396 -353 -364 0
-27 300 44 0
-194 -442 -221 0
48 -53 180 0
257 155 -309 0
-332 146 -65 0
-78 64 -335 0
341 -164 -336 0
341 -191 -102 0
-286 -260 69 0
-360 -413 -410 0
-170 5 -428 0
-279 -479 138 0
-320 465 47 0
333 -200 489 0
-36 54 469 0
96 -258 -175 0
-344 -472 293 0
89 313 264 0
386 -147 -446 0
-357 9 -152 0
-82 123 265 0
42 -7 313 0
8 387 -464 0
-478 279 -395 0
164 370 -449 0
-345 235 -130 0
250 290 -87 0
191 204 -284 0
342 291 -201 0
27 -157 91 0
174 -268 374 0
-472 127 140 0
-176 2 56 0
126 -92 -475 0
454 470 -383 0
186 14 -40 0
-6 -189 -350 0
-418 -424 -239 0
488 -333 -415 0
36 -117 -183 0
465 201 38 0
425 331 375 0
56 305 -143 0
-268 126 8 0
-32 -399 -146 0
-92 -28 433 0
433 65 -194 0
-162 -127 -417 0
386 340 5 0
-231 -436 408 0
417 -191 -42 0
268 163 411 0
255 433 -260 0
-420 246 312 0
79 -33 -446 0
-314 -138 195 0
31 80 -276 0
190 -97 222 0
-142 -79 -200 0
495 484 -140 0
488 -480 158 0
163 132 499 0
383 401 -288 0
-268 36 -341 0
-110 193 -105 0
476 229 -268 0
-78 -469 -424 0
68 476 306 0
163 -367 -31 0
471 -138 75 0
-399 386 -241 0
-283 68 200 0
398 432 -62 0
-56 -418 -118 0
63 293 172 0
150 291 -155 0
40 -484 -119 0
360 61 -37 0
48 272 434 0
369 43 -48 0
-428 440 500 0
482 -229 441 0
-111 -404 -427 0
-354 -306 136 0
-292 -307 -147 0
-232 241 -172 0
-8 495 -115 0
61 130 261 0
212 -384 -392 0
400 459 475 0
198 -410 105 0
401 -245 57 0
450 -128 26 0
305 230 133 0
-497 284 92 0
-440 401 383 0
163 362 319 0
-61 -138 -430 0
127 225 -169 0
-457 403 460 0
286 -203 430 0
-130 -349 275 0
-100 439 234 0
-399 -454 253 0
-378 -61 -410 0
-277 -454 218 0
-81 2 -462 0
279 141 -473 0
-477 445 403 0
-334 -424 461 0
-173 -466 496 0
-378 -490 31 0
5 -358 -341 0
-337 -86 -246 0
107 -159 -302 0
182 -498 331 0
-258 -89 93 0
438 208 181 0
407 262 79 0
279 412 -90 0
-296 -229 163 0
-396 189 -236 0
181 200 -2 0
-359 -347 345 0
415 434 -254 0
493 -157 -348 0
269 -485 470 0
133 351 283 0
185 -464 421 0
257 -110 429 0
239 -73 -386 0
224 -80 -300 0
-493 -16 393 0
-45 223 -416 0
182 162 -75 0
-440 -353 457 0
77 111 304 0
424 -368 60 0
353 345 -396 0
-104 -215 -6 0
-362 358 263 0
372 349 -229 0
267 -437 -200 0
38 -189 -17 0
317 -222 -170 0
-274 443 136 0
-300 -168 146 0
-108 434 139 0
103 -330 -498 0
225 -200 458 0
408 -440 133 0
-439 405 288 0
262 -386 107 0
-7 246 -165 0
-375 334 -25 0
-34 -166 496 0
-349 229 -400 0
-303 297 -276 0
32 -362 -318 0
-477 -172 216 0
40 -167 -92 0
-446 307 441 0
-33 80 369 0
114 39 252 0
216 211 -246 0
498 -73 466 0
303 442 24 0
-497 -481 -146 0
-95 494 296 0
327 -351 266 0
-236 -168 358 0
-13 -158 237 0
-14 401 -160 0
-73 -142 -107 0
451 -93 -280 0
177 -173 -287 0
14 67 266 0
-43 183 170 0
-29 -12 -438 0
358 -195 -196 0
-153 -230 23 0
123 -413 302 0
432 -376 -477 0
-456 428 -85 0
-483 -166 122 0
-182 -300 281 0
235 -353 269 0
-123 444 420 0
267 186 -411 0
-107 30 223 0
-161 176 115 0
222 76 -94 0
314 -297 -497 0
372 -424 -462 0
-239 410 138 0
457 -41 -323 0
232 -458 7 0
-49 441 334 0
-94 -376 -401 0
252 -182 276 0
-447 -473 435 0
-389 -490 -306 0
-239 65 440 0
126 238 471 0
-474 -256 -427 0
210 255 -318 0
35 -278 -483 0
432 441 -45 0
60 -251 -324 0
159 346 -256 0
-224 -320 264 0
118 -287 273 0
-253 134 482 0
392 260 440 0
-298 -16 480 0
191 -26 -385 0
179 37 -381 0
315 472 -341 0
-307 -426 491 0
435 272 433 0
-6 -377 -352 0
332 280 -351 0
-128 -431 -141 0
43 -203 48 0
-139 380 489 0
154 -401 -88 0
-353 -413 -451 0
-303 -481 -305 0
-188 77 -202 0
-94 -197 -446 0
478 128 -190 0
240 -412 -259 0
-269 305 141 0
480 -326 -104 0
20 82 -16 0
-196 -218 207 0
-451 14 267 0
415 -203 -183 0
479 10 -485 0
371 437 231 0
320 -269 339 0
-468 51 72 0
202 40 -415 0
-85 -334 385 0
259 435 476 0
179 76 356 0
-118 -282 404 0
414 15 -423 0
261 -256 139 0
290 -121 -458 0
-421 360 -57 0
-312 22 -158 0
-196 135 239 0
-353 148 -423 0
-9 -7 427 0
91 233 36 0
205 -282 -100 0
-326 -50 -486 0
451 -55 -320 0
490 354 -494 0
399 98 -307 0
257 -227 104 0
-472 429 38 0
-118 69 426 0
-124 197 230 0
196 465 367 0
-496 100 497 0
-149 -308 -260 0
-326 -299 400 0
292 430 -435 0
-35 -67 -387 0
289 412 -271 0
137 72 485 0
-490 -410 -472 0
4 -178 -491 0
326 289 286 0
-372 -174 -65 0
-241 -201 -470 0
-236 -242 -239 0
373 -495 -315 0
1 205 -484 0
-126 265 221 0
360 59 299 0
-294 -264 -100 0
-221 165 5 0
366 -110 -193 0
181 -111 147 0
-492 -207 -42 0
-57 387 438 0
234 315 409 0
382 -85 -51 0
218 351 82 0
13 -192 -209 0
195 -400 105 0
163 -56 248 0
440 2 83 0
-96 -107 -315 0
316 -103 -463 0
-318 -500 348 0
12 351 206 0
378 211 175 0
485 -312 278 0
189 331 -237 0
228 -60 -429 0
-158 -179 343 0
82 403 -370 0
107 152 325 0
363 -241 -415 0
-395 -406 -68 0
356 -378 141 0
236 -423 -314 0
-122 -260 -48 0
226 215 -176 0
255 406 -388 0
-129 -142 -305 0
-165 -393 52 0
-478 231 -166 0
-322 -225 108 0
427 -483 317 0
-356 -427 52 0
223 -180 432 0
-486 -6 -68 0
33 -429 -125 0
-103 166 88 0
-480 -263 461 0
360 474 152 0
464 66 -474 0
41 39 -405 0
373 -224 -107 0
139 497 331 0
70 21 241 0
183 405 -466 0
-25 105 375 0
-40 13 496 0
263 -474 -208 0
-213 -262 74 0
150 474 -175 0
331 353 86 0
400 -376 383 0
-16 40 81 0
183 -468 179 0
251 164 -98 0
-279 105 147 0
-433 -153 -387 0
279 -437 -236 0
348 215 470 0
-46 471 -165 0
-221 -7 101 0
-110 -300 -373 0
-81 11 -61 0
-249 153 -104 0
494 344 63 0
179 -152 -170 0
-20 -134 -87 0
-444 367 -26 0
306 -76 -372 0
-96 81 386 0
485 229 -199 0
-296 -153 -466 0
-292 198 295 0
292 133 -381 0
309 215 395 0
489 -28 130 0
-310 365 29 0
160 -230 365 0
335 -151 129 0
8 -441 -164 0
210 -86 -217 0
457 -363 200 0
385 -275 -186 0
238 -446 -138 0
289 -479 -252 0
-466 282 -413 0
-238 471 189 0
468 -187 286 0
-453 96 -350 0
126 -364 -351 0
272 -114 56 0
254 211 -361 0
467 482 -357 0
28 409 -77 0
-73 162 284 0
280 340 -393 0
-450 -400 389 0
232 327 -191 0
247 -368 309 0
55 170 -263 0
58 -135 -336 0
376 -265 282 0
-67 112 -170 0
372 -287 294 0
-356 -221 79 0
-439 185 -309 0
309 -71 420 0
469 158 -374 0
-215 -265 -244 0
468 -254 -447 0
-39 312 -436 0
-73 -267 -444 0
-62 -298 6 0
-84 289 209 0
443 24 238 0
307 -296 41 0
46 -455 -297 0
-4 -149 24 0
-491 132 162 0
128 -99 424 0
64 84 91 0
201 -16 191 0
-85 -424 -135 0
445 232 -70 0
-279 -189 289 0
-405 -370 -239 0
134 392 282 0
-232 195 -70 0
9 -64 484 0
-432 248 -182 0
-208 398 46 0
200 431 -227 0
-412 -471 425 0
182 -62 214 0
318 -390 -185 0
250 -318 -459 0
-454 372 -47 0
-98 49 336 0
-377 -223 -78 0
473 284 -98 0
469 479 -74 0
-106 -109 -133 0
353 -212 119 0
-448 134 65 0
-207 412 -448 0
242 380 -211 0
228 221 313 0
-363 261 235 0
-96 309 252 0
-459 152 -206 0
53 317 -164 0
180 254 81 0
-147 320 408 0
71 51 -317 0
1 -279 -312 0
68 -413 -433 0
-144 -445 -496 0
405 -311 354 0
-277 -280 -70 0
-163 461 92 0
427 132 -166 0
314 348 -4 0
-191 -304 104 0
-468 -421 -238 0
-219 76 -345 0
-195 148 -451 0
342 66 431 0
-18 -303 -157 0
78 423 -322 0
157 -335 -106 0
-112 214 -194 0
366 288 -400 0
392 189 -318 0
409 444 -286 0
315 161 190 0
-351 -109 328 0
-133 -64 -100 0
-64 -267 461 0
23 -185 97 0
190 187 -114 0
345 49 94 0
-59 323 -4 0
410 -20 398 0
417 454 268 0
119 -30 -398 0
-217 480 425 0
-50 35 -350 0
-9 -205 -127 0
329 409 64 0
417 -182 -74 0
168 -74 412 0
-41 -102 -326 0
-291 449 231 0
40 -247 276 0
-385 268 -281 0
-133 212 356 0
-115 67 -119 0
-130 409 456 0
106 -358 443 0
-45 197 362 0
-96 -264 -431 0
80 -398 -450 0
-325 -97 -173 0
385 -325 270 0
41 -138 -469 0
-64 -420 175 0
426 312 52 0
309 -325 269 0
-63 449 -186 0
-8 257 -208 0
200 283 -99 0
-342 -389 -127 0
412 -136 -230 0
206 386 -441 0
-443 -447 -204 0
324 -162 56 0
-144 217 107 0
475 183 -289 0
-426 401 382 0
170 144 -176 0
132 -6 191 0
-429 -47 -467 0
381 -256 -281 0
280 -461 -327 0
-366 -180 101 0
-100 -262 -66 0
202 185 247 0
154 104 53 0
380 386 235 0
-467 33 419 0
379 -176 -359 0
-281 62 312 0
-36 -260 -21 0
-236 -493 489 0
79 -266 399 0
259 124 -113 0
15 409 173 0
394 192 -181 0
-352 10 -101 0
79 -114 238 0
442 92 -417 0
139 360 -127 0
-118 -146 449 0
-388 -459 -240 0
499 -183 224 0
-27 273 449 0
-459 160 369 0
268 69 -114 0
104 60 472 0
-462 44 338 0
162 260 -417 0
-457 212 -206 0
-431 -15 -219 0
317 -382 -497 0
-107 140 448 0
101 185 177 0
-326 -66 469 0
-21 152 343 0
110 -421 -253 0
-28 -87 -420 0
-65 -212 -490 0
-414 -44 234 0
191 -89 17 0
21 130 50 0
287 -385 -414 0
246 426 -190 0
124 -95 -347 0
-44 -30 -87 0
375 300 302 0
-270 423 -198 0
-325 90 250 0
496 -70 -71 0
-260 217 -484 0
436 170 2 0
-284 -263 -197 0
-14 499 -127 0
-494 168 -389 0
-430 -287 -426 0
309 161 478 0
-96 -160 -71 0
-248 322 -391 0
125 -396 138 0
-477 486 -136 0
72 49 43 0
-98 -402 -157 0
-192 495 83 0
-82 -83 -41 0
-174 -460 -236 0
-24 218 439 0
17 -33 -42 0
-10 -149 -282 0
210 335 424 0
335 -473 -53 0
-100 77 -123 0
-403 -226 -144 0
-402 9 36 0
249 -128 447 0
356 107 461 0
-326 -58 7 0
-358 -110 -334 0
267 403 186 0
-171 -375 110 0
175 -107 497 0
422 -118 -457 0
138 -44 -33 0
-285 -38 -411 0
-367 435 -33 0
172 352 170 0
-498 -59 261 0
-497 -150 -366 0
-89 -159 417 0
-266 -453 -3 0
498 287 -44 0
490 -131 220 0
-371 246 -39 0
124 482 -438 0
204 -185 321 0
325 365 -380 0
-313 -346 402 0
-321 -461 31 0
-470 -395 -321 0
96 -304 319 0
-176 -95 47 0
-353 -244 -344 0
-354 -21 -98 0
-223 -151 -218 0
-268 381 -324 0
-157 317 89 0
-197 57 340 0
299 155 -492 0
-68 351 -455 0
-346 -167 492 0
160 300 -260 0
291 -380 277 0
-94 -317 -19 0
-366 145 -150 0
303 2 -199 0
168 -69 -197 0
-438 28 288 0
434 -112 148 0
-6 291 -402 0
-346 -462 -369 0
-220 130 -294 0
-468 -122 -421 0
231 261 -77 0
219 180 138 0
448 -204 -312 0
246 235 105 0
-128 490 471 0
392 -379 -398 0
-404 479 228 0
-45 -125 -143 0
387 386 474 0
-411 -382 491 0
27 -333 -91 0
431 26 483 0
286 -407 292 0
-179 -68 -365 0
-194 -375 335 0
484 232 290 0
357 128 -320 0
248 -430 -169 0
-16 -166 -243 0
393 -123 -149 0
439 -68 -153 0
-57 80 -198 0
-128 -302 -308 0
238 -111 -33 0
-487 -116 -476 0
-163 -327 -369 0
-67 41 -3 0
272 -360 98 0
392 -308 412 0
100 359 358 0
438 293 73 0
415 -367 -344 0
118 51 253 0
133 165 -245 0
139 191 -288 0
-311 386 -105 0
-245 -293 -294 0
283 374 73 0
-356 -135 -225 0
-334 466 499 0
291 -273 -300 0
380 488 -216 0
116 -45 -4 0
-297 435 291 0
378 169 -83 0
427 -233 -106 0
95 -186 120 0
-201 461 33 0
227 308 -36 0
452 -228 -410 0
164 89 275 0
-173 -422 -84 0
364 1 -20 0
-270 -363 464 0
112 -102 61 0
-412 -441 363 0
-289 304 -488 0
80 24 250 0
255 -492 25 0
-414 204 481 0
-277 452 -182 0
22 439 475 0
-260 80 -222 0
114 152 418 0
492 -442 -382 0
-219 -476 195 0
418 -134 -402 0
-124 293 126 0
-63 -99 74 0
-121 143 290 0
-77 69 180 0
-384 365 -276 0
-130 170 144 0
-491 -236 401 0
312 -108 -126 0
-193 -39 -237 0
250 420 -327 0
191 -76 -392 0
-410 348 310 0
406 311 -83 0
315 -418 -320 0
-328 374 260 0
-266 437 -29 0
451 -417 -247 0
409 360 -55 0
210 -174 236 0
-496 -293 -408 0
264 491 342 0
372 -73 -215 0
91 -443 258 0
209 -297 -137 0
399 -254 76 0
68 139 490 0
-241 435 -209 0
161 -98 480 0
13 433 -279 0
318 27 82 0
315 -309 -200 0
-47 493 116 0
39 406 -369 0
334 216 232 0
-33 176 -109 0
350 127 -146 0
-90 147 27 0
-301 5 -404 0
-14 -420 269 0
-252 -209 -418 0
-317 -210 -40 0
14 -302 -165 0
-430 -452 -443 0
-46 310 -454 0
150 -324 125 0
311 -66 -429 0
329 408 359 0
67 307 322 0
-279 340 -406 0
126 -104 137 0
39 151 -370 0
-168 -46 14 0
-196 -134 -106 0
-21 -159 -395 0
184 498 69 0
344 204 436 0
438 244 -87 0
-408 388 410 0
359 -311 38 0
-367 -354 397 0
-405 488 -240 0
-415 -392 75 0
-499 -297 26 0
418 336 217 0
-80 50 -380 0
-256 192 350 0
429 209 87 0
-288 -27 474 0
-144 -37 -24 0
-177 45 -70 0
-474 476 370 0
48 -393 -41 0
281 363 -70 0
274 -439 421 0
-330 -459 -458 0
429 -289 386 0
-313 150 340 0
-323 138 142 0
408 -444 128 0
127 -463 310 0
161 305 -500 0
-199 -213 203 0
334 -351 104 0
-334 391 71 0
280 69 224 0
-215 461 -491 0
-459 54 434 0
445 236 -304 0
144 -429 -319 0
-418 -106 319 0
432 -255 247 0
106 37 315 0
253 -407 -319 0
-32 300 476 0
-36 -497 314 0
153 483 109 0
67 -224 -151 0
362 367 43 0
-197 14 -136 0
140 36 -32 0
-497 -68 167 0
380 -11 -453 0
-377 -425 -211 0
139 -133 -216 0
427 22 -269 0
-111 -341 421 0
-139 214 -114 0
480 -358 -408 0
207 -364 51 0
442 -16 -464 0
-67 -496 260 0
313 -261 -351 0
141 -347 209 0
-441 -36 -176 0
47 -274 -496 0
38 -412 -164 0
251 -69 -177 0
-399 45 -499 0
55 479 -64 0
311 393 340 0
-104 -291 -55 0
346 52 -48 0
-32 -212 -473 0
-186 473 434 0
-63 221 267 0
455 -387 -363 0
113 119 67 0
273 344 -396 0
-400 -191 -175 0
163 -41 160 0
32 259 385 0
3 110 -270 0
416 -350 234 0
114 -291 -351 0
59 -478 -424 0
358 -485 -434 0
317 441 -162 0
