p cnf 500 1750
250 -135 214 0
-5 268 -157 0
-197 151 -141 0
-495 242 -417 0
269 175 -256 0
29 404 190 0
149 69 221 0
75 -81 -152 0
-302 270 1 0
-2 -189 -384 0
55 -452 -20 0
62 -352 435 0
58 226 461 0
125 383 -282 0
52 -48 -89 0
476 -380 217 0
-13 -379 -456 0
168 -425 -51 0
-344 157 -452 0
14 -252 302 0
-236 -436 -239 0
253 407 289 0
124 -182 35 0
337 -379 -461 0
333 -75 -234 0
219 365 72 0
-256 -380 479 0
-6 -438 272 0
458 233 -65 0
-438 58 -223 0
428 262 -260 0
200 279 -313 0
-144 -169 161 0
169 -150 -376 0
10 -266 -425 0
336 370 313 0
-273 -80 -90 0
477 255 -215 0
-491 -94 360 0
-25 -314 185 0
314 -479 -133 0
-276 409 370 0
47 -329 -207 0
488 36 -381 0
4 -161 -448 0
310 -170 -392 0
454 -259 -35 0
-127 486 342 0
331 -315 -124 0
191 -430 171 0
-387 -447 -161 0
261 128 -206 0
-234 -180 -362 0
-497 -282 -43 0
388 3 -118 0
-254 -195 -266 0
-451 473 -499 0
-195 -78 -165 0
-288 -297 285 0
47 119 163 0
-118 480 -496 0
433 253 -315 0
-194 480 182 0
255 -390 -234 0
270 167 230 0
-64 -93 -381 0
191 -497 7 0
343 96 91 0
385 441 -398 0
125 -73 283 0
325 -445 396 0
-329 229 458 0
-305 -216 -248 0
353 238 81 0
-69 8 -490 0
472 347 -421 0
227 -81 -102 0
143 -188 307 0
449 10 -261 0
18 -233 74 0
373 292 64 0
78 455 412 0
-405 459 7 0
-420 347 464 0
-18 -471 -308 0
-487 154 -336 0
-267 -423 -374 0
455 25 -301 0
-371 266 -100 0
351 276 396 0
-336 281 -352 0
-47 466 -172 0
-22 -408 443 0
-103 449 -165 0
-384 -213 399 0
-172 441 359 0
120 -79 -138 0
451 -49 -280 0
383 340 -316 0
138 -215 150 0
-421 177 172 0
406 58 -233 0
439 -384 -96 0
-304 -17 25 0
-224 -319 -171 0
-61 252 -390 0
300 -191 -61 0
-175 -425 167 0
225 128 -177 0
-348 -180 -466 0
262 404 -377 0
234 -66 451 0
91 59 -186 0
375 401 407 0
-285 -224 -362 0
-443 347 491 0
-457 -13 -92 0
-424 -100 236 0
-356 -29 22 0
-384 -496 -136 0
148 -423 -434 0
299 -99 339 0
225 207 -250 0
306 -387 117 0
-148 82 59 0
42 -188 -236 0
-98 136 -160 0
-299 257 -203 0
-143 -38 -230 0
-208 -245 -96 0
345 121 -293 0
-82 268 454 0
76 -407 469 0
-264 -347 479 0
-408 43 333 0
-197 -250 -394 0
341 181 226 0
467 413 337 0
-486 216 460 0
420 -146 424 0
28 -236 -281 0
194 -207 -223 0
-477 -385 9 0
37 185 -161 0
488 -446 -62 0
-254 -69 -487 0
-490 148 51 0
-208 82 72 0
-152 -311 -156 0
361 461 -167 0
-45 472 -390 0
-178 -216 124 0
450 131 34 0
-76 216 167 0
-437 55 89 0
-243 245 313 0
-459 59 -218 0
44 315 -467 0
336 66 -279 0
-499 -447 -477 0
-44 337 466 0
477 442 -368 0
79 -330 -320 0
115 216 -92 0
-494 397 -121 0
409 -119 50 0
240 -384 53 0
240 20 -135 0
205 -495 307 0
155 -493 211 0
-362 243 156 0
481 255 -152 0
-376 -153 345 0
-456 213 444 0
-179 -15 344 0
-240 -66 -365 0
-135 -400 265 0
-100 304 -70 0
169 -478 19 0
-26 160 155 0
304 -46 143 0
-231 -412 -163 0
-331 -388 -182 0
-380 -173 260 0
-453 10 -152 0
-81 -237 334 0
-89 84 493 0
-80 -438 40 0
347 -335 218 0
-35 -18 -431 0
293 -127 252 0
424 61 -480 0
368 147 -71 0
-102 430 -78 0
149 141 64 0
-56 245 217 0
319 -478 344 0
-307 66 -383 0
45 114 -94 0
107 -316 -427 0
-300 -291 228 0
465 -129 -187 0
492 -454 232 0
-215 -255 355 0
-382 -10 -219 0
-407 301 -368 0
-363 340 163 0
46 -112 441 0
5 -424 -492 0
-235 254 105 0
440 309 -391 0
-235 -54 -416 0
201 -24 442 0
-107 -241 -127 0
289 384 199 0
-482 -67 -186 0
425 -70 220 0
343 308 424 0
98 -40 269 0
61 132 422 0
-264 83 -190 0
132 -309 205 0
-377 362 -354 0
399 -69 -373 0
-237 353 11 0
49 306 -188 0
100 451 271 0
-19 -459 499 0
-217 -36 -107 0
324 218 -477 0
-421 101 -37 0
-226 -118 1 0
-437 -397 -203 0
249 -417 -424 0
-235 -249 69 0
-159 358 -69 0
118 -228 477 0
413 -204 376 0
-15 419 -214 0
-174 441 -423 0
-138 267 -273 0
251 -65 355 0
-37 -233 65 0
-448 -413 149 0
291 -77 -434 0
462 373 389 0
30 -95 -66 0
-260 -329 -1 0
176 489 -429 0
-19 314 369 0
-1 467 -414 0
315 332 -87 0
-64 262 -174 0
253 -155 317 0
118 -481 -109 0
-384 199 116 0
-430 401 403 0
-9 46 136 0
-131 349 253 0
421 -34 239 0
350 -396 465 0
-275 -303 6 0
-271 371 203 0
288 35 -214 0
425 -341 387 0
-112 -289 -191 0
-242 -344 -151 0
460 305 413 0
-156 -203 -290 0
-191 -141 -415 0
183 301 254 0
-313 -48 299 0
-165 -117 -175 0
-21 324 -454 0
-201 395 127 0
-397 -350 232 0
93 302 105 0
-292 264 180 0
170 309 -174 0
-366 271 -398 0
409 500 -347 0
36 -366 -465 0
484 353 -204 0
118 65 -123 0
76 60 -324 0
-63 -332 407 0
-337 125 445 0
468 -94 329 0
-58 127 233 0
-249 171 -73 0
-370 140 -329 0
-481 -222 143 0
159 -317 -288 0
1 294 -457 0
126 -498 158 0
38 65 -56 0
-218 480 182 0
474 175 -111 0
-120 418 -35 0
-63 -419 194 0
173 -159 -318 0
-473 -273 184 0
-27 -484 260 0
444 -348 -281 0
-475 180 356 0
90 79 -178 0
134 186 -105 0
9 -216 -373 0
-383 -39 430 0
-485 300 281 0
351 280 -281 0
-271 -244 135 0
-469 95 -67 0
413 293 349 0
161 -154 -476 0
101 121 -317 0
374 -371 139 0
-134 113 -139 0
349 476 -187 0
-142 234 -271 0
-158 -166 479 0
4 -237 86 0
15 -154 353 0
-273 -435 -94 0
-474 257 222 0
148 -59 39 0
360 461 263 0
-494 130 -445 0
-433 -499 498 0
-485 -203 -267 0
211 252 448 0
-372 -40 -453 0
314 238 -490 0
321 -83 -377 0
47 -126 -305 0
-110 -114 415 0
-459 -69 -366 0
417 288 -10 0
-335 -489 159 0
241 500 -406 0
-191 354 478 0
171 18 324 0
-475 -487 181 0
-15 29 -352 0
158 311 -389 0
164 -351 477 0
373 -117 12 0
-397 266 127 0
93 388 -175 0
10 326 -225 0
-332 -64 -103 0
197 -464 -292 0
188 -246 -37 0
-252 -454 -277 0
7 -272 -134 0
-218 112 -192 0
-236 -488 -217 0
178 419 353 0
417 109 -46 0
51 -245 -273 0
491 -204 -192 0
-373 -75 246 0
-106 198 6 0
-119 -194 -366 0
-429 -477 30 0
245 213 -148 0
-68 498 -374 0
-373 -371 183 0
315 -460 -342 0
-244 -109 46 0
29 -102 322 0
317 490 -228 0
430 237 -351 0
-165 -362 -126 0
-22 -330 268 0
-62 95 18 0
-214 -107 351 0
-301 109 -75 0
-13 -73 448 0
-438 485 -53 0
-217 132 118 0
-350 167 -25 0
225 34 197 0
83 -47 195 0
205 -1 -427 0
-440 -265 272 0
408 52 31 0
491 468 154 0
2 -396 170 0
-272 283 -409 0
477 395 -140 0
490 -35 417 0
-412 -356 139 0
-41 -85 -121 0
199 132 -227 0
-90 273 5 0
239 -142 -474 0
3 -409 439 0
-126 -486 127 0
-60 160 14 0
394 59 -243 0
367 214 -190 0
354 446 -272 0
-449 96 443 0
473 -158 224 0
102 -410 -310 0
-488 -169 -36 0
378 293 447 0
-291 -94 -297 0
-256 312 141 0
103 136 492 0
-302 242 145 0
373 -198 -265 0
-139 -46 -345 0
-63 444 -123 0
120 12 30 0
-84 169 333 0
-404 -133 -170 0
303 367 -118 0
154 -284 -52 0
75 362 233 0
143 -302 493 0
173 190 -210 0
-274 409 -477 0
37 214 493 0
-34 -395 287 0
103 -272 -388 0
288 -152 -142 0
-189 -237 450 0
184 -12 26 0
344 87 -119 0
42 341 -171 0
-292 -128 135 0
-496 -142 405 0
-462 -217 469 0
-413 279 82 0
-75 175 -103 0
-7 370 121 0
256 144 -117 0
442 -398 -281 0
84 -12 -208 0
44 -305 212 0
-187 381 206 0
-206 -180 88 0
-101 -292 -11 0
38 -219 -108 0
107 -484 -29 0
206 -134 363 0
362 430 -249 0
212 -106 -48 0
-49 -407 -54 0
242 -353 301 0
-204 -248 85 0
-141 -306 -357 0
-76 -445 -71 0
3 471 134 0
360 496 333 0
74 -145 -86 0
146 124 -112 0
233 -393 -52 0
168 -277 -307 0
440 100 240 0
57 386 -209 0
466 -495 -482 0
465 122 295 0
265 -381 -272 0
86 -163 415 0
187 -329 367 0
475 2 303 0
-73 -437 217 0
21 142 -321 0
278 -388 -277 0
194 89 -311 0
323 136 -308 0
-38 -359 22 0
144 -191 414 0
490 -495 50 0
139 -392 -477 0
60 -184 90 0
46 -254 136 0
-2 176 482 0
-320 -39 479 0
-127 460 -344 0
-61 277 -358 0
-367 -270 -319 0
-107 299 -296 0
-48 287 -249 0
297 470 -21 0
222 131 427 0
-213 -293 -23 0
-391 -284 -236 0
348 -128 284 0
157 243 -47 0
-231 -249 432 0
463 242 -331 0
-320 -112 -149 0
-418 -14 472 0
36 459 215 0
-246 -18 359 0
-243 -258 368 0
-88 408 -483 0
434 -72 450 0
153 -195 488 0
-403 -68 -410 0
449 84 206 0
-219 -132 -115 0
162 67 -18 0
156 195 -50 0
12 412 -495 0
-80 -176 -139 0
-13 -172 51 0
-226 263 -171 0
-378 138 364 0
-210 -392 -311 0
77 -328 275 0
-73 -417 -97 0
-257 357 -329 0
-163 -348 4 0
387 149 -334 0
-32 -168 26 0
403 -47 -472 0
240 19 195 0
-405 -93 -296 0
478 280 -445 0
-60 323 -255 0
291 118 96 0
-470 -40 -255 0
-362 -249 433 0
-372 366 385 0
306 -396 -205 0
-190 -169 -413 0
379 347 -431 0
168 251 289 0
-373 148 184 0
310 160 275 0
436 -216 45 0
114 156 -178 0
19 314 135 0
-110 469 362 0
-356 485 375 0
-76 -414 168 0
495 -282 113 0
-47 55 -235 0
166 135 460 0
-134 86 472 0
201 -182 -154 0
-158 -91 -346 0
125 155 350 0
-207 366 265 0
436 411 -128 0
-156 365 488 0
450 4 -181 0
495 112 179 0
463 -445 -154 0
255 215 314 0
-483 224 -186 0
-182 253 355 0
-148 138 48 0
-143 -220 498 0
-128 351 -250 0
21 -157 -104 0
-247 -186 21 0
477 -148 468 0
-374 304 -129 0
208 -218 74 0
165 -132 -261 0
-461 1 132 0
-265 200 109 0
249 -63 107 0
401 -187 -465 0
316 355 -437 0
189 -282 363 0
254 265 87 0
-479 179 -23 0
-456 -194 -226 0
-250 392 303 0
280 -266 8 0
-20 62 -141 0
194 153 -249 0
-42 265 266 0
134 -430 8 0
22 -383 -358 0
-477 -372 -212 0
403 -189 219 0
447 -271 -58 0
-437 -13 64 0
-24 -69 281 0
177 487 -386 0
-375 -226 -69 0
409 -128 -241 0
-391 212 259 0
-132 18 67 0
157 -480 142 0
112 -416 437 0
-73 129 248 0
-254 363 490 0
-214 322 492 0
400 433 457 0
314 252 -210 0
166 49 -44 0
321 -66 128 0
362 261 -42 0
-393 -363 -118 0
129 156 376 0
-360 -238 -299 0
-296 -159 -262 0
-402 -193 209 0
-115 -181 418 0
-388 484 209 0
418 -218 -127 0
225 -100 108 0
200 283 -472 0
-71 -175 402 0
-430 464 -339 0
4 473 -450 0
-119 115 -331 0
-41 -187 -173 0
-286 -229 -488 0
328 384 -28 0
194 -276 431 0
-154 -348 450 0
-252 171 -75 0
-52 -392 -411 0
-381 -98 -131 0
-226 150 -407 0
59 113 249 0
139 -163 143 0
-9 -373 -476 0
-233 228 137 0
-204 -321 16 0
317 179 -148 0
-18 119 -363 0
-113 -103 20 0
-332 21 174 0
-439 -308 156 0
-426 195 -464 0
-35 480 242 0
-135 -42 -3 0
-66 -213 -290 0
-82 283 143 0
134 -498 -121 0
430 433 -494 0
384 -197 1 0
-435 -454 -31 0
-201 -336 73 0
149 -448 133 0
232 -454 204 0
176 276 95 0
329 170 140 0
-10 491 467 0
-373 -7 -193 0
-44 277 16 0
131 -371 -70 0
435 -388 -143 0
-478 -429 413 0
-119 -492 319 0
253 -171 39 0
165 -225 -346 0
68 394 61 0
304 -69 273 0
-382 -299 -442 0
-43 172 90 0
-254 450 492 0
180 151 148 0
-334 442 148 0
434 457 -280 0
-400 -464 483 0
-429 486 219 0
-487 404 329 0
-179 -426 -384 0
-460 195 -493 0
-489 -298 395 0
-209 -101 270 0
-213 -333 -24 0
-328 -289 -115 0
-103 -192 -68 0
-22 452 328 0
472 108 -187 0
75 193 -421 0
-90 164 54 0
-356 -87 -145 0
462 -222 -256 0
357 -62 -103 0
-173 -150 -207 0
70 108 268 0
245 -403 -21 0
-339 32 -78 0
146 391 129 0
-188 235 436 0
89 472 130 0
426 260 413 0
361 -166 416 0
-399 353 326 0
-432 -93 -333 0
-261 327 324 0
61 -312 2 0
162 270 -461 0
-424 174 443 0
-101 37 224 0
167 -98 -281 0
367 -381 -187 0
-292 237 -244 0
380 63 -308 0
-105 332 -425 0
102 59 420 0
-207 131 -242 0
-300 -52 -450 0
250 364 -379 0
-483 1 -175 0
-71 -449 -378 0
255 -449 322 0
-500 182 -24 0
-119 262 -64 0
179 343 102 0
257 340 -109 0
446 353 17 0
79 223 465 0
-72 -178 -210 0
-304 -398 -64 0
357 94 223 0
475 323 141 0
59 26 -238 0
-457 -311 -498 0
-194 376 -179 0
-341 231 -325 0
188 -332 162 0
148 -51 -471 0
-461 465 100 0
-456 431 -460 0
-130 165 259 0
-287 -162 174 0
-76 -435 142 0
360 -103 -197 0
11 -251 457 0
-293 275 -26 0
63 -314 -410 0
-306 365 -462 0
473 321 -85 0
-69 -283 -137 0
-365 -13 -472 0
130 314 -62 0
-281 -356 500 0
-192 -188 96 0
93 -173 329 0
-61 387 70 0
155 -440 26 0
-191 -479 -66 0
-401 -194 -129 0
-57 -415 -159 0
360 489 -244 0
-364 -324 -94 0
419 -417 -240 0
330 -495 -384 0
108 278 297 0
250 -63 -303 0
180 -178 -438 0
127 481 -187 0
87 -490 -364 0
-371 323 260 0
-4 -306 364 0
-431 -113 -409 0
73 -136 168 0
-335 -290 -431 0
372 491 362 0
265 466 -144 0
-323 -87 174 0
252 -9 105 0
-377 264 -16 0
269 -84 -39 0
12 -118 348 0
-98 -399 287 0
226 -17 -213 0
-82 148 -110 0
464 470 -216 0
-159 -477 207 0
214 -113 79 0
414 -317 -113 0
-173 300 337 0
-86 147 482 0
-265 12 480 0
-65 490 483 0
-347 204 451 0
131 -142 214 0
44 -118 458 0
408 -211 -95 0
305 -262 410 0
-162 -461 271 0
-56 22 -84 0
-392 497 339 0
-187 -332 -486 0
478 300 385 0
-122 -147 18 0
490 -205 -289 0
146 -50 111 0
405 156 -428 0
-125 398 456 0
-409 -433 26 0
353 356 -12 0
-217 492 130 0
471 438 -62 0
-176 -489 183 0
21 458 105 0
211 -190 -468 0
-33 -291 438 0
415 -124 -449 0
495 -137 -391 0
-482 390 -241 0
-244 331 342 0
41 -491 -21 0
359 245 -7 0
-191 -334 -384 0
415 -274 276 0
-118 70 -388 0
92 47 -18 0
-185 -314 497 0
-372 -65 -408 0
327 -426 -22 0
95 142 -77 0
491 -164 -276 0
12 118 14 0
367 482 -308 0
-432 -403 -96 0
-159 -215 306 0
-312 131 -134 0
-194 -218 376 0
406 -407 -70 0
293 -348 428 0
199 -196 -250 0
470 -11 -17 0
-340 -292 -450 0
206 -48 225 0
-275 120 221 0
-382 -355 -120 0
481 448 1 0
-49 -270 -329 0
-357 29 439 0
-3 339 -28 0
-463 320 371 0
-312 327 -202 0
110 -219 -9 0
11 482 -21 0
-272 63 -482 0
202 -257 212 0
-360 -3 178 0
207 -192 159 0
369 246 76 0
-39 282 390 0
342 -136 218 0
12 429 391 0
-300 434 -424 0
446 -460 -484 0
-111 -356 -317 0
-469 362 65 0
-170 446 256 0
-204 -100 -271 0
78 -372 26 0
19 -446 -130 0
64 -94 -474 0
456 -142 -373 0
236 337 -327 0
375 -484 371 0
-73 -482 -289 0
-469 -67 498 0
64 -83 -476 0
-462 357 214 0
-1 185 93 0
174 -201 -156 0
-238 428 453 0
-421 200 -223 0
-204 200 12 0
202 394 345 0
455 -340 -305 0
321 126 114 0
36 -396 -414 0
383 186 -246 0
-273 -23 326 0
481 208 393 0
-282 -474 429 0
-291 340 -333 0
-239 -41 -188 0
345 248 -280 0
-7 367 388 0
-332 -335 -175 0
238 -363 461 0
-198 29 292 0
105 -414 18 0
-67 145 -325 0
20 -56 457 0
-352 489 253 0
-197 343 22 0
-339 -135 307 0
-362 282 77 0
135 442 -286 0
-329 -319 249 0
-376 -408 476 0
77 -319 -106 0
-344 204 -416 0
329 321 -470 0
-2 -23 157 0
-472 427 397 0
189 -319 442 0
-215 -466 -187 0
-80 180 -446 0
-154 -462 -185 0
322 50 -210 0
268 292 495 0
5 -143 252 0
143 243 341 0
163 474 -428 0
-32 -486 -344 0
-377 -356 -271 0
-172 306 426 0
469 329 -104 0
375 -481 -1 0
66 -343 -392 0
-148 285 97 0
432 364 1 0
247 153 259 0
-387 411 -168 0
390 -55 -114 0
-181 290 -337 0
-428 398 63 0
141 -55 359 0
105 -147 182 0
-119 -8 419 0
-215 -384 404 0
178 71 -362 0
97 -212 -69 0
-26 185 -214 0
-346 395 243 0
67 494 -113 0
-346 122 -304 0
-361 -376 299 0
-392 268 377 0
40 132 404 0
-93 -229 441 0
466 246 134 0
-125 -18 235 0
-43 -442 -313 0
-409 418 -282 0
-274 418 335 0
-384 -94 -26 0
396 -122 365 0
408 -133 431 0
-6 196 308 0
-100 -49 -93 0
-197 302 150 0
-241 -147 -463 0
-119 397 -391 0
-496 -468 -436 0
-310 183 -22 0
-303 447 194 0
334 325 -245 0
-125 -326 -60 0
-217 330 -25 0
-268 457 -309 0
79 -210 132 0
-282 2 86 0
310 285 76 0
-96 267 -291 0
171 -34 -339 0
270 415 -232 0
385 -112 -50 0
159 377 191 0
-252 -92 454 0
-141 -486 260 0
-221 -254 -415 0
457 -349 336 0
352 26 -460 0
-122 76 -327 0
-284 -313 431 0
-23 -367 353 0
-56 -426 -8 0
-198 -486 -7 0
102 127 389 0
39 285 377 0
-431 -456 244 0
346 -213 -328 0
241 -333 -132 0
-198 424 253 0
387 408 431 0
110 117 229 0
-389 238 354 0
-362 -38 475 0
-118 482 -83 0
119 280 -45 0
470 144 -423 0
-65 -425 -286 0
-452 376 -334 0
-339 -87 392 0
290 252 -417 0
355 192 -258 0
355 -308 379 0
428 -489 -490 0
267 349 223 0
269 40 -283 0
-432 -214 173 0
103 107 -252 0
-475 10 -200 0
-68 147 -158 0
303 -470 -254 0
-422 -397 211 0
431 303 244 0
-159 16 -123 0
209 -16 -359 0
355 -52 -298 0
-222 357 351 0
-5 -119 204 0
-432 152 101 0
34 -208 33 0
-268 386 219 0
-206 -182 233 0
56 70 -251 0
-324 398 -78 0
157 90 -351 0
-487 433 -409 0
-372 -128 -23 0
66 313 -441 0
-43 -467 -59 0
111 464 -212 0
81 -260 58 0
-345 -179 261 0
449 359 360 0
-253 -50 448 0
486 472 35 0
-110 -20 305 0
-118 -288 -322 0
-233 434 -108 0
-88 291 -83 0
-297 -458 -289 0
-56 -468 -97 0
101 -328 80 0
124 -324 241 0
137 -389 -30 0
-351 -436 -10 0
287 92 -498 0
86 -268 -213 0
282 437 -205 0
351 96 46 0
-205 -284 -389 0
-458 -153 178 0
108 38 281 0
262 -281 -421 0
444 -105 -59 0
212 256 -183 0
-427 -146 447 0
-199 -341 -42 0
233 493 220 0
-450 366 -251 0
382 -329 -254 0
-353 -382 270 0
12 447 133 0
-345 416 -14 0
413 -124 -284 0
211 -425 -274 0
-80 -482 268 0
18 -343 -284 0
-62 162 -421 0
347 -280 -467 0
37 134 360 0
10 60 -238 0
-371 196 -263 0
260 199 358 0
-213 3 415 0
19 499 70 0
-375 -26 192 0
-148 69 180 0
434 51 326 0
380 154 267 0
491 -411 331 0
-463 -174 80 0
90 -169 268 0
-331 -368 57 0
371 -115 232 0
58 148 -470 0
167 -209 344 0
429 388 -480 0
275 472 -214 0
-328 368 358 0
-303 38 -157 0
-224 212 8 0
-72 26 -104 0
10 -191 193 0
353 -498 -51 0
-447 -326 248 0
-145 -450 -112 0
-54 -87 320 0
74 473 -33 0
-445 273 496 0
-369 -414 129 0
-368 91 236 0
208 -196 33 0
321 -497 -247 0
280 -438 -279 0
228 435 -425 0
118 -491 456 0
40 293 260 0
-248 18 -158 0
-344 348 116 0
180 -404 372 0
474 -178 183 0
-244 406 220 0
-427 -157 162 0
165 354 459 0
-437 -249 442 0
251 15 -248 0
182 489 221 0
192 -63 -67 0
273 320 -276 0
-26 453 297 0
169 -222 435 0
187 -350 141 0
-261 -443 -105 0
207 298 -410 0
-473 -321 -304 0
384 334 -230 0
489 334 455 0
-258 250 207 0
-54 110 -20 0
103 -84 69 0
430 143 -356 0
-77 231 -133 0
-118 11 198 0
-11 -457 270 0
90 284 -89 0
-68 382 272 0
29 435 363 0
-271 -320 307 0
119 -158 -39 0
-65 203 -333 0
406 370 -65 0
-209 -466 384 0
98 -29 -174 0
-491 56 -464 0
-173 -412 174 0
28 -129 -472 0
-95 108 172 0
393 13 -350 0
-307 228 468 0
-8 -150 349 0
364 125 198 0
353 -109 -227 0
19 -16 -118 0
5 222 -243 0
301 257 -326 0
385 -322 466 0
170 472 -423 0
380 -312 222 0
192 -293 232 0
179 1 -98 0
-49 -447 398 0
-237 263 420 0
-459 -323 -444 0
461 126 163 0
354 21 25 0
-273 -322 100 0
455 -242 -437 0
494 345 39 0
427 -171 -40 0
-161 -73 417 0
-158 -210 -44 0
393 -421 378 0
352 175 -124 0
24 -331 -346 0
224 -240 216 0
-78 -245 -98 0
53 -374 -420 0
404 89 -153 0
-6 407 408 0
119 -54 -138 0
194 446 -19 0
-31 -33 -433 0
27 422 -296 0
-255 -94 -205 0
338 -386 373 0
-109 -410 11 0
432 253 282 0
423 260 123 0
-273 47 -280 0
-341 -296 -498 0
272 478 328 0
390 -407 286 0
-267 39 -89 0
424 181 380 0
354 -421 -293 0
-101 -358 134 0
454 -90 166 0
-123 -277 457 0
12 130 -367 0
-196 -85 -231 0
-404 -99 496 0
-477 72 282 0
-272 -398 -378 0
190 483 -377 0
196 118 -295 0
-424 -55 465 0
-451 360 97 0
81 357 -45 0
-461 -495 179 0
78 348 -35 0
-474 -61 -227 0
-260 -430 -382 0
-279 -278 -273 0
331 289 235 0
-257 389 36 0
303 53 475 0
178 175 79 0
229 -483 -22 0
472 462 -263 0
397 17 -45 0
441 -101 238 0
-163 -370 -56 0
468 -304 253 0
-121 223 33 0
-256 17 409 0
284 -300 -149 0
340 -58 -283 0
-410 -216 374 0
268 -287 -184 0
-83 -167 -418 0
177 -243 127 0
-167 407 -10 0
52 -478 248 0
-473 -33 -460 0
114 -282 499 0
479 138 -84 0
40 235 372 0
-5 -124 -266 0
-416 -160 244 0
395 324 261 0
68 -358 360 0
-39 -464 17 0
151 -106 -400 0
-151 -141 -398 0
474 458 466 0
429 -183 8 0
484 -144 -49 0
314 -288 -346 0
39 -225 -91 0
-109 -202 -57 0
146 -292 411 0
-353 434 302 0
152 -151 280 0
-6 32 -265 0
356 44 400 0
-459 -362 13 0
-110 -86 171 0
-148 30 -285 0
417 -267 144 0
146 -252 301 0
215 -116 261 0
-145 -164 -124 0
353 273 106 0
75 381 100 0
-228 -314 141 0
348 87 -190 0
-463 -223 -478 0
-246 -15 184 0
-23 -127 -328 0
158 135 -380 0
-13 -29 -195 0
-285 -351 -115 0
191 160 444 0
-18 36 -52 0
213 -44 252 0
-133 -457 -462 0
371 189 -209 0
332 307 343 0
24 -94 -278 0
-293 -495 -143 0
-293 141 -307 0
125 -121 -313 0
-95 -292 498 0
451 -299 189 0
-62 -201 -206 0
1 276 -386 0
-116 231 396 0
46 -371 156 0
246 -348 443 0
74 338 5 0
-366 -249 180 0
294 -170 282 0
-133 347 498 0
-327 84 478 0
-273 361 -105 0
-106 -285 84 0
-15 -246 226 0
44 -182 24 0
-51 470 288 0
-316 495 -337 0
498 -442 396 0
343 -105 93 0
110 498 417 0
299 377 -101 0
-270 321 292 0
178 427 -94 0
315 -421 -125 0
396 -438 -153 0
189 -395 -484 0
389 230 273 0
-436 452 59 0
-497 -499 198 0
-443 434 389 0
-419 292 186 0
113 199 -110 0
303 -329 67 0
220 -245 395 0
-325 -50 -386 0
-348 -403 -411 0
294 -459 6 0
-58 56 20 0
147 -50 -144 0
-492 -237 402 0
-68 403 89 0
-178 56 279 0
165 336 -70 0
-359 95 47 0
57 59 469 0
-198 176 -162 0
-25 -464 -416 0
-334 -308 132 0
-298 80 422 0
371 134 6 0
-150 -58 499 0
-43 -269 -158 0
222 201 364 0
114 -400 56 0
-280 -352 -233 0
-417 438 -247 0
11 171 181 0
-91 -363 397 0
-38 -298 154 0
-442 230 -474 0
-329 -272 428 0
238 -254 -434 0
-259 -420 -309 0
-498 200 190 0
424 -269 -15 0
-241 -486 206 0
-96 64 288 0
284 -61 -300 0
50 -237 146 0
122 -316 113 0
-324 67 389 0
1 -380 -428 0
71 455 -313 0
54 -192 -260 0
312 -177 -466 0
-333 -454 -491 0
-319 -494 -477 0
-406 -321 154 0
-483 -387 466 0
-36 153 1 0
246 221 169 0
238 -394 -268 0
-477 67 380 0
305 -364 -308 0
465 -213 -326 0
-404 239 -365 0
-140 -449 283 0
338 -195 -430 0
-369 113 8 0
-171 333 282 0
-206 -419 -175 0
-118 333 -232 0
144 91 447 0
10 381 -455 0
-82 -7 411 0
8 108 39 0
361 -138 434 0
229 49 -204 0
95 -463 -50 0
-38 -152 128 0
-205 -277 -329 0
-58 61 203 0
483 295 -235 0
19 113 45 0
-403 -212 347 0
425 -490 83 0
440 2 390 0
291 110 225 0
-79 -471 382 0
-39 -27 469 0
161 205 254 0
271 156 119 0
-302 319 -358 0
-350 246 -20 0
486 9 497 0
-276 -144 -381 0
-62 321 55 0
454 -475 30 0
-25 -351 307 0
291 421 -170 0
-459 -251 -292 0
-23 375 81 0
-258 -153 77 0
400 254 111 0
-434 199 -221 0
363 -118 201 0
276 -420 -166 0
95 188 -214 0
116 457 -128 0
-103 407 275 0
-193 37 319 0
261 244 379 0
-284 275 355 0
-207 -122 404 0
161 -13 420 0
422 448 496 0
161 -238 -286 0
-200 -379 -393 0
-304 -143 -368 0
-175 -298 -126 0
-424 38 168 0
-128 -311 -474 0
-439 322 -170 0
-90 51 -217 0
-234 -279 477 0
433 345 246 0
-258 311 263 0
-170 198 496 0
-280 353 -258 0
325 -188 396 0
-483 177 147 0
482 241 -309 0
117 -73 243 0
-340 -421 -403 0
-436 460 -92 0
309 -370 -147 0
-195 433 281 0
447 103 141 0
327 -56 -19 0
105 347 -214 0
-135 394 332 0
129 -20 -328 0
489 -241 -274 0
-437 139 290 0
-352 61 -423 0
257 -389 213 0
311 96 336 0
-322 -10 -221 0
-342 373 -473 0
-476 140 -383 0
-110 343 -481 0
-343 -478 -242 0
-174 296 -52 0
246 80 -36 0
-368 -62 -75 0
298 -239 -383 0
331 -406 -144 0
107 393 -415 0
74 383 50 0
256 465 -98 0
146 277 -203 0
-346 479 -497 0
111 140 481 0
374 -461 -101 0
347 365 336 0
-13 -490 -324 0
-59 402 49 0
-243 -89 483 0
388 -346 441 0
-383 -461 -56 0
-423 -351 -297 0
-272 -133 -182 0
-368 332 278 0
-118 95 -55 0
427 311 421 0
-99 133 476 0
-120 -417 -436 0
-277 -270 -257 0
136 -39 -320 0
-25 211 -475 0
-181 -389 -323 0
-2 171 -177 0
-160 155 36 0
-328 424 191 0
360 358 275 0
-102 273 -77 0
-421 -422 431 0
356 -62 -486 0
456 -117 277 0
247 214 -202 0
220 -72 -89 0
-117 247 446 0
456 -336 -314 0
-20 -447 -480 0
-18 -35 -322 0
-444 -495 467 0
-429 -199 -3 0
-443 -298 -313 0
-324 -376 -253 0
-232 -334 63 0
-378 64 265 0
180 -211 -492 0
-422 194 102 0
-481 -388 317 0
483 72 -88 0
225 -379 317 0
-98 -429 -263 0
178 -437 -484 0
270 -393 -61 0
-67 -253 264 0
488 -304 -37 0
-466 66 -339 0
-320 -77 -4 0
-491 -65 -247 0
135 19 -126 0
82 282 -399 0
442 -347 268 0
342 221 439 0
124 -385 -141 0
81 -92 410 0
209 -359 -150 0
480 -341 -50 0
408 396 65 0
-272 -455 -358 0
48 214 54 0
-75 491 143 0
-6 269 -170 0
-323 71 -219 0
453 230 -77 0
48 -256 439 0
-117 332 -300 0
274 -299 -87 0
-483 152 245 0
-136 457 184 0
389 273 412 0
-445 -186 -204 0
305 -188 -455 0
-467 287 -175 0
-451 -282 -476 0
390 201 468 0
-34 -176 181 0
-71 -215 179 0
-124 -272 -91 0
103 14 241 0
-83 108 -222 0
490 204 283 0
370 192 46 0
215 -447 -415 0
-328 467 199 0
-472 256 188 0
-26 338 -244 0
368 -378 -486 0
-393 277 -439 0
-199 463 -88 0
-498 -150 61 0
219 -158 -312 0
314 -165 84 0
-130 -258 -468 0
495 73 488 0
169 -149 223 0
-360 372 -104 0
-320 318 311 0
159 123 494 0
-181 423 114 0
-296 -164 282 0
-140 16 -255 0
272 -103 256 0
-454 -190 69 0
-397 -438 455 0
-496 67 -42 0
149 112 -450 0
458 227 -131 0
-178 -119 -365 0
412 270 78 0
-339 200 -241 0
200 -388 -361 0
-277 -337 4 0
107 383 -225 0
493 -478 454 0
300 -14 250 0
18 66 199 0
-431 -374 465 0
-78 358 269 0
309 -480 212 0
-203 -38 180 0
401 195 408 0
-278 305 -319 0
94 69 -68 0
471 -397 128 0
-190 -115 97 0
408 -416 238 0
431 -207 235 0
-397 -117 399 0
-188 97 -306 0
-16 101 -21 0
-48 263 309 0
232 236 -326 0
15 -412 -475 0
167 -444 456 0
-128 259 -396 0
-107 351 233 0
477 252 266 0
-123 195 266 0
-230 2 -396 0
-301 303 43 0
270 -488 -193 0
279 -22 -442 0
-329 -221 -437 0
-123 -73 55 0
-110 36 486 0
-289 392 40 0
111 256 -9 0
220 -161 -315 0
331 -28 496 0
-60 290 -497 0
121 -229 113 0
-78 193 -370 0
23 190 -229 0
-67 199 -300 0
-15 -368 98 0
135 -25 232 0
273 230 223 0
-248 -169 205 0
404 -493 -54 0
-104 318 -345 0
-296 386 -180 0
-273 -321 -333 0
432 -191 -162 0
-15 -225 -1 0
-271 -458 -215 0
-20 -459 -381 0
-450 249 441 0
-261 102 -479 0
-33 326 205 0
-318 442 365 0
-494 257 130 0
219 -374 -293 0
358 -264 332 0
157 -188 443 0
-490 -424 128 0
248 217 34 0
16 436 116 0
-246 437 26 0
159 -405 276 0
-366 111 345 0
-476 65 271 0
-43 -18 -324 0
-378 353 -430 0
8 -153 -331 0
-49 183 97 0
-200 -266 101 0
-81 -469 -190 0
-39 333 95 0
-210 192 -475 0
301 406 -322 0
102 -427 339 0
-47 -261 395 0
-316 -26 -489 0
-27 -103 93 0
125 499 65 0
-115 -494 -432 0
168 -371 -440 0
112 432 -182 0
-462 -143 -478 0
198 -452 333 0
-84 445 -215 0
77 327 -191 0
-212 439 489 0
-337 -161 332 0
439 464 -410 0
348 75 264 0
194 -144 307 0
-320 -97 -159 0
356 218 -295 0
-400 -214 220 0
419 -418 -360 0
-44 -325 -499 0
-210 46 197 0
-117 444 351 0
309 212 -483 0
-87 245 -333 0
-289 147 141 0
164 92 -422 0
58 371 301 0
-454 -419 -488 0
-239 163 -141 0
303 111 -288 0
125 277 151 0
-149 -113 200 0
-491 -7 135 0
-437 -363 47 0
-475 -69 -253 0
-269 255 -121 0
105 467 380 0
-444 -86 -277 0
372 -144 -123 0
146 130 25 0
84 479 241 0
-181 -21 205 0
-293 -368 -184 0
-400 120 174 0
-374 432 380 0
-90 375 -33 0
336 -223 -99 0
-429 -331 133 0
272 -347 -162 0
161 150 16 0
207 -175 -448 0
-206 193 -422 0
427 159 -369 0
-342 -265 -416 0
290 -68 390 0
-115 -54 -260 0
-183 -161 -391 0
-376 -3 105 0
199 -477 68 0
-23 255 -192 0
353 -279 -10 0
-368 -269 -88 0
-336 103 -25 0
349 270 161 0
198 257 93 0
396 298 -452 0
-150 -466 133 0
-472 -184 163 0
381 495 -154 0
100 -99 132 0
217 -266 -229 0
83 389 -391 0
37 -474 -395 0
365 283 -350 0
-363 155 413 0
204 -393 173 0
-426 42 208 0
-337 198 -367 0
-227 -431 297 0
-125 273 415 0
-328 -13 -167 0
-300 -126 150 0
-344 -293 -94 0
160 58 237 0
438 -467 328 0
41 -332 492 0
354 65 234 0
197 97 -285 0
475 244 310 0
206 -54 -298 0
416 393 -113 0
-303 378 179 0
481 349 -390 0
-123 442 -443 0
-247 66 226 0
408 -10 -56 0
483 283 445 0
-1 177 144 0
446 -487 -155 0
8 -210 263 0
