p cnf 500 1750
483 -20 184 0
29 168 189 0
332 33 -52 0
-267 -324 452 0
-79 186 306 0
197 423 232 0
83 -119 -462 0
189 -407 -234 0
56 -88 -114 0
-358 -297 37 0
131 -307 -195 0
-430 218 268 0
363 -107 438 0
-113 341 75 0
332 -178 -43 0
-56 486 -331 0
-248 -29 -1 0
-273 99 -50 0
-465 -252 32 0
445 -40 -152 0
435 -443 473 0
-280 329 -402 0
354 13 311 0
-338 -36 100 0
-181 427 216 0
42 483 -37 0
-426 410 159 0
-53 461 4 0
-137 102 -115 0
122 462 446 0
417 -154 -118 0
370 -274 -402 0
-405 365 -387 0
-380 431 -336 0
-37 236 -305 0
102 390 407 0
6 474 270 0
-212 468 235 0
-160 120 -10 0
-388 326 42 0
-228 -232 -203 0
500 204 -207 0
414 214 -349 0
399 -304 348 0
-493 23 -328 0
468 -476 -146 0
-43 175 182 0
240 107 -311 0
134 -238 -365 0
468 -442 408 0
460 10 -329 0
495 48 144 0
191 343 419 0
-420 443 -361 0
-348 -361 -318 0
-129 -108 -177 0
-84 486 362 0
260 -269 16 0
367 -2 -358 0
111 476 -47 0
-383 -186 -190 0
-464 -175 316 0
423 -369 -28 0
48 -405 312 0
184 -453 127 0
-55 34 361 0
8 428 -435 0
-176 -166 174 0
-139 -38 124 0
-244 -385 163 0
243 -319 418 0
-450 172 -271 0
79 -118 292 0
218 -92 252 0
-14 -143 -20 0
97 13 -415 0
360 458 366 0
-437 -464 174 0
-395 -19 458 0
-230 -33 -449 0
21 371 -347 0
-56 -308 274 0
312 214 -168 0
84 82 -463 0
-346 172 32 0
470 207 -182 0
-269 10 7 0
88 106 -229 0
-466 -396 58 0
301 -267 354 0
154 -334 -393 0
161 -467 -390 0
-18 247 188 0
-198 -125 -466 0
-246 465 -138 0
271 -496 -294 0
228 -458 -327 0
202 -162 -331 0
172 -345 434 0
304 -294 371 0
-155 -225 -373 0
313 390 260 0
-25 -93 136 0
332 464 120 0
-45 433 488 0
433 434 -319 0
-439 59 61 0
321 36 356 0
-410 173 178 0
366 -316 245 0
436 442 229 0
434 107 374 0
481 9 -285 0
20 89 -115 0
-206 -362 424 0
-94 289 178 0
157 90 -328 0
-170 448 -120 0
-202 -449 269 0
-64 -245 15 0
122 -420 -450 0
55 101 498 0
-360 -472 87 0
460 -254 239 0
307 437 260 0
318 -481 200 0
315 288 -86 0
-362 -110 428 0
491 228 49 0
425 170 220 0
394 401 94 0
308 -270 7 0
-333 167 -50 0
-472 422 -373 0
147 21 -491 0
-67 -155 -45 0
-123 -233 -485 0
-321 -477 -411 0
-177 -207 -400 0
-377 176 359 0
-111 163 228 0
368 393 488 0
383 24 -493 0
-48 132 379 0
306 229 -452 0
373 -429 104 0
148 106 128 0
-217 132 441 0
370 -307 -10 0
-50 -53 -448 0
321 209 -138 0
-373 -141 -5 0
-57 408 58 0
-167 362 387 0
353 81 174 0
-494 79 77 0
430 -365 -447 0
-225 474 436 0
170 191 132 0
-356 345 -367 0
-142 -346 -248 0
38 -341 212 0
213 36 -370 0
-275 -177 367 0
419 -281 468 0
285 82 -335 0
280 285 166 0
69 274 -200 0
267 -238 -145 0
454 -262 -51 0
-264 317 191 0
42 -92 -281 0
97 228 25 0
-417 370 -7 0
109 -51 307 0
307 -63 -339 0
-331 380 191 0
-354 -271 -297 0
-330 -165 323 0
-9 218 -313 0
400 351 -291 0
-9 -332 116 0
-18 361 189 0
485 -397 131 0
-93 -10 108 0
195 419 -11 0
-433 201 387 0
-226 -103 -114 0
60 268 396 0
-283 -190 143 0
-248 22 456 0
93 240 -299 0
-237 355 -99 0
62 -24 330 0
-252 -132 -359 0
-392 -219 -352 0
-464 -362 -77 0
54 -132 402 0
-121 113 320 0
373 290 392 0
-40 -474 178 0
250 -454 -433 0
-222 -74 230 0
133 138 -206 0
-493 -348 492 0
-203 395 181 0
-311 -166 485 0
300 407 190 0
-385 386 149 0
-232 345 342 0
-419 -469 -267 0
-7 -337 455 0
256 -454 139 0
354 61 340 0
132 -447 -283 0
-208 -435 422 0
-102 92 372 0
-420 425 -426 0
-312 109 -222 0
-31 350 467 0
-306 239 -440 0
476 461 183 0
-141 -6 -295 0
123 246 352 0
29 -288 466 0
-174 -310 -236 0
411 -26 282 0
414 -153 -56 0
-294 95 74 0
222 344 -100 0
341 -347 70 0
-202 219 -114 0
-488 416 -48 0
362 265 212 0
-447 76 166 0
445 214 403 0
33 -461 467 0
-28 -409 -339 0
461 38 -386 0
23 118 -61 0
120 369 39 0
7 -99 -342 0
-252 -468 -497 0
-107 -433 186 0
-300 -190 169 0
-71 452 -431 0
275 68 -459 0
332 176 232 0
481 117 287 0
253 296 -212 0
-258 380 -377 0
388 284 -2 0
89 -280 -331 0
-130 -441 -157 0
294 422 329 0
465 -66 97 0
-73 -67 379 0
274 -421 -465 0
-282 -4 -365 0
-372 -404 238 0
-28 -208 172 0
398 96 210 0
-64 -326 -74 0
378 -96 138 0
-78 388 -381 0
79 492 -156 0
473 441 -36 0
272 82 165 0
335 255 -145 0
338 57 232 0
-59 184 32 0
-175 89 200 0
-166 232 190 0
-15 -442 447 0
-385 -479 289 0
237 -211 50 0
-349 238 -146 0
102 236 51 0
-452 390 -178 0
410 458 21 0
312 -279 -150 0
139 437 202 0
78 -448 394 0
240 412 -161 0
76 309 242 0
-454 355 -271 0
21 220 384 0
-228 243 -128 0
-9 -414 -415 0
-46 -27 208 0
-342 -397 417 0
-54 -395 314 0
40 79 -54 0
280 -53 90 0
264 229 237 0
-156 70 -48 0
-408 -341 163 0
-414 -354 -491 0
143 -192 208 0
464 -281 365 0
122 285 309 0
1 152 318 0
360 195 184 0
-75 120 321 0
214 405 -318 0
-353 278 -134 0
-164 452 212 0
183 -445 -83 0
-415 -27 -185 0
-126 408 159 0
-272 74 -65 0
-453 -156 -496 0
221 418 211 0
-130 -428 -205 0
381 269 -220 0
-15 307 70 0
80 -182 -92 0
23 -180 -102 0
-205 21 -112 0
500 146 194 0
-482 -300 448 0
300 -350 -427 0
-407 320 421 0
-85 377 -94 0
-82 466 7 0
-120 -30 276 0
-251 -31 -1 0
-218 321 18 0
-453 443 -262 0
250 -340 25 0
8 139 -428 0
319 403 312 0
-480 -427 492 0
-3 -445 -207 0
364 122 405 0
-27 -293 -98 0
24 -173 276 0
469 350 -484 0
377 31 342 0
232 -125 -27 0
219 365 313 0
416 -280 349 0
364 25 326 0
-243 -105 -76 0
461 -77 366 0
344 402 -139 0
474 107 -402 0
98 91 -227 0
481 213 338 0
-360 -185 84 0
307 -115 -169 0
-484 246 446 0
303 20 -287 0
303 379 -494 0
-323 -265 261 0
359 -51 409 0
-454 88 274 0
315 432 -131 0
158 -207 347 0
44 -434 137 0
-134 44 265 0
-489 -61 341 0
-243 349 340 0
-452 -48 -394 0
-212 -21 66 0
148 -336 -71 0
75 -219 -112 0
289 -113 50 0
314 398 221 0
-61 62 -252 0
252 443 -410 0
210 -237 354 0
-397 -464 306 0
-318 112 434 0
-115 -268 147 0
291 475 259 0
47 -193 225 0
35 284 -45 0
47 -484 476 0
-67 332 170 0
162 396 -300 0
260 -493 187 0
74 123 -296 0
126 300 -40 0
-88 401 -257 0
-445 357 310 0
-418 127 430 0
154 -9 -142 0
405 -96 478 0
-14 335 -273 0
-84 174 -52 0
-173 -106 111 0
108 -258 -361 0
10 32 42 0
-77 -277 391 0
233 -492 94 0
-272 157 483 0
-198 257 -41 0
-13 190 -96 0
-28 -299 -454 0
313 -434 -374 0
-83 -231 175 0
-378 -124 305 0
53 -316 291 0
-301 -63 -123 0
-52 -185 -93 0
347 186 323 0
368 -216 -386 0
462 -279 -64 0
-138 230 483 0
-197 -484 -87 0
-359 -46 85 0
360 257 291 0
-181 -320 -236 0
269 -16 -213 0
341 -118 262 0
162 -132 33 0
-267 -479 -278 0
-62 191 431 0
329 320 318 0
482 -135 -247 0
72 -211 -175 0
492 -299 -445 0
21 184 7 0
-225 186 120 0
-279 171 -230 0
-129 260 -450 0
-480 39 -140 0
-199 253 96 0
27 -43 -75 0
395 127 323 0
243 -236 173 0
-292 -21 -147 0
-423 -101 142 0
-305 411 -145 0
60 -53 218 0
-215 221 77 0
337 183 397 0
71 -139 319 0
-117 -266 267 0
164 -73 -90 0
104 -439 -400 0
448 254 -178 0
-363 72 -421 0
256 -193 18 0
326 109 -487 0
98 -496 245 0
-189 288 235 0
500 -101 -257 0
115 -74 205 0
380 387 478 0
149 124 -228 0
-211 -373 318 0
-182 320 57 0
-410 290 56 0
-131 176 -170 0
405 244 -232 0
396 357 16 0
-71 415 280 0
-99 24 421 0
474 -84 487 0
-301 -474 333 0
383 -35 -469 0
264 -147 140 0
-6 -403 54 0
251 196 -349 0
-323 151 -331 0
185 -377 -464 0
-21 -302 283 0
125 407 19 0
-327 193 111 0
-409 103 383 0
-157 74 -278 0
115 119 -307 0
462 132 481 0
-311 351 111 0
-401 411 -105 0
292 260 213 0
-388 -97 -224 0
-490 166 -168 0
122 -294 108 0
421 -439 111 0
417 -98 484 0
-354 -167 136 0
409 185 -373 0
-423 -431 253 0
31 130 -411 0
48 -473 360 0
-474 -135 341 0
261 214 478 0
-161 184 417 0
393 333 -70 0
33 -412 6 0
362 493 -164 0
227 110 -364 0
-169 -31 203 0
-416 191 -328 0
176 463 73 0
252 28 -289 0
-168 -240 167 0
134 -32 437 0
499 460 -46 0
88 -98 -400 0
208 261 -267 0
-79 312 351 0
438 -339 -137 0
-380 -332 92 0
-237 -377 -176 0
-152 315 307 0
185 316 -437 0
262 -162 -498 0
473 -423 -34 0
-238 -141 -291 0
-364 -60 -169 0
-280 386 -497 0
76 -144 73 0
-245 361 -255 0
-89 50 -255 0
203 -216 -7 0
-141 -438 -344 0
-231 136 -302 0
465 -368 378 0
-278 -176 138 0
-314 -500 -152 0
85 50 477 0
-6 185 157 0
198 -465 483 0
-100 288 81 0
-341 418 461 0
-486 -77 89 0
-442 336 117 0
-368 -290 245 0
113 412 33 0
137 -437 2 0
117 58 -39 0
221 94 115 0
488 133 438 0
-361 -314 237 0
-383 184 -325 0
451 -20 -151 0
-305 -10 44 0
-155 449 -99 0
-14 -480 274 0
-182 -347 483 0
23 228 -297 0
463 -188 -474 0
434 -340 185 0
-47 384 130 0
265 -92 192 0
-311 482 -331 0
-450 107 458 0
486 -338 364 0
77 -38 -22 0
398 -463 251 0
-94 426 401 0
-490 -397 -487 0
199 -391 -480 0
-448 370 305 0
340 423 31 0
240 -239 115 0
271 -308 155 0
-58 36 310 0
-387 399 -58 0
-186 -125 247 0
50 -25 261 0
78 1 410 0
-461 -82 -133 0
-55 -236 436 0
248 -41 -245 0
-210 416 127 0
421 490 206 0
-431 -390 -456 0
-245 237 -341 0
-112 133 -95 0
-373 388 157 0
324 195 410 0
86 15 -37 0
404 -44 -191 0
466 -128 493 0
-491 4 425 0
337 309 -16 0
-20 331 -404 0
-300 -200 -362 0
-238 -492 -7 0
351 430 -63 0
347 -133 -342 0
-380 232 -438 0
37 -354 -224 0
36 -456 347 0
178 -307 140 0
369 160 -180 0
141 -128 -422 0
97 380 -353 0
-10 -20 116 0
362 -114 -487 0
-9 191 465 0
-144 394 221 0
78 -289 -121 0
-153 2 478 0
-201 -74 -236 0
-100 -28 81 0
-359 -292 118 0
363 -313 178 0
-166 266 294 0
-284 407 228 0
304 405 421 0
112 -416 -376 0
127 481 461 0
-445 -362 128 0
-413 -312 371 0
59 -474 100 0
-65 203 377 0
-321 63 181 0
-14 -44 352 0
-2 -206 390 0
-18 -307 -142 0
290 -442 173 0
-440 -35 220 0
491 -496 27 0
39 280 3 0
-436 -249 12 0
-51 193 -146 0
238 491 175 0
-15 444 -101 0
-7 -194 -321 0
-183 332 270 0
-367 -167 61 0
1 -99 399 0
-59 -352 -493 0
112 -499 -59 0
340 -329 397 0
397 231 -395 0
299 -237 -435 0
17 -339 145 0
-369 -88 154 0
-56 -230 -121 0
-496 284 223 0
447 187 212 0
100 419 -7 0
-219 245 400 0
434 179 -101 0
116 -48 -165 0
215 52 -186 0
-357 -454 114 0
179 -484 -188 0
-8 406 -6 0
178 -334 -404 0
450 -280 -42 0
311 -234 -401 0
413 6 298 0
184 381 116 0
172 166 -191 0
284 -283 -191 0
35 153 -452 0
-139 -393 324 0
365 -453 237 0
-446 417 182 0
377 -96 451 0
128 89 48 0
-328 -90 186 0
489 -84 -128 0
289 87 -357 0
-162 181 -404 0
-418 201 459 0
-248 22 475 0
402 -2 29 0
56 -17 -327 0
355 134 -34 0
-237 409 125 0
131 -233 156 0
-309 115 198 0
160 -461 153 0
395 202 441 0
60 -17 -279 0
-455 68 -85 0
-115 -6 180 0
7 -340 60 0
271 153 -492 0
-149 -132 -5 0
319 80 81 0
427 -412 -92 0
-395 -165 38 0
161 -442 217 0
102 326 -82 0
-324 -172 241 0
298 -63 194 0
119 65 175 0
-2 302 -188 0
-171 -305 -11 0
-428 461 -202 0
-495 -96 -448 0
-379 -388 143 0
439 -289 82 0
404 441 -328 0
-2 -339 -218 0
205 126 -415 0
-434 -28 85 0
-251 237 28 0
238 -372 397 0
483 128 -459 0
134 -495 264 0
209 -213 181 0
425 118 -165 0
-449 26 383 0
347 -264 476 0
192 5 125 0
-38 -204 118 0
-194 -381 493 0
382 68 198 0
-281 -362 -228 0
-387 -455 256 0
327 -304 11 0
-498 -412 -360 0
123 49 -192 0
456 455 -73 0
489 -162 443 0
21 -85 320 0
193 222 -208 0
289 284 -220 0
13 322 183 0
276 94 281 0
214 431 -87 0
-36 236 225 0
324 456 -461 0
-500 120 1 0
-401 289 -341 0
-429 225 -281 0
247 -145 73 0
329 218 230 0
65 -58 -84 0
427 171 -304 0
-179 350 391 0
-422 -136 129 0
-250 -406 443 0
365 -451 28 0
-23 239 85 0
-447 272 -128 0
-214 117 -389 0
456 -381 -111 0
281 -443 482 0
-187 -227 22 0
-248 -390 -252 0
461 338 136 0
127 361 11 0
351 -26 -260 0
-108 -329 418 0
182 -205 57 0
-45 -362 -50 0
298 451 -249 0
41 -371 -340 0
-451 -86 287 0
333 227 -449 0
-163 -227 344 0
-94 318 291 0
439 -388 -467 0
33 -414 -466 0
366 120 307 0
384 220 55 0
171 -408 103 0
-305 -300 -41 0
292 186 131 0
-449 -217 26 0
-447 129 118 0
367 255 -195 0
15 -186 133 0
-236 -13 -189 0
368 199 -444 0
15 -145 221 0
417 -412 40 0
482 -36 329 0
-357 102 56 0
-8 364 232 0
54 180 440 0
-57 -442 202 0
465 78 -33 0
-458 378 -45 0
-227 11 395 0
75 79 348 0
-169 -112 449 0
480 136 206 0
13 287 -480 0
-318 143 -130 0
-361 73 -270 0
361 -497 -247 0
194 184 -248 0
-206 52 81 0
-440 -459 300 0
347 457 -289 0
248 74 386 0
44 -295 -204 0
-118 318 105 0
-220 -159 404 0
237 -390 486 0
380 419 44 0
-360 250 -248 0
173 265 335 0
41 -192 310 0
-372 123 -489 0
204 64 -83 0
-238 111 258 0
-23 487 65 0
-219 369 99 0
-342 179 -149 0
486 -270 -184 0
-330 -334 -474 0
-300 -309 -11 0
-203 476 -25 0
-282 -212 -229 0
-228 34 -243 0
-124 184 284 0
248 295 79 0
186 -496 -87 0
161 -422 -333 0
-26 119 303 0
-469 401 -286 0
318 118 -447 0
396 353 -208 0
105 -61 21 0
-433 -92 198 0
190 306 211 0
420 -436 -446 0
-261 399 -486 0
291 -322 -196 0
463 -279 -326 0
-219 -368 -419 0
-189 -325 385 0
165 429 451 0
58 -372 -94 0
-375 -212 -445 0
26 -32 60 0
484 -266 368 0
262 161 370 0
178 -403 282 0
-182 -128 -464 0
369 322 -248 0
193 211 227 0
257 290 -390 0
132 134 -240 0
-422 30 -32 0
-103 -357 -21 0
213 152 -166 0
202 -141 255 0
-129 207 -494 0
-273 -274 -143 0
-428 338 -496 0
301 252 -210 0
-148 9 -327 0
-484 -94 -425 0
-250 448 63 0
-232 -288 436 0
-304 -217 -460 0
-234 -128 -250 0
341 218 -285 0
423 445 223 0
234 32 34 0
-291 233 449 0
-3 229 410 0
7 67 268 0
-269 193 -6 0
237 -483 9 0
-487 -426 228 0
408 172 364 0
479 273 -318 0
-355 -151 323 0
334 -370 -17 0
200 24 -146 0
-475 418 122 0
-221 -179 367 0
212 129 -343 0
393 345 311 0
307 23 416 0
-481 219 78 0
-10 -483 -419 0
-489 108 113 0
-444 -140 378 0
407 294 -346 0
208 -127 -111 0
-127 -315 97 0
-11 479 474 0
124 -20 396 0
-209 360 81 0
159 69 192 0
-437 6 -458 0
435 89 -107 0
-390 412 -179 0
-326 -214 42 0
35 -244 26 0
202 -104 200 0
199 236 -379 0
323 -476 210 0
-310 -400 -465 0
-124 414 232 0
110 469 258 0
-147 35 21 0
469 -313 -91 0
-455 366 324 0
379 88 433 0
348 112 -450 0
-243 -106 -342 0
-286 -475 157 0
208 436 -232 0
54 -118 70 0
-137 263 389 0
233 -96 382 0
-114 -304 -65 0
-330 -192 -436 0
379 146 80 0
325 279 -41 0
221 224 -116 0
-192 495 421 0
-72 -262 453 0
-101 142 300 0
443 245 -255 0
346 -203 480 0
-209 -336 434 0
443 137 -87 0
178 432 -493 0
-222 198 -20 0
253 454 -325 0
397 286 -145 0
487 -373 299 0
29 461 -476 0
135 222 495 0
285 -303 352 0
-231 74 240 0
97 298 278 0
-109 378 100 0
-242 474 62 0
323 -391 131 0
107 300 168 0
-284 244 384 0
-195 -179 -438 0
-378 -241 376 0
-139 51 102 0
-19 182 -240 0
229 -228 342 0
425 -462 -421 0
-24 -369 436 0
155 424 360 0
-211 -423 372 0
312 167 -94 0
376 417 -93 0
-76 419 228 0
-383 300 -181 0
359 280 23 0
327 -415 -124 0
-218 -128 -28 0
97 -420 331 0
113 -242 353 0
-307 460 326 0
136 265 -59 0
153 -322 -43 0
238 222 -310 0
-194 381 -224 0
-478 378 325 0
-188 479 490 0
-274 -119 325 0
396 486 -366 0
138 -331 476 0
-266 480 -463 0
-125 -279 79 0
-410 -139 193 0
55 382 76 0
-98 471 -242 0
-106 -136 160 0
219 94 463 0
367 -369 -352 0
239 -291 138 0
-197 -381 -481 0
180 -192 -25 0
-68 -369 424 0
196 329 -368 0
-423 236 3 0
175 360 22 0
-367 -243 -170 0
199 -105 -377 0
-420 303 -85 0
-233 -146 266 0
-486 124 381 0
192 -302 481 0
-42 286 -376 0
66 239 252 0
395 -229 -327 0
354 -25 441 0
369 497 -382 0
-105 -263 77 0
-320 -69 -427 0
-192 -460 -371 0
-3 448 196 0
-249 -425 202 0
362 160 57 0
-467 270 412 0
107 420 -305 0
-91 14 -201 0
439 -481 99 0
359 356 442 0
373 -5 279 0
89 -13 -86 0
107 -226 -184 0
78 286 437 0
-13 -416 403 0
428 -303 -320 0
-202 -379 -71 0
472 -411 275 0
420 -302 -341 0
108 -384 -418 0
293 -407 246 0
388 -94 299 0
-329 356 -49 0
-109 314 176 0
-68 448 323 0
-297 149 -142 0
-110 213 476 0
-54 123 -267 0
77 419 185 0
-157 457 -355 0
270 -436 -98 0
-313 -217 -43 0
-345 -105 63 0
446 -275 294 0
25 148 243 0
-375 186 9 0
-315 -392 369 0
416 -285 -424 0
188 136 83 0
-6 306 451 0
159 329 85 0
-297 258 -207 0
-129 50 -65 0
-59 204 199 0
284 289 138 0
299 -464 437 0
-146 -111 448 0
-133 -19 -345 0
-154 -395 -41 0
-188 25 -148 0
142 140 135 0
473 54 364 0
-165 247 489 0
302 -284 68 0
324 212 -422 0
276 -231 -481 0
-59 -305 -191 0
-121 -404 -255 0
-12 -54 -238 0
421 58 182 0
98 260 94 0
51 283 -113 0
-81 -488 388 0
-474 -86 234 0
-342 -264 17 0
-135 -161 -82 0
-352 187 -472 0
-310 131 266 0
354 105 241 0
313 88 218 0
-162 325 -178 0
243 -462 473 0
376 -325 120 0
345 -224 -252 0
94 146 -162 0
332 485 30 0
-409 -231 326 0
-75 482 -81 0
20 339 -273 0
-10 -323 131 0
-72 -217 435 0
187 143 470 0
-133 -207 -135 0
-169 130 -188 0
-396 -42 -138 0
193 -243 142 0
323 -75 204 0
276 136 -107 0
6 188 366 0
48 23 -450 0
-421 -76 120 0
125 158 67 0
13 -488 -175 0
-409 -272 -268 0
-296 -187 -315 0
227 116 500 0
-406 389 149 0
-202 164 -349 0
-125 326 -466 0
262 -64 -217 0
-407 79 -424 0
454 470 361 0
-170 136 84 0
153 394 21 0
-305 -391 323 0
-307 497 477 0
274 -192 -247 0
-132 223 112 0
469 376 -426 0
-349 -218 295 0
-140 124 -462 0
-212 163 270 0
-191 77 -347 0
-118 480 -287 0
355 -338 -157 0
-495 278 -241 0
167 456 -480 0
41 475 -273 0
-477 -253 -289 0
-92 -413 432 0
92 -145 315 0
-176 456 -459 0
-99 -274 382 0
-347 223 218 0
54 -494 -32 0
343 -74 -330 0
412 212 -327 0
-177 195 -69 0
151 -327 -18 0
157 443 280 0
37 489 152 0
5 -448 -67 0
-118 122 -80 0
-383 -324 -396 0
361 476 -253 0
47 19 -101 0
111 261 28 0
-40 -128 203 0
-142 -291 341 0
-462 54 -151 0
-79 372 -416 0
122 -295 -273 0
495 296 99 0
-407 181 42 0
355 -291 396 0
-292 248 -308 0
495 376 362 0
-175 -146 -480 0
-493 337 220 0
328 -433 235 0
442 445 371 0
455 493 -347 0
215 -84 -450 0
268 -94 -307 0
-405 369 191 0
102 -129 -105 0
59 -461 -455 0
-269 -478 463 0
-278 413 475 0
241 -381 158 0
46 -95 -238 0
-166 484 -332 0
-325 100 -324 0
-29 412 27 0
238 -131 -243 0
181 71 -488 0
-463 59 378 0
-8 -195 232 0
-133 -57 -32 0
-226 188 -319 0
-242 -338 -406 0
-166 187 -298 0
-437 -463 191 0
208 -160 213 0
92 241 -225 0
126 -91 -237 0
-438 -409 -27 0
-103 459 -135 0
277 -229 -394 0
260 95 -155 0
391 -479 -30 0
412 -95 143 0
-190 -425 -197 0
441 313 87 0
-51 325 497 0
387 -160 72 0
-46 100 -426 0
-317 -145 -36 0
196 -232 -224 0
390 441 -455 0
397 -292 74 0
-122 -380 -80 0
-224 -240 -37 0
-61 -107 97 0
-319 315 51 0
364 487 -248 0
167 -157 298 0
-26 150 77 0
278 -321 499 0
313 196 -59 0
-217 212 -49 0
-282 124 274 0
-378 -336 -438 0
-24 499 234 0
347 171 27 0
-454 -345 207 0
-124 379 435 0
253 -483 349 0
-458 -122 -500 0
-303 -286 -99 0
-353 308 155 0
113 -348 -299 0
-49 298 -499 0
114 29 318 0
-347 69 -212 0
407 -167 -364 0
184 -363 -183 0
-44 -108 -372 0
-182 -64 299 0
-241 468 -344 0
-202 -192 -188 0
-407 201 36 0
85 69 -140 0
315 34 356 0
-274 -27 229 0
-219 151 -89 0
-226 375 -166 0
-251 -84 -441 0
133 3 -126 0
-105 -476 318 0
-88 192 170 0
322 -409 483 0
72 -52 -331 0
166 -43 -61 0
189 -303 211 0
-282 -471 153 0
140 -221 -92 0
426 -128 -12 0
390 276 217 0
124 299 -36 0
127 -156 -316 0
-455 -61 -332 0
-490 -309 -219 0
-14 266 -256 0
-107 -232 -22 0
70 -340 -23 0
-322 250 458 0
374 -97 -413 0
-269 325 117 0
-172 -249 267 0
-37 -207 34 0
-68 -315 203 0
-106 -294 356 0
-77 -53 -172 0
-374 370 19 0
-374 -345 -198 0
137 -117 35 0
-213 357 58 0
328 -392 117 0
-309 -51 46 0
-279 -27 -58 0
216 218 467 0
279 439 313 0
-322 309 259 0
194 -40 -480 0
-385 -466 146 0
-95 -454 162 0
458 -227 427 0
149 -436 443 0
442 281 377 0
267 86 442 0
-334 -116 490 0
150 -142 -63 0
316 89 53 0
-113 -109 -1 0
22 352 125 0
-407 -136 412 0
-55 -301 -391 0
196 96 257 0
322 13 -123 0
-495 -418 126 0
-53 -76 -312 0
345 299 -46 0
320 -184 375 0
411 116 439 0
249 -241 311 0
-440 437 -422 0
109 430 -324 0
465 -126 -469 0
222 -358 262 0
381 243 460 0
61 168 -335 0
-283 -451 -379 0
277 462 -122 0
286 183 200 0
-138 284 -478 0
-308 356 -158 0
207 -400 -37 0
159 -234 461 0
-265 117 274 0
-346 -339 112 0
-138 290 -360 0
-184 70 252 0
-262 274 178 0
124 -191 443 0
99 -273 442 0
7 -189 -223 0
12 73 -285 0
-479 -67 217 0
-416 -37 438 0
-401 -410 282 0
-142 21 -132 0
-3 413 -211 0
295 192 491 0
123 -290 -311 0
-163 -124 20 0
-493 22 -275 0
-311 481 369 0
-189 -119 -463 0
366 58 -372 0
356 316 -104 0
-53 264 345 0
-95 -109 110 0
452 113 -17 0
11 -258 -367 0
-478 -340 -482 0
-376 -292 -210 0
-229 220 252 0
436 385 -36 0
428 -328 391 0
-467 101 138 0
28 -51 137 0
-9 104 -366 0
-121 235 437 0
300 88 -400 0
86 412 -324 0
369 199 -344 0
23 -120 315 0
-47 365 -243 0
401 458 -431 0
449 124 -168 0
-284 -53 417 0
-124 58 99 0
-194 -317 127 0
217 146 184 0
-444 479 -452 0
-165 -29 -352 0
-239 -167 -92 0
-275 299 10 0
-375 -478 96 0
288 -120 -276 0
240 -362 -422 0
-103 -318 -106 0
-206 139 473 0
480 499 -22 0
75 -126 -179 0
-242 -85 -419 0
-153 327 68 0
128 -414 -188 0
-89 -95 241 0
371 -111 434 0
-260 328 -233 0
367 -297 -250 0
-218 -298 467 0
483 -95 -398 0
128 -170 411 0
343 90 -358 0
-96 -278 302 0
82 -251 -254 0
-301 368 -346 0
341 228 291 0
285 428 183 0
438 -135 423 0
-445 -117 -417 0
406 -312 -268 0
-339 107 204 0
-229 -100 -343 0
497 30 109 0
-81 -176 -236 0
105 129 -426 0
135 -466 25 0
-30 38 497 0
-349 -408 267 0
56 -426 -438 0
466 394 -144 0
-56 -344 170 0
49 -315 -19 0
23 -421 -223 0
306 371 -48 0
428 -460 -111 0
407 37 -7 0
150 290 -429 0
-451 270 -84 0
-123 -120 -487 0
-425 344 -338 0
448 329 -99 0
277 -119 19 0
-377 -366 69 0
-206 98 -64 0
-130 238 24 0
61 -295 447 0
431 130 53 0
268 -164 95 0
285 -380 460 0
405 -265 -36 0
486 -56 -450 0
-310 -141 -396 0
78 -184 200 0
-335 -395 -50 0
471 -63 94 0
485 -61 8 0
383 -140 -152 0
-432 -327 30 0
365 449 -394 0
109 282 -354 0
-90 354 -92 0
-333 -107 185 0
101 -81 -70 0
-107 93 12 0
-233 52 192 0
64 72 -109 0
307 -443 -48 0
-407 245 320 0
-136 51 -173 0
-423 -488 -291 0
-307 334 411 0
-130 -82 -219 0
-313 -331 354 0
331 246 92 0
231 -286 373 0
-248 229 176 0
-196 408 177 0
240 170 396 0
388 -137 -303 0
-252 -440 336 0
497 -62 -369 0
3 112 -389 0
39 87 -193 0
131 170 295 0
-444 -422 -319 0
-320 -412 -29 0
-411 -46 -461 0
-388 201 484 0
-122 30 -307 0
171 -132 208 0
-130 52 -479 0
-482 228 376 0
-316 295 293 0
-174 -345 138 0
104 165 -353 0
-129 -342 186 0
-321 361 456 0
-202 413 -405 0
56 339 94 0
210 -114 101 0
-159 112 -279 0
-422 358 193 0
-21 -394 -173 0
467 -18 463 0
154 -82 140 0
411 -371 -439 0
-98 -366 -278 0
-99 304 -451 0
456 177 340 0
-30 20 492 0
168 -130 -183 0
-488 -408 70 0
238 235 -260 0
58 -140 -348 0
-453 385 274 0
-102 305 345 0
-418 -145 -143 0
-10 422 -228 0
-404 -59 -63 0
-425 460 -259 0
72 110 245 0
240 -15 141 0
-190 16 127 0
-383 497 480 0
495 -384 76 0
443 66 461 0
-172 372 121 0
-51 178 93 0
306 -88 384 0
163 -166 -52 0
32 360 -351 0
73 -220 13 0
431 59 -113 0
-358 -248 -49 0
435 378 -134 0
94 -179 345 0
-482 -372 443 0
-149 -22 -303 0
-479 -384 -358 0
-263 352 -427 0
-181 5 413 0
-308 109 347 0
69 -311 414 0
379 -50 -209 0
-332 165 -496 0
-90 -107 -116 0
35 -306 -413 0
-165 160 1 0
370 -210 -422 0
-209 371 -343 0
-99 370 187 0
-57 452 -205 0
306 -286 -345 0
60 475 304 0
-133 2 -258 0
-343 40 126 0
-265 -100 54 0
267 -250 314 0
309 -114 -16 0
285 83 -195 0
330 73 -176 0
-115 250 221 0
-93 -431 -224 0
-327 -245 485 0
148 409 -54 0
-236 -314 18 0
413 308 31 0
-278 135 134 0
111 -255 -102 0
-397 -352 -475 0
-398 335 275 0
-233 -282 -86 0
-10 -166 230 0
151 93 -337 0
209 272 409 0
-301 383 24 0
200 -416 -217 0
-136 -73 -159 0
61 -252 248 0
-212 55 -251 0
-56 -189 481 0
-22 -243 459 0
-266 -33 38 0
326 -416 304 0
-136 -10 305 0
427 288 116 0
208 181 -441 0
452 382 -278 0
316 -363 186 0
-345 -476 -418 0
-334 100 -106 0
350 -380 498 0
449 359 -204 0
-1 -51 -295 0
-482 396 -48 0
-40 62 249 0
409 447 -433 0
238 127 -109 0
-11 -29 -6 0
432 -78 57 0
-460 301 96 0
64 300 -102 0
-161 198 378 0
-399 41 53 0
490 271 500 0
-4 -64 334 0
-219 -228 -346 0
-458 228 -472 0
-54 -416 284 0
253 -459 118 0
137 194 -56 0
34 335 28 0
-369 -16 -360 0
-379 -219 436 0
169 -376 -355 0
257 229 -191 0
-291 113 461 0
469 499 396 0
-462 -3 -166 0
198 -422 45 0
-421 263 132 0
-219 -315 -152 0
-468 241 -484 0
-41 -323 139 0
490 34 321 0
349 90 333 0
211 431 -440 0
348 -142 -76 0
171 -61 344 0
-327 -220 -115 0
9 -291 -487 0
420 -47 -249 0
2 -95 489 0
-432 298 -3 0
130 25 -403 0
435 67 -145 0
412 483 -71 0
214 -484 471 0
360 -478 491 0
-317 -370 -34 0
393 290 -230 0
500 -194 143 0
-13 108 -289 0
-118 107 68 0
-211 -126 -167 0
-134 72 -149 0
-205 207 -2 0
127 109 -135 0
406 -170 4 0
255 306 376 0
-329 343 -88 0
-25 409 -19 0
154 361 94 0
-68 5 218 0
-392 -250 -203 0
319 -227 -392 0
-316 -430 109 0
-168 420 -475 0
432 374 87 0
27 -42 323 0
474 -306 -278 0
43 -162 405 0
429 -404 -130 0
-92 -212 285 0
55 -417 -477 0
-215 -61 -275 0
-49 -2 299 0
-448 127 339 0
496 -413 -431 0
-479 -246 -314 0
-485 307 273 0
-149 -344 -287 0
470 383 119 0
-241 -119 176 0
-473 -394 162 0
-293 -143 141 0
-221 -162 -418 0
-427 -294 -431 0
-157 167 -234 0
413 -362 49 0
164 -202 409 0
-485 182 140 0
-231 -17 -146 0
415 -85 125 0
-399 179 -305 0
-106 487 64 0
364 -450 368 0
-423 482 -348 0
-260 -63 -327 0
-372 -243 132 0
231 349 -355 0
77 338 467 0
-308 -413 154 0
-368 -36 -251 0
-307 -295 278 0
24 -256 -426 0
165 -202 -210 0
-306 484 466 0
482 422 -16 0
31 -52 -479 0
-456 458 -215 0
-82 175 58 0
-9 -381 -181 0
-58 -54 444 0
133 -247 127 0
-256 283 341 0
82 45 -424 0
223 -489 44 0
234 186 -415 0
-198 -38 376 0
96 418 181 0
416 60 484 0
415 453 28 0
-373 376 423 0
480 -231 -143 0
-53 -399 -61 0
-228 -117 -317 0
-25 -139 126 0
393 -364 170 0
154 394 223 0
333 -320 31 0
-358 -238 -48 0
-359 -277 159 0
200 -10 -137 0
105 -116 -424 0
-172 -281 458 0
308 -247 -81 0
370 -305 -205 0
75 -29 186 0
252 379 -102 0
109 134 -224 0
-468 -280 -345 0
-281 358 -218 0
43 234 -12 0
92 13 462 0
473 263 -177 0
-214 369 338 0
-89 -105 -411 0
332 142 -43 0
-289 -215 159 0
-23 -357 74 0
309 46 89 0
-193 -323 34 0
178 412 -281 0
322 -169 -238 0
241 268 -157 0
-216 -17 24 0
80 -462 101 0
-244 57 242 0
354 -360 210 0
-369 -64 5 0
485 -42 372 0
-143 -168 465 0
-264 32 381 0
-270 -467 -423 0
-163 -412 -246 0
-212 403 86 0
-391 -465 -441 0
102 -419 -92 0
-183 -160 180 0
452 357 -427 0
279 314 -325 0
236 233 -178 0
242 366 -190 0
-391 377 -341 0
461 331 161 0
105 203 -460 0
399 -61 341 0
413 -475 -288 0
-381 -49 -114 0
-154 -63 41 0
289 -213 -321 0
-30 134 406 0
206 323 100 0
-202 370 -148 0
463 -192 -226 0
-265 -273 266 0
-354 415 -291 0
-396 -139 -47 0
-270 382 40 0
393 23 -389 0
206 -403 494 0
-122 -131 -467 0
-282 180 -355 0
-147 174 -10 0
-28 -42 94 0
-369 -261 133 0
-155 -490 32 0
351 129 295 0
447 -410 -482 0
-360 186 -138 0
323 188 -313 0
-403 -363 148 0
396 -170 -381 0
174 260 372 0
456 -479 371 0
-422 411 289 0
191 498 -440 0
-453 -174 73 0
183 -74 128 0
229 417 265 0
151 -66 498 0
-63 397 155 0
62 -478 151 0
259 329 128 0
-54 -204 254 0
348 -120 261 0
-195 443 191 0
-324 424 -99 0
