p cnf 200 950
163 -21 -30 0
28 180 187 0
-17 -159 193 0
102 -75 108 0
189 31 94 0
-62 -3 -5 0
-45 -116 101 0
190 -46 -164 0
141 23 85 0
130 -122 -54 0
-163 195 -152 0
84 -90 -142 0
109 111 -160 0
5 175 -45 0
-128 -41 21 0
-173 -130 123 0
193 -151 52 0
-35 33 175 0
191 -107 67 0
81 -37 162 0
184 -83 29 0
-184 183 150 0
-88 -36 -136 0
-119 170 -143 0
-128 138 -53 0
-29 80 126 0
-174 -79 199 0
-185 168 -166 0
195 156 -196 0
105 76 119 0
-192 45 -135 0
-164 39 186 0
50 147 83 0
-42 61 -17 0
93 -119 -95 0
-124 -115 -30 0
4 140 24 0
8 103 -79 0
-92 192 -35 0
-8 146 172 0
134 101 -14 0
184 65 118 0
-183 91 169 0
-69 -54 65 0
167 187 144 0
-157 -135 -153 0
141 -92 -14 0
-123 14 -71 0
103 -40 -153 0
-55 171 -163 0
-200 -179 110 0
148 -103 183 0
14 141 150 0
-111 131 -76 0
115 -84 101 0
9 -110 125 0
29 -140 123 0
158 157 -65 0
114 -30 -81 0
-189 -28 -59 0
-139 186 -36 0
32 -184 -42 0
-142 77 -61 0
-111 -109 119 0
-42 -138 -16 0
80 -2 -180 0
-36 152 -45 0
99 43 -157 0
-12 93 74 0
-96 -6 64 0
70 65 151 0
93 -9 -148 0
-61 91 -190 0
-124 95 88 0
166 -110 -147 0
-114 -110 89 0
94 -154 -172 0
136 10 -167 0
161 -53 58 0
181 -170 77 0
-181 14 -120 0
-3 195 -194 0
147 -107 -135 0
152 188 9 0
34 -104 -99 0
-67 -30 112 0
-196 -134 103 0
85 139 -14 0
174 18 186 0
-42 52 -190 0
-142 194 162 0
149 153 179 0
-52 -22 -92 0
79 -180 -112 0
66 101 -126 0
74 -6 115 0
64 183 -117 0
-29 197 -21 0
23 -183 156 0
121 134 149 0
-16 -155 -175 0
139 -3 -90 0
-82 25 -28 0
139 186 -61 0
-125 -19 -140 0
-177 -97 174 0
-32 -194 55 0
-2 7 -124 0
-108 194 -48 0
-130 -10 -98 0
9 30 35 0
152 98 45 0
147 189 -43 0
-78 -36 -138 0
-86 175 -122 0
199 121 -7 0
141 -59 -30 0
-18 32 -113 0
74 169 165 0
21 -89 -39 0
-74 -53 -191 0
-79 -140 -120 0
-57 81 149 0
138 192 14 0
-67 38 1 0
-45 -160 -36 0
-10 -157 142 0
-18 55 4 0
120 165 86 0
12 -150 99 0
-35 -10 101 0
174 -27 -31 0
56 -8 14 0
-119 -75 -22 0
-117 -111 -62 0
-50 -78 183 0
191 -186 -142 0
36 11 -79 0
-79 95 -140 0
111 88 57 0
-73 -64 98 0
109 102 -78 0
-138 190 2 0
-120 133 88 0
166 -46 -162 0
-13 -7 -145 0
-149 88 -102 0
-78 146 -195 0
-25 -113 -24 0
196 -177 -109 0
130 134 142 0
-182 -147 66 0
-187 179 -130 0
-73 -59 -54 0
27 96 117 0
15 -138 13 0
-112 -125 -153 0
91 -139 -93 0
83 -64 187 0
29 -151 -102 0
2 157 -193 0
-43 -172 -16 0
-7 121 -131 0
-111 103 27 0
33 11 -49 0
45 179 -28 0
-138 196 -112 0
115 -54 -46 0
107 43 167 0
-139 149 -101 0
112 96 64 0
28 100 -27 0
74 -70 -62 0
159 -171 44 0
130 -180 -161 0
85 -133 -142 0
29 -21 -18 0
126 -102 -63 0
36 -159 132 0
26 -165 63 0
113 -11 -23 0
2 -99 -153 0
129 108 54 0
4 -35 54 0
105 93 112 0
101 -157 92 0
-137 -97 -23 0
-135 -83 -110 0
-121 26 -60 0
2 79 200 0
170 -159 -97 0
-107 13 155 0
41 8 129 0
24 -82 194 0
186 -84 -147 0
196 -125 -45 0
-190 -75 167 0
-171 -191 111 0
-35 178 23 0
-61 -104 82 0
-178 39 -8 0
119 -51 -120 0
-178 -46 149 0
-64 -50 -70 0
-173 114 111 0
-138 -188 134 0
-168 66 -110 0
-14 -113 194 0
69 7 -93 0
135 -196 -94 0
-193 43 -80 0
-152 -82 56 0
-154 153 57 0
63 -26 37 0
142 27 1 0
-196 47 132 0
-36 -8 -122 0
-54 111 -88 0
-181 147 25 0
2 -149 12 0
1 75 102 0
194 89 69 0
-38 35 199 0
-131 -27 160 0
53 -93 -122 0
-44 -146 123 0
36 -169 122 0
42 -163 -109 0
-6 -44 40 0
63 100 153 0
-49 159 -31 0
33 83 -199 0
-26 -10 -142 0
35 -10 -100 0
63 -172 -196 0
-171 -121 71 0
-46 132 -171 0
-166 67 -38 0
8 132 -136 0
-64 -74 -144 0
-25 -102 9 0
117 -196 92 0
152 197 22 0
139 -108 -97 0
119 106 136 0
-79 -154 20 0
55 -122 -28 0
-187 172 179 0
-37 -148 179 0
121 142 -36 0
144 80 171 0
32 152 53 0
-135 -37 71 0
-7 70 38 0
95 1 -125 0
-106 -119 67 0
-55 6 124 0
134 137 -87 0
175 72 155 0
-76 -126 60 0
-170 -167 -84 0
176 -102 -100 0
175 -153 -91 0
78 170 125 0
37 -148 190 0
-174 -97 145 0
-138 -103 155 0
119 96 137 0
-86 33 -182 0
-158 -134 -137 0
-19 -4 -12 0
-189 4 -43 0
109 -139 -97 0
-131 133 -28 0
-139 -164 137 0
18 -97 -55 0
-145 -167 28 0
117 -36 -4 0
-197 -98 -84 0
-65 -174 -21 0
-106 -118 -60 0
-110 -56 -153 0
-103 184 166 0
190 106 2 0
184 -55 -28 0
134 -149 153 0
-174 -102 25 0
149 157 103 0
179 -29 -103 0
-180 27 -22 0
-69 -67 9 0
-189 -110 1 0
-183 178 -72 0
157 -106 -123 0
95 -33 -196 0
-101 -103 -18 0
-17 150 -9 0
-46 111 -130 0
-177 13 -200 0
-89 34 11 0
-117 3 62 0
120 -85 89 0
-79 -70 185 0
180 95 157 0
-104 -94 -185 0
17 25 -170 0
101 148 -53 0
-62 7 101 0
175 -34 -120 0
190 183 5 0
-147 -28 -40 0
81 28 94 0
54 -8 10 0
-93 185 171 0
184 157 28 0
-136 149 -83 0
90 171 23 0
-99 196 -100 0
9 -188 91 0
143 147 -198 0
162 -132 -127 0
-73 141 -135 0
1 189 -115 0
60 -198 -54 0
141 -34 -132 0
-112 -84 -89 0
-97 -198 -190 0
180 -12 141 0
18 -113 -19 0
-25 -169 -167 0
27 -175 -62 0
108 -22 42 0
57 121 -70 0
147 -126 154 0
-56 103 124 0
-62 112 8 0
59 57 -144 0
-45 -115 122 0
145 28 62 0
86 113 -44 0
154 -100 -184 0
135 39 -18 0
44 -65 30 0
-157 44 -137 0
-163 -47 29 0
-181 -185 -188 0
-33 -166 55 0
5 174 -79 0
-16 -103 -15 0
-194 200 -94 0
-85 -12 -131 0
16 -109 100 0
-19 35 161 0
-96 -160 173 0
45 -142 75 0
66 -51 86 0
137 20 -119 0
164 115 -2 0
-197 -135 125 0
191 26 -11 0
-146 63 81 0
-73 -185 149 0
-91 -95 31 0
-196 158 197 0
-80 143 -113 0
-43 -28 131 0
-18 41 56 0
70 50 177 0
131 37 114 0
75 -144 40 0
-113 -137 -150 0
183 -169 40 0
-177 -111 -4 0
115 -57 121 0
-36 -99 84 0
164 177 -176 0
-150 -40 -103 0
-69 185 142 0
83 38 86 0
-185 97 193 0
79 -160 -121 0
-198 -23 -16 0
-91 -102 -6 0
-126 -100 31 0
46 -130 -26 0
-118 50 -151 0
-195 81 191 0
-6 55 135 0
40 -11 -38 0
1 147 194 0
172 77 178 0
-141 133 83 0
14 78 -34 0
98 -131 38 0
-167 -129 -64 0
116 175 -53 0
178 -68 -51 0
105 103 -149 0
156 65 105 0
47 112 35 0
-9 177 -168 0
-61 99 -198 0
134 -32 -3 0
57 1 -169 0
-17 133 -21 0
126 -93 60 0
-178 -108 130 0
-107 -40 -105 0
-44 170 -60 0
-130 17 -91 0
-195 160 75 0
-146 103 -81 0
-106 138 93 0
126 -197 -95 0
-162 -128 92 0
190 102 36 0
14 -75 131 0
35 -125 -160 0
-87 -193 144 0
-2 196 43 0
-167 182 -38 0
128 -28 -127 0
-54 -173 -134 0
-90 -91 170 0
122 1 189 0
54 174 -79 0
135 -82 -72 0
168 21 -154 0
83 128 12 0
161 151 -164 0
-108 146 130 0
34 196 49 0
9 -85 129 0
-11 69 3 0
-63 -95 -58 0
-123 -29 -116 0
-104 8 -114 0
48 11 137 0
-165 82 61 0
-154 -175 158 0
91 182 195 0
171 138 57 0
-66 200 -1 0
66 155 -4 0
94 -35 105 0
6 135 197 0
-94 -156 98 0
-107 156 -100 0
159 -75 -166 0
121 149 -85 0
-146 -8 -29 0
81 75 23 0
-132 5 70 0
200 11 59 0
-6 -106 82 0
67 -110 -45 0
28 34 -99 0
-75 134 135 0
40 162 -71 0
-27 28 -138 0
-72 126 -93 0
161 -91 18 0
115 -138 -33 0
33 -169 -200 0
47 156 -145 0
167 147 18 0
-30 155 -101 0
-11 144 -148 0
75 65 73 0
123 32 -174 0
104 107 -171 0
-129 163 70 0
200 -68 181 0
160 -151 -189 0
55 57 -30 0
74 -96 22 0
85 108 55 0
-38 -58 13 0
5 -113 59 0
101 81 102 0
-60 -77 116 0
50 -16 119 0
-47 166 -19 0
-10 -165 189 0
174 187 -35 0
-151 -154 187 0
-145 -176 41 0
-4 -9 -39 0
-32 -33 -112 0
140 194 -108 0
-176 -91 31 0
129 117 5 0
-136 -148 -97 0
-85 170 127 0
-149 82 67 0
54 -32 -131 0
-45 -174 159 0
116 71 58 0
-70 -91 79 0
54 -175 131 0
-38 -175 36 0
-39 -147 -14 0
-66 192 -95 0
-70 145 175 0
-104 127 -171 0
87 126 89 0
89 -123 -188 0
71 -185 -47 0
-155 104 134 0
59 185 -179 0
37 60 172 0
131 -125 191 0
31 164 -148 0
-182 -63 -197 0
156 -90 38 0
145 -44 189 0
-27 128 -60 0
-30 -161 -27 0
128 179 142 0
-147 109 107 0
84 -85 -97 0
186 -60 90 0
157 -134 -146 0
-96 -126 200 0
-48 135 -144 0
169 176 -112 0
-52 -10 -86 0
-68 -44 -122 0
-199 35 -139 0
133 -100 -160 0
80 -133 163 0
123 -24 -95 0
-180 -84 76 0
-129 86 191 0
-168 -121 -80 0
-67 -50 134 0
176 162 64 0
136 -140 -57 0
-100 -12 75 0
51 114 142 0
73 -56 100 0
-121 -9 35 0
-18 122 -113 0
-159 -157 -107 0
-184 -86 180 0
121 161 94 0
148 43 143 0
-188 -171 -3 0
-179 -158 11 0
-9 -83 -82 0
-169 14 137 0
-81 68 -64 0
74 120 -94 0
139 104 -127 0
-169 32 8 0
-84 -190 27 0
129 69 -133 0
164 18 75 0
-15 -55 4 0
162 -195 169 0
69 -52 194 0
46 195 -58 0
-62 -35 110 0
-83 133 51 0
155 90 -179 0
-174 -100 -135 0
-30 123 6 0
26 -145 -37 0
-54 -23 151 0
-61 -183 -96 0
-123 -127 64 0
-191 190 -154 0
90 -185 -129 0
119 3 -39 0
186 -97 96 0
-173 102 -52 0
72 -8 46 0
181 78 -188 0
-182 75 -3 0
89 86 -111 0
-31 -101 -24 0
-51 -80 191 0
180 -42 -195 0
-181 -51 -16 0
-184 -126 -185 0
200 66 -194 0
-167 14 179 0
142 78 -125 0
60 54 -65 0
-183 -14 176 0
-121 30 146 0
172 116 148 0
-175 20 -166 0
-117 4 180 0
11 -45 43 0
-111 -35 -23 0
-100 194 -62 0
-14 -70 -181 0
-28 -125 55 0
-166 -116 -118 0
111 43 -23 0
-81 -171 -174 0
32 -198 -94 0
-113 -11 -45 0
-7 -127 123 0
99 141 -118 0
148 134 18 0
-126 -55 -6 0
-180 81 -131 0
-153 -188 151 0
-139 -182 -27 0
138 150 -20 0
120 -126 -168 0
8 -180 -173 0
-112 -123 -72 0
-155 -170 82 0
95 12 73 0
-43 61 -152 0
-57 129 61 0
30 -161 -105 0
43 10 127 0
174 -55 107 0
-9 51 -59 0
53 178 -113 0
-174 -37 101 0
-93 197 129 0
135 -44 137 0
-68 191 -159 0
-116 133 14 0
125 -38 -24 0
-137 41 55 0
-4 -35 -32 0
-165 140 -185 0
-34 176 25 0
-168 14 124 0
116 -7 2 0
-50 186 11 0
-8 183 -171 0
-65 60 67 0
100 34 -157 0
-7 -24 46 0
56 113 144 0
2 -84 1 0
187 158 -16 0
-7 -11 66 0
36 30 43 0
166 -138 88 0
-176 92 -113 0
183 -184 123 0
101 28 104 0
104 -66 162 0
-102 -73 -59 0
60 83 -148 0
118 37 -180 0
55 18 -45 0
-196 6 141 0
-133 96 200 0
-143 109 -112 0
182 126 -37 0
139 188 87 0
-25 161 199 0
-183 119 -51 0
-1 147 55 0
-50 53 108 0
118 44 27 0
-126 82 -138 0
64 -137 -73 0
55 96 167 0
154 -156 -52 0
144 -187 116 0
127 101 -66 0
-97 116 -168 0
-11 31 -41 0
195 136 109 0
8 -113 9 0
-82 -157 -158 0
93 147 56 0
106 -17 194 0
-40 132 -164 0
126 27 173 0
143 -92 -164 0
-103 -122 -35 0
113 -102 5 0
54 200 122 0
200 -7 107 0
74 108 151 0
-112 48 -21 0
-110 138 164 0
-35 -117 200 0
45 -40 108 0
129 102 200 0
101 72 7 0
-107 -38 -46 0
12 -163 166 0
-89 -160 14 0
4 -135 133 0
-155 30 -85 0
146 -156 6 0
-123 -74 -36 0
106 -33 -154 0
-71 -67 -194 0
-3 -35 10 0
116 135 -114 0
64 40 95 0
66 -185 -92 0
-177 79 -148 0
-24 -158 -122 0
6 140 121 0
-104 -115 -51 0
-87 128 -23 0
-112 -25 118 0
183 190 2 0
-27 -124 -133 0
-176 56 -97 0
112 174 -173 0
-162 -177 -187 0
104 189 -194 0
185 79 -157 0
-161 -127 190 0
42 -117 108 0
148 -43 112 0
-102 67 -110 0
-140 75 -95 0
32 183 102 0
-177 24 164 0
-7 96 -84 0
-19 180 -61 0
-95 168 189 0
-67 26 -182 0
-94 85 56 0
-67 -127 -53 0
17 -20 154 0
19 -83 96 0
171 183 -50 0
-21 148 -183 0
49 196 32 0
176 93 -30 0
59 -18 -152 0
91 -9 5 0
-120 25 -175 0
5 146 94 0
-189 112 -162 0
-139 -136 95 0
-174 -82 -96 0
199 172 -21 0
-134 106 195 0
-63 -175 128 0
-133 -105 -182 0
-172 -114 191 0
3 -99 -21 0
106 149 126 0
-56 -50 -162 0
130 74 65 0
-154 53 63 0
-67 -95 -18 0
126 -39 6 0
105 154 -70 0
-133 -69 192 0
80 99 -35 0
-47 170 -127 0
50 51 133 0
-78 16 -42 0
19 -162 -29 0
137 53 102 0
2 156 126 0
153 -24 -49 0
-160 -98 191 0
56 97 157 0
33 75 -83 0
-139 54 132 0
-39 -134 83 0
89 164 -24 0
13 -180 -5 0
173 59 153 0
-135 -191 -32 0
-18 -86 -23 0
-12 189 24 0
86 7 123 0
21 -167 -19 0
-18 -138 -186 0
-78 37 39 0
-182 -186 -185 0
-15 -74 -100 0
-95 -21 -25 0
-82 139 199 0
176 8 150 0
36 -63 -192 0
46 112 168 0
-115 135 150 0
133 138 -75 0
84 46 -20 0
62 -174 -51 0
-79 -86 -42 0
-195 9 198 0
47 142 175 0
49 179 130 0
23 193 -28 0
166 -48 142 0
-154 -38 -45 0
-31 -57 -149 0
36 -167 116 0
-44 -180 156 0
95 199 115 0
71 -132 -142 0
62 -156 -38 0
-41 -43 120 0
77 95 -172 0
-5 -12 -149 0
179 64 81 0
-135 4 -35 0
103 16 106 0
83 7 -131 0
-172 -129 56 0
81 -171 51 0
-67 70 185 0
-89 -106 20 0
131 -142 -101 0
128 187 162 0
-9 -184 -128 0
-126 159 183 0
-135 196 108 0
-132 -197 -156 0
-41 113 2 0
8 -58 117 0
-155 104 -46 0
-153 13 174 0
-167 49 25 0
-192 35 -97 0
-163 -76 -79 0
-107 116 -71 0
147 7 78 0
-143 -182 100 0
138 -116 -95 0
-188 100 -87 0
-60 26 54 0
-195 179 -66 0
57 -53 -167 0
-95 -30 19 0
-136 37 -191 0
-194 -2 188 0
-128 -44 -11 0
161 -163 -42 0
94 -84 62 0
-40 110 -120 0
182 17 -186 0
-68 -172 166 0
-125 -3 36 0
2 78 -18 0
182 12 104 0
-115 191 -123 0
106 78 107 0
-129 -37 199 0
-22 -137 42 0
-15 -17 -146 0
20 -177 1 0
-107 -99 -87 0
-45 44 -10 0
131 -8 -193 0
-3 -92 30 0
184 190 34 0
84 -116 -152 0
180 -98 -31 0
-133 -11 -112 0
7 84 46 0
-170 16 173 0
197 18 -172 0
152 193 25 0
116 -76 142 0
-117 -16 31 0
-188 39 154 0
-160 125 133 0
-187 130 110 0
-130 -106 -189 0
-121 138 17 0
187 -145 -7 0
-26 -87 -6 0
109 33 -97 0
-164 111 -194 0
-10 -197 46 0
99 -183 -128 0
-107 55 67 0
-180 18 -13 0
179 -16 -118 0
74 200 -79 0
183 -162 51 0
-156 170 -183 0
10 -172 84 0
8 -94 11 0
-22 -79 7 0
94 -195 -199 0
-49 112 -144 0
181 -96 89 0
-80 -158 196 0
23 -45 -74 0
-59 64 -89 0
121 77 -29 0
87 -77 -41 0
138 -37 -20 0
115 -101 -191 0
-29 106 -195 0
120 -76 15 0
-198 9 -182 0
139 -16 -162 0
138 -154 -131 0
152 157 -170 0
1 -144 -186 0
-131 162 1 0
-18 91 -185 0
-24 153 86 0
146 2 -123 0
-42 -143 -57 0
177 -76 115 0
1 3 -24 0
-161 31 177 0
-178 77 167 0
195 57 185 0
11 77 149 0
58 100 50 0
69 185 -48 0
-143 134 -98 0
-158 -21 148 0
-60 44 135 0
-148 120 155 0
-154 -70 -44 0
146 178 -113 0
160 -102 -4 0
176 -107 102 0
68 195 170 0
36 47 82 0
83 197 -127 0
-104 173 78 0
148 22 53 0
198 85 78 0
-21 139 -151 0
45 -35 124 0
-24 42 60 0
90 -27 62 0
144 15 32 0
94 157 23 0
54 51 1 0
-133 65 -22 0
159 -25 12 0
-121 3 -18 0
-53 -27 125 0
-99 -91 -40 0
-152 -14 132 0
47 -125 -75 0
60 15 72 0
-123 -12 116 0
-2 116 -172 0
