p cnf 200 950
45 -58 61 0
-102 -15 22 0
-19 -40 200 0
-59 91 -25 0
49 -191 54 0
-7 -136 72 0
28 36 -122 0
118 -179 -144 0
141 147 -178 0
-84 -175 -161 0
-127 139 -40 0
-151 -85 31 0
-147 91 200 0
-8 74 -191 0
191 125 5 0
180 -26 48 0
190 -196 41 0
81 -139 38 0
-108 -20 143 0
135 -151 -103 0
-122 56 47 0
34 18 66 0
-115 -64 -109 0
-75 46 151 0
-194 -147 -72 0
-55 -65 -59 0
-21 112 -8 0
194 55 -187 0
166 -63 36 0
24 -96 -88 0
181 -3 77 0
173 -148 -191 0
-99 187 37 0
-121 134 97 0
194 125 -95 0
-100 -172 -48 0
-125 112 29 0
60 169 72 0
-170 -145 -8 0
188 39 169 0
-42 -1 -87 0
107 3 45 0
44 154 97 0
-116 44 142 0
80 -34 -164 0
184 -187 -65 0
146 38 -9 0
-159 -64 -166 0
-83 73 -86 0
100 94 -32 0
-17 -165 -167 0
-31 174 -128 0
36 65 145 0
-177 -116 -160 0
13 42 -91 0
-150 145 49 0
-52 -72 -177 0
-17 192 -123 0
176 -58 139 0
186 -141 -143 0
56 47 -147 0
115 46 -134 0
132 186 145 0
-148 -75 -194 0
-30 -136 110 0
-82 -28 97 0
195 144 132 0
-81 -10 -177 0
-131 -2 99 0
155 -35 107 0
-168 66 -48 0
-111 -29 58 0
-27 43 -90 0
-188 -200 130 0
140 -58 -40 0
110 107 -127 0
-58 -78 -144 0
-49 137 79 0
84 -164 -49 0
136 -142 46 0
196 -168 -180 0
123 -27 151 0
131 -30 35 0
13 -189 -101 0
152 -46 44 0
100 3 122 0
-136 74 -63 0
-59 132 -197 0
116 16 -112 0
149 -103 95 0
-184 -185 25 0
186 -39 132 0
-83 -187 130 0
167 23 -61 0
55 -59 120 0
-110 -176 126 0
199 102 45 0
-82 -56 64 0
197 64 -59 0
-6 -142 14 0
-37 180 -179 0
164 191 152 0
111 74 150 0
-152 -196 174 0
-16 4 -9 0
120 84 -19 0
-121 -99 167 0
6 61 94 0
13 180 44 0
41 -62 -134 0
57 -70 -53 0
104 90 -140 0
4 -96 -170 0
175 -65 152 0
-113 147 143 0
128 40 -86 0
-6 35 185 0
-138 5 -151 0
104 33 173 0
23 191 164 0
95 -27 94 0
78 37 -65 0
49 162 107 0
156 -12 -176 0
177 -176 1 0
-125 148 144 0
-67 109 180 0
135 -196 106 0
190 148 -28 0
-70 -129 196 0
-48 128 73 0
111 -95 31 0
33 68 -17 0
137 -155 11 0
-77 115 -58 0
171 -151 -142 0
94 15 -50 0
19 -186 -95 0
-163 -104 186 0
28 -104 89 0
142 -41 -183 0
24 -157 52 0
40 -8 -55 0
34 -110 -188 0
130 68 169 0
-43 191 -195 0
153 148 125 0
-65 -111 -116 0
-75 -22 -3 0
193 -182 -2 0
-108 54 90 0
-9 -108 102 0
-195 -103 64 0
-83 -23 5 0
141 -82 64 0
-54 135 199 0
-20 -102 -38 0
155 -156 161 0
30 -115 99 0
141 56 191 0
-67 8 62 0
34 196 -131 0
-133 50 72 0
-185 -111 68 0
-160 -50 -65 0
-49 -22 196 0
167 179 -37 0
-86 -177 143 0
-74 -3 -12 0
-174 -72 -60 0
-106 99 -169 0
-160 -135 -83 0
-162 -175 -31 0
-180 26 46 0
-75 -192 -73 0
58 148 -14 0
-78 -29 121 0
24 -1 -55 0
55 -31 168 0
-48 144 106 0
-116 -105 -111 0
79 172 54 0
-190 -88 168 0
-182 96 -6 0
181 -72 -180 0
-193 90 -11 0
-113 -32 -85 0
84 2 -124 0
-25 -73 -72 0
-193 76 -46 0
14 177 -25 0
-179 -24 -176 0
34 -151 -125 0
-19 37 124 0
-141 -59 -184 0
-86 -87 -148 0
94 -1 -43 0
16 2 -91 0
107 118 -166 0
-140 146 91 0
-169 -3 -47 0
181 -1 -111 0
-83 86 165 0
-4 125 -62 0
101 -155 -49 0
176 164 -87 0
-61 -138 17 0
-124 -100 184 0
41 155 183 0
130 -115 150 0
-156 120 -146 0
-131 189 75 0
55 140 -174 0
25 160 122 0
181 -89 44 0
3 -169 -128 0
-184 78 40 0
37 170 36 0
95 -86 158 0
-200 32 167 0
183 35 178 0
-17 3 -175 0
41 175 116 0
27 49 -158 0
-176 25 -45 0
-16 -156 162 0
-44 -7 165 0
-30 -24 195 0
-157 41 181 0
-148 -117 -18 0
-186 178 86 0
141 145 10 0
168 -45 -6 0
-65 -176 -87 0
-180 66 68 0
41 189 63 0
137 -178 -23 0
86 -121 182 0
198 -155 -10 0
76 -110 -96 0
-141 108 124 0
-115 130 22 0
186 -99 155 0
-150 80 -116 0
-91 -96 57 0
74 118 101 0
35 -168 199 0
108 -90 -20 0
94 158 7 0
-171 -168 86 0
109 6 43 0
102 130 28 0
163 -143 -111 0
-3 157 -158 0
-133 168 -13 0
-61 -13 9 0
-72 -124 188 0
-80 -99 149 0
-114 50 163 0
-25 -65 133 0
-172 -155 -87 0
-109 -81 78 0
23 134 -1 0
-120 -160 153 0
-118 86 -53 0
-72 95 53 0
-99 14 -113 0
-188 -18 -199 0
5 192 -195 0
-84 9 -115 0
-24 -94 139 0
-175 132 -103 0
-150 164 194 0
-56 -92 -192 0
11 -40 171 0
-175 -98 -183 0
192 14 42 0
-69 74 -167 0
-3 -185 -11 0
-199 35 8 0
-75 -62 111 0
25 119 -83 0
163 -80 -48 0
11 185 4 0
69 33 -170 0
-13 -140 20 0
-130 149 -15 0
-103 -48 47 0
-153 -156 -152 0
-182 -90 -143 0
97 154 177 0
-137 -168 114 0
129 -170 -98 0
180 91 -178 0
199 65 -46 0
133 17 103 0
13 -126 -127 0
111 25 44 0
142 193 52 0
163 -72 -21 0
-64 24 2 0
-26 -48 -177 0
43 -159 -113 0
164 13 5 0
164 -72 140 0
152 3 1 0
5 103 139 0
121 -133 148 0
111 -147 -192 0
95 -42 -91 0
-41 173 184 0
-84 168 39 0
92 141 75 0
108 -75 195 0
-23 -81 66 0
50 20 5 0
-139 -191 -83 0
-96 122 146 0
172 -110 11 0
-78 52 -104 0
94 170 47 0
51 -81 -200 0
-14 -29 39 0
70 -114 -99 0
-14 -118 -177 0
36 -67 21 0
-124 98 -65 0
28 34 -96 0
-78 -70 37 0
66 36 -80 0
-137 -168 -52 0
60 106 -94 0
-170 83 -42 0
5 -182 -114 0
-108 -72 112 0
-157 -116 -134 0
190 1 58 0
-8 62 -10 0
-64 -183 -142 0
184 -76 -117 0
152 47 94 0
101 -23 47 0
87 81 166 0
-200 72 -32 0
66 -115 31 0
185 119 195 0
-141 107 -38 0
-112 -127 -75 0
38 169 31 0
90 -74 77 0
31 -56 -169 0
155 77 -62 0
24 -90 20 0
-57 31 151 0
-163 -81 -185 0
2 25 100 0
-2 119 -32 0
152 51 163 0
87 -66 134 0
-92 -172 -100 0
41 38 -23 0
-80 160 -100 0
27 -104 186 0
-128 17 132 0
176 -3 -135 0
192 156 -178 0
171 -125 62 0
-155 186 194 0
43 -183 199 0
40 159 -96 0
22 -30 -148 0
198 -118 103 0
119 61 -165 0
181 90 -128 0
-31 -5 -55 0
-194 -126 -163 0
87 9 -34 0
184 183 156 0
131 64 -63 0
173 -109 -129 0
16 31 -184 0
-70 -66 149 0
-65 38 194 0
-85 6 -106 0
138 -16 43 0
19 113 -54 0
108 -2 112 0
-130 156 134 0
120 -142 47 0
-138 40 -82 0
-76 78 -3 0
13 112 -8 0
161 -10 -184 0
146 129 92 0
84 -125 -154 0
-89 37 10 0
163 194 122 0
92 -138 -69 0
31 151 -90 0
124 128 -183 0
-183 -114 -93 0
-54 24 185 0
191 -18 27 0
98 25 31 0
-92 -200 -46 0
93 -15 -116 0
-44 -185 -96 0
13 139 -192 0
-80 -29 -148 0
-44 101 -43 0
100 -59 44 0
-62 170 173 0
180 45 -178 0
194 176 68 0
-78 199 114 0
87 179 147 0
81 59 62 0
-44 -123 -155 0
-125 -199 157 0
71 14 -184 0
-188 -168 -88 0
-137 -120 -127 0
-134 194 10 0
-28 192 13 0
143 67 -179 0
72 -96 -100 0
89 -107 -170 0
114 135 64 0
-193 -97 67 0
-164 78 170 0
76 -174 182 0
110 -55 131 0
-78 38 13 0
90 110 196 0
191 -18 69 0
-3 61 46 0
158 -142 -20 0
-37 -128 69 0
120 87 154 0
89 31 -197 0
179 -135 -34 0
-48 34 -20 0
-114 2 3 0
-105 -36 28 0
28 79 166 0
36 -3 110 0
40 -117 119 0
-183 174 95 0
-162 62 -11 0
150 30 134 0
-75 -15 37 0
-196 -171 -122 0
-190 -195 -119 0
-24 -43 -108 0
-186 -94 -125 0
133 89 -184 0
-180 -192 157 0
-52 -21 90 0
94 151 -173 0
-130 166 111 0
-73 -190 18 0
-146 74 -183 0
-84 9 -155 0
-95 183 178 0
-82 127 -62 0
-152 129 -111 0
126 -180 -156 0
-24 -105 184 0
-125 -154 25 0
162 -137 29 0
71 -60 192 0
158 116 80 0
-82 -185 103 0
5 -131 179 0
38 109 18 0
-176 -177 -159 0
114 -32 33 0
10 107 149 0
-32 -139 -104 0
-159 -131 4 0
24 -93 102 0
-159 -90 77 0
-173 -43 -175 0
149 -169 -13 0
-80 76 66 0
67 196 27 0
-81 -52 -112 0
-43 -50 -41 0
-55 178 -15 0
52 150 -143 0
191 -95 -143 0
-25 27 4 0
-172 15 137 0
84 -27 134 0
-77 -15 -127 0
179 114 -158 0
19 26 195 0
-195 155 -139 0
51 186 -162 0
157 -149 200 0
94 32 100 0
-48 167 -19 0
-104 144 40 0
177 -9 -67 0
147 -46 -80 0
196 -26 30 0
-58 -199 -89 0
195 -158 -37 0
-160 181 105 0
-135 120 -123 0
114 -48 -55 0
42 -71 -73 0
14 -200 79 0
-34 100 -29 0
173 38 43 0
-96 -151 47 0
4 175 -21 0
183 108 137 0
165 62 193 0
-8 22 195 0
-190 -127 -136 0
50 -87 -98 0
118 94 -16 0
14 -97 -37 0
-179 34 39 0
43 -89 -115 0
-185 83 -169 0
-22 -31 86 0
-36 -165 106 0
-124 -178 -76 0
-102 171 -131 0
13 107 -3 0
33 -102 46 0
-199 73 -132 0
66 -9 -138 0
-65 130 146 0
146 34 25 0
-18 -120 -82 0
-5 -17 -67 0
115 -190 -188 0
144 -104 86 0
172 8 -188 0
-173 52 -172 0
-50 -75 23 0
-121 8 122 0
73 157 134 0
-164 198 -185 0
-45 -58 -88 0
-200 116 103 0
-197 -144 -185 0
21 -7 167 0
-26 121 -133 0
-22 -165 109 0
139 -36 -160 0
-183 -9 195 0
-62 11 -73 0
-162 141 -88 0
127 103 -184 0
1 -64 -81 0
-94 123 32 0
-124 103 -197 0
-103 -172 -4 0
28 -61 -72 0
-28 177 -123 0
-93 151 -136 0
30 -173 144 0
-136 157 110 0
108 94 78 0
-168 -63 -144 0
-43 -134 35 0
-59 -75 -40 0
101 29 180 0
15 2 -189 0
96 16 -22 0
-54 61 -169 0
143 199 -76 0
137 -14 106 0
195 75 136 0
146 15 138 0
99 -49 -114 0
-56 -67 155 0
123 8 -49 0
-119 -134 -89 0
102 141 -57 0
37 -160 119 0
-34 40 41 0
29 -45 -53 0
19 -138 18 0
92 117 -19 0
-172 105 133 0
122 191 54 0
-43 135 131 0
-69 45 58 0
-80 -180 130 0
117 17 150 0
185 107 -31 0
186 168 -90 0
-90 64 20 0
-76 -48 -182 0
4 -80 171 0
127 -2 13 0
168 -125 127 0
41 -66 -121 0
-25 -90 82 0
-182 -138 -139 0
35 -5 -182 0
-186 -55 59 0
-116 -59 -82 0
188 -117 -51 0
-164 -185 -61 0
-24 116 -107 0
-55 99 -52 0
-34 -13 -60 0
18 -193 74 0
-44 183 -18 0
31 158 -53 0
15 -130 124 0
-29 -189 195 0
56 -193 141 0
-178 125 82 0
185 -139 30 0
-45 62 -174 0
159 -39 -189 0
-21 -85 59 0
8 -33 137 0
127 89 -34 0
-62 -92 -192 0
-172 -142 160 0
-193 40 -30 0
102 -82 7 0
-145 106 -153 0
78 -149 -191 0
-160 152 76 0
120 -93 110 0
96 -150 4 0
-156 178 -194 0
-185 -15 -179 0
172 156 44 0
-160 -136 -177 0
-101 108 96 0
105 62 68 0
43 186 -8 0
-25 -19 -152 0
51 -61 32 0
-186 93 146 0
25 -5 154 0
121 -109 -124 0
101 -171 27 0
76 -17 97 0
75 -135 -183 0
97 -87 -33 0
-14 193 -143 0
-176 -124 -137 0
134 102 -186 0
-176 32 11 0
69 105 -90 0
64 135 28 0
69 -114 23 0
-42 173 69 0
-104 93 119 0
183 182 56 0
117 148 132 0
-44 -104 98 0
-61 -53 -6 0
-13 -34 113 0
22 38 -27 0
194 -134 -191 0
124 75 34 0
-48 16 -78 0
-71 -173 -16 0
138 53 -193 0
-15 -127 67 0
102 -76 103 0
-186 -123 175 0
-101 -195 184 0
-182 174 181 0
-173 153 191 0
-98 160 60 0
36 -121 186 0
-191 67 197 0
96 77 -113 0
-91 75 -139 0
-5 -170 -136 0
-112 152 -144 0
-119 44 187 0
101 -144 -182 0
-26 29 134 0
-73 74 -80 0
52 -38 116 0
-191 37 -38 0
-95 181 -155 0
-49 197 -162 0
13 -132 18 0
26 16 -145 0
-38 -147 -172 0
-11 -60 -4 0
191 -7 50 0
73 34 -68 0
-15 -64 -43 0
186 -74 -79 0
137 -147 -166 0
17 39 173 0
-136 179 -126 0
170 156 83 0
187 -26 -101 0
21 -61 170 0
161 -177 72 0
194 52 -187 0
178 93 104 0
181 100 31 0
-200 159 -129 0
189 -81 19 0
185 57 96 0
-16 81 -33 0
162 -182 30 0
-199 -9 116 0
-90 115 109 0
199 70 -162 0
-176 -191 104 0
121 -43 -161 0
152 -105 138 0
-165 167 -154 0
128 17 -78 0
-176 -23 -168 0
-71 160 -134 0
-52 -62 134 0
67 -157 89 0
-88 -132 -1 0
192 19 -142 0
-56 170 -35 0
-198 -22 -52 0
-75 65 189 0
34 -190 -116 0
20 -186 76 0
43 -9 121 0
-105 134 103 0
-72 -90 59 0
104 -71 -64 0
47 181 57 0
-104 -174 31 0
163 160 -44 0
109 -124 73 0
87 181 103 0
54 62 79 0
-185 -43 -82 0
118 14 -130 0
-143 156 -16 0
178 -158 114 0
-104 -198 -31 0
22 -192 189 0
-131 122 -149 0
163 -144 -127 0
-66 -44 70 0
145 -86 110 0
183 -64 172 0
178 82 72 0
-199 -46 -180 0
-197 52 -176 0
4 -147 46 0
190 76 35 0
80 196 -60 0
138 71 -130 0
156 110 147 0
-65 44 -69 0
191 127 -169 0
-134 123 178 0
-79 22 189 0
-145 -198 27 0
151 183 7 0
68 -119 -160 0
82 86 -29 0
41 -100 -12 0
165 170 -188 0
-97 -135 -185 0
100 -166 -84 0
193 154 -11 0
125 99 120 0
-64 -171 33 0
-139 -172 -181 0
-131 198 -93 0
-95 77 133 0
100 46 -168 0
-148 -41 -183 0
44 17 19 0
28 -126 175 0
-171 -13 -21 0
120 -81 -156 0
198 51 -166 0
-88 -173 -111 0
94 -83 150 0
-96 41 118 0
-68 -33 -39 0
116 -155 -30 0
94 85 116 0
-131 121 58 0
166 19 -89 0
184 -113 169 0
-22 31 124 0
-98 25 -126 0
-117 -11 183 0
51 -157 -156 0
14 -25 -148 0
189 -157 176 0
-169 -14 2 0
149 -23 161 0
88 -125 -162 0
131 -170 194 0
-123 13 -58 0
74 -25 27 0
70 92 60 0
-97 25 -199 0
-143 186 70 0
-17 50 193 0
80 200 -8 0
-175 67 -159 0
200 67 -55 0
-149 -11 62 0
20 192 90 0
-19 172 15 0
8 81 88 0
61 49 125 0
47 60 -36 0
-156 19 138 0
-73 50 -185 0
71 -51 -13 0
30 -162 165 0
167 85 162 0
105 73 -26 0
132 -136 69 0
151 -101 118 0
169 -60 -162 0
57 -75 15 0
177 -138 144 0
-75 -9 164 0
-149 48 -168 0
-135 120 87 0
174 -194 -52 0
-102 189 -186 0
57 -83 -154 0
138 198 -40 0
-92 -35 -131 0
-15 -104 -26 0
17 118 68 0
-110 195 -156 0
113 31 86 0
-84 -25 163 0
-116 59 125 0
196 -191 -159 0
2 -163 124 0
173 -171 -198 0
63 -185 -174 0
86 -90 -191 0
-85 -14 126 0
-39 126 136 0
-63 94 183 0
150 -121 -45 0
-97 -92 -126 0
-63 -47 -57 0
-9 -26 -51 0
-174 -176 -18 0
-137 99 -153 0
180 -37 75 0
-41 -84 -29 0
-128 -59 -162 0
146 151 -107 0
16 56 104 0
189 49 60 0
19 194 192 0
81 -57 -47 0
-151 -63 -49 0
81 -117 37 0
127 85 -21 0
-200 -142 -123 0
-101 -160 159 0
-24 59 -134 0
91 -60 8 0
25 -24 181 0
-54 -52 -71 0
-42 -27 -35 0
-106 -194 -45 0
132 -32 -84 0
-123 107 113 0
-67 -99 -160 0
53 -155 -140 0
76 -31 -43 0
98 -35 -63 0
4 118 8 0
55 175 -178 0
-3 154 -5 0
-96 -81 -15 0
54 -5 -131 0
-149 -60 -174 0
-132 -26 -82 0
-143 -78 -164 0
125 109 -73 0
-84 -181 31 0
182 44 -175 0
158 -80 86 0
-53 -4 113 0
164 11 -12 0
-162 -124 85 0
-97 -105 77 0
-140 65 99 0
199 -52 -67 0
57 -177 148 0
-70 -119 69 0
-4 -116 -31 0
-98 -190 -38 0
58 76 98 0
8 158 122 0
123 107 -3 0
-21 -146 -124 0
-56 -53 -7 0
117 -114 93 0
65 -123 60 0
14 3 -34 0
-9 -158 128 0
-164 131 -170 0
36 -193 154 0
162 153 -143 0
66 -121 156 0
-128 -31 -54 0
-115 -166 42 0
105 49 -172 0
197 -151 104 0
44 137 55 0
-121 -114 -128 0
-58 87 -61 0
73 -180 165 0
-139 55 59 0
171 -122 -65 0
174 124 185 0
-143 -157 -195 0
-157 47 190 0
-135 50 8 0
-115 170 143 0
-53 -16 -21 0
-44 -182 -197 0
115 6 -103 0
-168 -176 -111 0
-188 47 21 0
159 51 89 0
-71 26 -138 0
78 -170 -50 0
-58 78 146 0
-175 -31 -168 0
-127 77 -89 0
119 -19 41 0
-31 -198 7 0
165 -63 -6 0
