p cnf 100 290
-24 44 62 0
20 10 -53 0
-40 79 82 0
3 49 67 0
-26 -95 32 0
44 -5 22 0
-40 -63 -61 0
-17 -81 -76 0
-94 -54 -8 0
75 11 71 0
-48 -46 92 0
-75 -5 -46 0
-70 36 -95 0
36 10 -97 0
-28 -13 47 0
-94 56 91 0
38 30 -22 0
-62 35 44 0
-33 -37 9 0
60 100 -3 0
81 46 -13 0
38 79 12 0
-10 -79 -22 0
49 78 54 0
-62 65 56 0
-13 98 -67 0
-30 95 -79 0
-21 -1 84 0
-86 -58 -34 0
11 17 46 0
-55 -99 17 0
-57 -44 51 0
-79 -83 -34 0
-68 32 -45 0
87 -51 75 0
88 -72 50 0
-66 -10 -87 0
-27 35 49 0
34 -73 -69 0
-9 -54 -58 0
-70 90 26 0
-49 71 98 0
-33 -72 39 0
35 10 -50 0
84 -16 -100 0
-41 20 74 0
20 -45 10 0
78 30 -13 0
65 88 -28 0
-77 -99 -70 0
82 29 -31 0
-27 -92 58 0
-57 1 53 0
74 100 2 0
26 -75 -90 0
100 -64 51 0
-61 -71 -73 0
28 -50 52 0
22 89 76 0
-58 35 54 0
-56 30 -48 0
58 -77 41 0
-80 -51 21 0
47 81 -82 0
-10 59 -97 0
95 -49 -100 0
-94 -84 38 0
-87 -65 43 0
-14 -1 97 0
46 -57 83 0
73 94 68 0
4 -62 -87 0
-53 73 48 0
-87 90 -65 0
58 -69 83 0
-43 28 35 0
-7 -3 -40 0
71 48 -100 0
-37 -24 53 0
60 63 83 0
-71 -15 -40 0
30 -1 -85 0
20 46 -43 0
77 30 1 0
96 15 27 0
-86 65 5 0
90 -36 -70 0
47 -40 4 0
89 -32 -77 0
24 99 -62 0
39 98 -68 0
-32 -34 -70 0
-41 -63 -51 0
-35 22 -15 0
68 62 42 0
-20 -22 92 0
-73 55 -10 0
61 38 -48 0
100 -29 39 0
68 15 66 0
92 -19 -95 0
47 -48 -95 0
39 2 70 0
28 69 70 0
92 -60 87 0
95 4 -35 0
-57 -93 34 0
39 -8 -67 0
57 -62 -68 0
-43 -22 51 0
-73 15 -36 0
99 -52 -93 0
61 -36 96 0
9 -77 28 0
29 -73 -65 0
48 10 93 0
99 47 33 0
-43 -87 -5 0
-60 41 79 0
-8 91 -6 0
21 -99 50 0
2 -6 -92 0
-60 -12 27 0
55 -31 -42 0
61 -27 66 0
53 -10 -98 0
-65 24 87 0
-52 -41 85 0
-83 80 -14 0
28 34 83 0
-29 -32 -30 0
64 -20 -99 0
-13 -87 28 0
91 26 96 0
-54 23 -2 0
-18 -93 -99 0
-95 97 29 0
-23 46 38 0
-11 -16 74 0
8 92 -56 0
15 -1 -24 0
3 58 -82 0
-88 74 -23 0
39 38 58 0
78 46 -41 0
79 53 -37 0
-76 29 79 0
75 92 -72 0
-88 71 -83 0
-81 94 13 0
-17 -80 14 0
-30 53 -41 0
88 -63 26 0
-43 -17 72 0
-11 -34 45 0
28 66 -10 0
78 -44 -89 0
28 -67 29 0
54 4 83 0
52 89 31 0
5 -21 -68 0
-66 92 70 0
-43 21 75 0
42 -49 -14 0
-66 6 32 0
-72 -33 18 0
-37 -24 99 0
-38 77 81 0
-9 85 -52 0
-11 -20 -7 0
-60 42 -73 0
63 -36 16 0
18 58 12 0
100 -56 60 0
98 74 89 0
-19 46 2 0
-37 27 -15 0
-3 73 37 0
-26 90 46 0
-42 -29 -96 0
52 13 -3 0
-66 -6 84 0
-29 45 38 0
44 -100 4 0
-20 18 100 0
-38 -39 -94 0
36 45 -9 0
-5 66 -64 0
-33 -36 -93 0
-8 -56 -42 0
-13 10 65 0
-92 52 -87 0
-76 95 -3 0
74 75 21 0
-68 13 60 0
-49 43 -51 0
-18 -59 -23 0
-59 2 -24 0
68 -59 -75 0
88 -19 -94 0
92 79 60 0
-13 -68 -46 0
-14 67 15 0
-30 -18 -40 0
95 42 -91 0
61 -85 76 0
38 -50 79 0
94 22 -64 0
84 -57 81 0
-4 6 -69 0
-16 17 92 0
17 71 52 0
-88 30 -53 0
-35 22 -90 0
-62 96 30 0
3 97 73 0
-14 100 -81 0
9 -46 100 0
56 17 7 0
-100 -53 -16 0
8 -3 69 0
-9 -75 -69 0
70 66 5 0
71 -74 -72 0
-92 59 78 0
53 80 86 0
59 -72 48 0
65 -44 -64 0
-44 99 -29 0
82 -36 32 0
-48 -2 -7 0
-94 -96 -84 0
-92 -7 -43 0
46 74 -13 0
92 -54 -68 0
72 19 48 0
72 49 35 0
98 20 -16 0
38 -26 5 0
39 -60 27 0
-52 79 15 0
94 37 -38 0
90 20 30 0
8 96 -7 0
-100 -12 82 0
41 -15 10 0
93 88 1 0
-88 6 -62 0
56 84 91 0
-18 2 20 0
-60 -35 37 0
77 83 -33 0
62 -34 -94 0
90 -65 75 0
78 -41 8 0
-31 -42 46 0
71 76 59 0
-78 -90 -58 0
-65 -56 -92 0
22 32 -4 0
-48 62 -84 0
-34 49 -52 0
16 66 1 0
95 -65 3 0
65 8 -56 0
51 -94 1 0
-3 36 -7 0
-41 94 -63 0
-100 89 -94 0
-37 -76 -62 0
-54 53 -23 0
91 -55 61 0
-93 73 45 0
1 35 -91 0
-69 84 52 0
48 75 17 0
22 67 -79 0
-61 44 -18 0
-38 -31 83 0
-28 29 -26 0
-19 -10 18 0
-92 -41 -51 0
-25 -94 56 0
-77 -63 -25 0
-56 16 9 0
-56 12 -51 0
-70 21 -60 0
93 80 69 0
40 71 35 0
91 -44 -58 0
