c Modularity-based k-CNF Generator (V2.0). J. Giraldez-Cru and J. Levy
c   value n = 1000
c   value m = 2900
c   value k = 3
c   value Q = 0.9
c   value c = 10
c   value seed = 52
p cnf 1000 2900
561 595 520 0
918 -995 -957 0
-415 -463 478 0
209 -295 277 0
571 502 -526 0
843 823 -835 0
92 -1 -16 0
-517 -529 552 0
629 691 -611 0
-893 -815 -825 0
212 -291 264 0
694 631 700 0
972 922 939 0
-955 -911 -931 0
-859 -822 821 0
165 -131 128 0
-239 -227 208 0
-201 -209 254 0
26 -51 -52 0
-231 271 -295 0
105 124 -175 0
979 941 922 0
466 497 403 0
458 425 -484 0
466 -436 407 0
-940 952 922 0
475 443 440 0
-680 -627 -608 0
-284 -267 281 0
55 96 16 0
-520 -555 594 0
345 369 -375 0
-491 440 -497 0
715 761 -767 0
-351 310 332 0
-722 737 -743 0
700 660 -681 0
-756 -737 706 0
-360 -372 -393 0
-333 -323 -314 0
779 -701 757 0
-204 -232 -219 0
-945 950 -980 0
169 185 -131 0
-684 -634 -690 0
295 213 267 0
215 239 -271 0
-627 632 -667 0
264 -225 -282 0
802 877 801 0
436 461 -485 0
-279 228 220 0
-934 930 956 0
704 734 -709 0
-911 986 -945 0
-346 -354 356 0
892 833 -885 0
-515 -535 -505 0
-590 -535 -532 0
-335 331 324 0
986 -942 -925 0
81 -28 77 0
977 979 985 0
-570 527 572 0
-147 167 118 0
-281 217 293 0
-232 242 -267 0
-237 -289 -250 0
-502 -589 555 0
-40 7 -28 0
111 109 150 0
812 -861 -855 0
679 688 -658 0
-580 -534 536 0
712 735 739 0
-139 157 178 0
661 -629 627 0
-865 -821 -869 0
-637 602 665 0
-760 778 -731 0
881 859 845 0
316 309 -380 0
-698 -653 607 0
-315 393 -334 0
-211 224 -264 0
-862 -886 -846 0
256 -224 -291 0
366 315 355 0
-681 646 -611 0
-124 105 -114 0
828 872 -862 0
-783 -705 735 0
-968 -936 976 0
-469 -476 402 0
360 307 -370 0
443 -446 -449 0
640 635 -678 0
-775 -735 -782 0
634 -629 -602 0
-788 729 -765 0
-389 -301 -310 0
207 -252 220 0
-827 846 -893 0
-871 883 -885 0
-351 389 -372 0
-661 644 -626 0
-381 318 336 0
-658 -648 630 0
440 -456 452 0
-250 -254 -245 0
940 -989 -998 0
447 -424 -488 0
23 -4 70 0
-696 -616 697 0
-451 416 -452 0
-815 -804 805 0
-114 151 -130 0
226 -209 288 0
340 -336 339 0
-536 -504 513 0
-158 -134 147 0
-646 627 -642 0
-783 715 740 0
-852 842 890 0
473 -479 -442 0
939 999 995 0
127 160 -115 0
53 70 99 0
888 -829 885 0
414 431 439 0
-193 -175 152 0
791 -724 -736 0
-517 -512 586 0
558 -536 506 0
176 -144 -162 0
-159 -174 -152 0
525 -541 -502 0
792 -767 753 0
-378 396 367 0
-703 -720 765 0
798 735 -771 0
-492 470 420 0
547 -520 -558 0
787 -740 -715 0
770 -716 713 0
43 91 -2 0
-929 905 984 0
-579 595 -585 0
-102 -145 -161 0
-409 497 436 0
-453 -444 402 0
184 160 122 0
571 -566 522 0
837 -885 863 0
304 374 330 0
-374 -324 -380 0
966 -914 946 0
77 -51 42 0
-707 721 706 0
474 -465 411 0
-745 -739 763 0
-547 552 -530 0
131 144 177 0
59 -53 -13 0
253 -207 -223 0
-650 631 -603 0
592 -556 555 0
53 85 -42 0
-573 600 535 0
-148 -131 -154 0
-829 809 827 0
881 841 856 0
863 -827 882 0
866 869 860 0
-33 -40 -67 0
-366 398 -349 0
729 777 -764 0
-444 499 422 0
-684 646 -628 0
-593 -527 536 0
-868 890 -810 0
405 404 -402 0
-139 134 149 0
115 149 142 0
-688 672 662 0
-138 -159 160 0
-478 -492 404 0
-808 896 -832 0
56 51 -35 0
378 -318 -353 0
521 -506 -578 0
-359 371 334 0
448 -486 452 0
611 -635 650 0
-605 674 -621 0
750 730 -782 0
-402 425 -464 0
775 706 -781 0
-929 944 938 0
-204 -242 -269 0
-455 -410 -439 0
68 29 -50 0
-637 654 673 0
-721 -726 -793 0
945 933 -914 0
-348 -385 -306 0
822 874 -850 0
-71 79 -30 0
-878 -808 -832 0
-920 922 -937 0
459 408 407 0
-871 823 -825 0
966 -949 963 0
16 -37 91 0
-870 -874 -868 0
-479 -472 -497 0
723 -726 -795 0
-36 51 23 0
-912 -977 -979 0
-391 341 332 0
692 602 -610 0
437 -490 478 0
-665 607 634 0
434 499 438 0
967 919 939 0
-482 439 485 0
922 957 973 0
-727 -719 -757 0
266 273 261 0
348 385 334 0
-944 903 911 0
955 -915 -938 0
-809 860 887 0
254 -260 213 0
568 -528 541 0
-724 -775 -762 0
54 -53 14 0
-513 -518 552 0
582 563 568 0
-510 522 -555 0
-323 -341 363 0
41 -38 47 0
-658 607 -651 0
-988 -935 -939 0
747 773 -750 0
97 75 -62 0
798 -726 -741 0
-961 -1000 929 0
328 -316 -360 0
-782 -718 724 0
-712 -718 -780 0
272 -210 257 0
257 283 -290 0
181 -109 194 0
-647 -636 635 0
-572 -591 535 0
-242 211 -232 0
-415 -445 -484 0
-948 979 -912 0
606 -669 -635 0
-954 -945 -965 0
382 311 -345 0
-759 710 -768 0
-243 208 279 0
-9 -78 72 0
-777 -787 774 0
-527 571 -532 0
466 -477 -421 0
-531 -590 506 0
-348 -332 355 0
315 306 374 0
361 315 362 0
829 -861 812 0
888 877 807 0
-792 -790 -799 0
-475 -496 -429 0
895 -830 835 0
495 446 -466 0
-494 -442 498 0
185 -182 178 0
-69 -33 42 0
668 665 645 0
805 842 -871 0
-75 -34 -67 0
-353 338 307 0
478 486 -477 0
-819 -876 813 0
-409 479 405 0
-910 967 972 0
998 -933 958 0
-810 880 -805 0
335 -396 302 0
-521 516 588 0
-996 -911 921 0
-570 -562 555 0
94 90 46 0
-944 912 -959 0
184 134 -169 0
-244 -206 290 0
-850 -878 851 0
939 991 943 0
-204 -286 272 0
703 -744 799 0
472 497 429 0
103 -135 139 0
-627 693 646 0
-376 368 304 0
-986 -973 -997 0
-484 412 420 0
415 -405 421 0
-502 -545 -582 0
750 718 -781 0
-694 -670 614 0
925 -935 -964 0
341 -356 360 0
974 997 -1000 0
153 112 -125 0
-974 961 932 0
777 -790 -721 0
-46 -61 -97 0
-537 526 511 0
-590 -570 563 0
606 645 -649 0
-800 -756 -749 0
508 559 518 0
450 425 497 0
252 -234 220 0
-185 104 -103 0
691 605 641 0
-629 -690 -642 0
170 136 183 0
467 488 -440 0
-534 -514 571 0
-752 789 732 0
-728 797 792 0
678 -648 629 0
-800 740 -763 0
-578 600 566 0
151 -102 -128 0
-555 525 -594 0
-981 -965 -926 0
465 -401 484 0
-112 144 -111 0
-589 555 577 0
291 256 276 0
533 524 -600 0
-130 -159 178 0
-262 -271 -235 0
458 -409 459 0
536 561 541 0
-563 -502 521 0
-96 23 -95 0
8 29 -60 0
-694 -699 -658 0
-572 -538 -556 0
793 717 770 0
835 -896 882 0
-753 -702 760 0
61 -6 -29 0
-116 -165 -140 0
-587 -548 -533 0
-942 -987 -946 0
-26 97 18 0
255 -212 -205 0
957 -975 -967 0
-508 -553 -562 0
-857 -838 828 0
-357 335 322 0
792 732 794 0
97 64 -2 0
-763 -709 -704 0
501 541 -550 0
130 171 -129 0
-112 166 198 0
195 177 104 0
-594 -585 -549 0
-879 -810 849 0
-295 235 -283 0
-774 -726 -718 0
481 -418 500 0
172 -173 -178 0
-263 220 249 0
-637 694 -629 0
-671 632 -661 0
-809 -830 -804 0
-438 -459 -452 0
806 -861 813 0
626 650 -606 0
225 263 -206 0
784 -775 731 0
9 -5 12 0
346 -302 -392 0
232 -255 -203 0
841 -870 -838 0
402 423 457 0
-604 -643 653 0
-883 -843 895 0
-628 691 -660 0
-903 946 -957 0
-698 668 -624 0
278 -218 -219 0
575 -530 548 0
-930 -902 -914 0
994 917 -972 0
626 619 -602 0
-788 -731 -785 0
799 793 -747 0
-742 744 710 0
-229 -270 257 0
-516 -588 -513 0
321 -364 -322 0
791 714 -780 0
610 626 -669 0
-248 250 238 0
941 -938 912 0
159 -112 171 0
-274 -291 -266 0
-615 -638 630 0
-406 456 490 0
85 25 12 0
-302 -362 -371 0
-754 -771 -722 0
-324 -349 -336 0
-652 -608 -684 0
400 -338 361 0
-471 -474 -440 0
-673 -636 -609 0
-918 1000 922 0
-415 466 475 0
621 606 666 0
871 856 -876 0
443 453 -470 0
-617 -606 674 0
-173 146 -151 0
-625 613 -602 0
460 471 -421 0
-659 647 683 0
-627 -628 682 0
68 17 -66 0
469 466 -490 0
178 -195 125 0
491 -416 -411 0
-321 314 376 0
255 238 224 0
-891 -819 816 0
-485 -450 -404 0
-82 2 37 0
528 503 -513 0
-907 963 -984 0
-26 88 58 0
-956 -991 -960 0
-474 -408 476 0
388 -311 315 0
413 -452 -477 0
299 -283 255 0
-675 -659 656 0
-846 -840 -801 0
227 -231 222 0
936 942 -922 0
-596 -562 -569 0
-861 822 -873 0
-441 -442 465 0
575 594 -518 0
-932 954 908 0
49 16 42 0
256 234 287 0
-508 -518 513 0
7 -79 59 0
-352 -301 -381 0
-434 -485 490 0
-630 -689 695 0
357 -326 339 0
285 203 -241 0
603 655 647 0
-900 -812 891 0
575 518 -600 0
-979 945 951 0
-504 -529 -593 0
-316 379 -326 0
694 662 -682 0
-120 -192 185 0
500 437 492 0
-902 930 -945 0
-312 307 -382 0
57 -23 -79 0
158 -127 -143 0
816 -810 900 0
-600 -507 -528 0
881 832 855 0
418 490 -473 0
448 -421 -408 0
787 724 -768 0
829 -866 -839 0
90 10 80 0
-760 723 774 0
691 685 -624 0
-450 463 447 0
77 -96 66 0
-105 125 -169 0
521 -584 -585 0
-405 -412 -497 0
-655 -669 691 0
317 332 -346 0
-88 -39 -54 0
10 11 -59 0
531 539 522 0
-226 -295 -261 0
-67 76 43 0
59 79 -56 0
-895 812 -858 0
-748 -709 708 0
345 341 -302 0
-266 -244 269 0
21 96 -26 0
-336 321 -322 0
-393 -337 305 0
-802 849 861 0
205 -251 -266 0
584 565 594 0
415 -409 492 0
-327 -398 377 0
-69 10 47 0
800 -724 -746 0
-510 564 -537 0
414 -411 450 0
416 -421 -483 0
938 986 999 0
641 635 -616 0
665 -686 -632 0
-418 -472 460 0
44 71 13 0
687 -609 650 0
799 759 753 0
259 -237 -208 0
-416 490 412 0
108 169 175 0
-525 -510 596 0
472 475 415 0
582 -519 507 0
-679 -693 -655 0
781 706 760 0
411 -499 473 0
498 461 -427 0
833 816 823 0
671 -628 -607 0
26 -55 -5 0
-475 -461 -450 0
-354 396 -303 0
-919 -975 -940 0
840 829 834 0
-470 -432 454 0
767 754 -715 0
-459 -497 -445 0
101 165 177 0
-156 173 168 0
986 950 -919 0
-441 483 430 0
-96 74 57 0
767 755 -726 0
-490 -425 409 0
-281 -250 -231 0
-469 452 -405 0
797 702 -757 0
105 190 200 0
966 941 -954 0
860 884 -866 0
-550 -548 567 0
-101 152 -153 0
32 -54 -73 0
-16 -92 12 0
-511 533 -507 0
-547 575 559 0
-125 165 142 0
-643 -644 -648 0
-219 278 258 0
480 410 -409 0
626 654 610 0
-985 -931 944 0
-586 571 511 0
-307 -321 309 0
-861 876 896 0
712 -750 -728 0
256 298 -246 0
67 1 63 0
509 -548 566 0
-579 -577 -598 0
-116 199 110 0
-827 874 870 0
-562 543 -559 0
-226 279 286 0
-394 -387 391 0
-370 392 313 0
280 -207 234 0
613 -615 696 0
-957 983 954 0
77 44 -39 0
264 -207 -269 0
184 175 113 0
237 -275 -241 0
-567 583 -562 0
370 335 348 0
-424 -480 -485 0
200 195 -183 0
518 580 -514 0
-540 -554 -586 0
-168 142 -133 0
454 -406 482 0
157 -120 -136 0
387 339 -368 0
-385 -318 -350 0
42 36 -86 0
-606 -690 691 0
-544 -534 -558 0
-614 -656 624 0
10 -97 60 0
-245 -218 -287 0
939 -987 -936 0
694 -682 628 0
-904 -980 -995 0
-531 578 524 0
-564 -563 -585 0
-139 -120 -131 0
683 -616 -604 0
142 -163 -125 0
-886 825 831 0
-646 -662 614 0
602 685 -681 0
994 976 931 0
147 159 -119 0
762 -792 742 0
241 -223 237 0
-373 368 -367 0
685 639 673 0
-532 511 -551 0
-655 -608 -645 0
924 -987 953 0
-365 -305 -399 0
604 -625 695 0
383 307 353 0
-328 -386 -334 0
872 -885 858 0
-67 -39 -47 0
223 -235 260 0
-686 -676 -663 0
-777 -762 757 0
-780 760 705 0
-903 936 926 0
287 -279 -241 0
-995 907 936 0
875 -892 -855 0
-204 -265 -285 0
604 691 657 0
-446 -411 -490 0
244 210 254 0
155 131 101 0
-579 -564 -527 0
202 241 -269 0
-166 141 143 0
849 -819 812 0
-134 -151 139 0
493 500 497 0
-475 498 -414 0
-115 -152 -171 0
-288 244 297 0
246 -231 -204 0
489 469 427 0
-771 -720 737 0
-372 -394 -352 0
-653 -603 -608 0
562 514 -549 0
-393 -304 357 0
-881 -837 -807 0
-545 -530 -535 0
741 756 793 0
149 196 146 0
3 70 -84 0
-710 796 783 0
-321 -398 -332 0
-547 -575 537 0
-785 -773 715 0
559 -526 -512 0
234 -207 254 0
-981 -978 -905 0
-500 -435 -444 0
552 581 -592 0
-351 324 -338 0
-254 -224 -278 0
-862 -850 -885 0
746 -748 703 0
354 349 390 0
-541 517 -558 0
160 -104 -120 0
-525 552 -585 0
98 -42 67 0
-13 -10 67 0
520 -575 -545 0
237 -273 -250 0
361 -371 325 0
-749 789 714 0
-812 -834 838 0
-650 -640 658 0
-513 -535 -593 0
-285 245 267 0
-220 -246 -283 0
413 -445 424 0
794 -737 -723 0
-471 432 -404 0
-622 693 -634 0
128 -150 -146 0
-658 -613 -632 0
-67 -5 58 0
-995 935 919 0
-583 592 -597 0
-196 111 -164 0
517 -508 577 0
63 24 -65 0
-526 -513 572 0
354 381 340 0
-805 806 892 0
263 -249 206 0
-81 95 40 0
-840 872 -833 0
600 -533 -530 0
635 -625 -647 0
-748 731 -753 0
-347 354 384 0
-164 -185 -126 0
387 -394 -365 0
-183 -118 -134 0
-53 -99 -17 0
416 -498 455 0
-839 -867 -842 0
125 -138 -106 0
151 -136 138 0
-539 -550 576 0
468 428 -463 0
-887 -900 -828 0
968 -932 -938 0
-459 485 494 0
438 -467 -422 0
580 -513 -535 0
-800 -722 -716 0
-746 753 -758 0
-529 -593 518 0
-276 -238 279 0
316 363 397 0
-776 -754 735 0
286 -204 260 0
-5 3 -70 0
-750 774 -776 0
-761 -795 767 0
-990 906 -952 0
652 -614 -700 0
544 -571 -551 0
63 -8 -24 0
-823 -834 814 0
292 263 -299 0
240 300 -258 0
-704 -743 703 0
950 -998 -1000 0
115 113 197 0
-20 -84 -15 0
758 -784 738 0
778 766 797 0
-300 -263 258 0
-107 -155 -143 0
-764 -773 -720 0
272 -232 258 0
446 -495 -488 0
127 -160 123 0
174 194 -139 0
697 685 681 0
-345 -379 -363 0
287 240 -211 0
308 371 383 0
-309 302 -310 0
243 -204 -227 0
365 330 370 0
514 -590 567 0
-719 714 789 0
-732 788 760 0
743 -774 731 0
563 547 511 0
896 -854 -808 0
-44 78 -40 0
-589 580 -519 0
-8 60 48 0
277 261 -298 0
-453 470 -411 0
941 910 915 0
365 344 304 0
-409 -444 -484 0
196 -187 131 0
455 -420 418 0
-882 -856 848 0
-157 -184 131 0
357 -388 -327 0
383 320 339 0
-711 -762 736 0
693 648 629 0
7 -43 -54 0
-762 773 711 0
-667 625 635 0
-918 997 -958 0
320 -349 382 0
-774 -760 786 0
-192 -177 -168 0
-548 510 538 0
-694 628 -671 0
442 -498 -401 0
446 471 -433 0
-290 252 -294 0
-555 570 514 0
579 -574 528 0
-474 -410 462 0
-166 -137 -139 0
675 663 -657 0
191 -149 193 0
-779 -791 797 0
615 623 -690 0
876 -867 900 0
342 -302 332 0
707 733 -797 0
339 366 -367 0
297 -265 -290 0
256 262 274 0
949 967 -1000 0
993 938 933 0
-520 -530 540 0
-614 -607 613 0
5 -28 97 0
629 -601 681 0
-880 850 -815 0
346 323 -371 0
-678 650 -628 0
-675 -682 -687 0
643 -692 603 0
-31 -89 -91 0
922 -933 -956 0
-702 727 740 0
-217 -280 253 0
-827 819 875 0
382 -307 327 0
-637 667 688 0
-977 -901 935 0
452 437 431 0
756 760 799 0
499 486 416 0
999 955 -908 0
-755 714 756 0
-106 -170 144 0
248 243 242 0
-309 334 346 0
42 58 78 0
-27 -55 -85 0
174 192 -145 0
488 487 -454 0
559 579 520 0
606 -608 642 0
-782 -792 775 0
805 -837 -855 0
438 415 -466 0
-351 -370 -330 0
-207 -214 231 0
440 483 424 0
242 215 277 0
-425 421 414 0
-88 21 75 0
170 107 -123 0
-275 209 228 0
-693 697 669 0
-602 -657 -691 0
268 -254 245 0
505 520 -556 0
-510 501 -583 0
197 111 160 0
-746 768 764 0
392 -368 335 0
502 560 -582 0
453 497 -496 0
-596 562 541 0
751 -759 734 0
501 533 522 0
441 -428 459 0
-460 442 455 0
71 -45 79 0
336 365 386 0
-343 -327 -322 0
529 551 -564 0
43 -11 -80 0
-121 -192 -114 0
-310 -381 331 0
595 -570 544 0
-470 -431 492 0
-920 945 962 0
604 -678 659 0
-680 608 -658 0
923 906 943 0
10 -48 12 0
676 -622 640 0
851 839 -883 0
-332 -315 304 0
170 -122 109 0
-718 702 724 0
-414 422 -454 0
362 353 348 0
-986 903 910 0
-584 503 533 0
434 408 -466 0
635 -659 -689 0
95 23 44 0
-717 -761 752 0
323 301 -316 0
-282 267 275 0
-419 -447 413 0
799 -771 -798 0
-920 933 903 0
102 -132 -193 0
-658 675 -648 0
-520 558 -573 0
-277 -265 -269 0
-108 140 174 0
754 -729 -711 0
394 -357 327 0
873 -895 835 0
-940 -991 929 0
652 -693 -653 0
256 -280 -272 0
802 -883 869 0
-912 -905 -946 0
-206 263 289 0
160 183 125 0
613 640 691 0
-23 -20 42 0
-30 -48 35 0
24 14 67 0
161 178 166 0
899 -809 852 0
650 -635 688 0
99 14 23 0
-923 922 959 0
-169 -133 -185 0
-388 348 383 0
652 -658 -603 0
-552 513 594 0
-292 256 237 0
512 -504 526 0
647 -653 664 0
-751 -781 -741 0
-992 959 939 0
-344 349 -396 0
11 -80 46 0
213 -258 -218 0
-745 -785 783 0
-940 -910 902 0
683 675 -621 0
17 -68 58 0
-968 937 956 0
-868 -824 858 0
394 -336 323 0
-633 617 -659 0
885 -876 872 0
-788 724 795 0
315 380 -389 0
-708 756 798 0
-861 811 -896 0
575 -568 542 0
-940 969 -995 0
284 -250 249 0
382 393 -373 0
-203 281 -228 0
-789 -712 -709 0
-634 -610 666 0
386 -366 315 0
-887 816 -830 0
375 368 338 0
-810 -802 -870 0
-267 -229 216 0
-663 612 -626 0
-772 -765 -704 0
-884 -824 864 0
9 -40 -78 0
-819 807 -892 0
696 -658 628 0
644 625 648 0
486 -492 421 0
869 -824 -853 0
915 -940 931 0
-669 614 -643 0
242 -207 263 0
999 -912 -994 0
150 -131 176 0
4 -39 -46 0
238 222 214 0
-551 -537 579 0
984 -986 -907 0
-576 -544 -517 0
1 -71 -72 0
-94 79 -31 0
-653 -629 -608 0
725 -769 -784 0
436 -487 -451 0
308 -369 -327 0
19 -25 -11 0
-903 -936 930 0
-816 -838 859 0
506 600 -576 0
-241 -277 -243 0
-350 390 -302 0
-921 902 993 0
-295 -249 283 0
-898 -870 -837 0
695 625 -605 0
-897 864 872 0
-295 292 274 0
-703 -721 771 0
324 394 335 0
-413 455 -494 0
-723 -796 704 0
-282 -275 246 0
630 -700 -608 0
977 -957 -920 0
-305 -371 -397 0
573 -504 -530 0
-409 -441 -452 0
-34 -46 97 0
913 -960 -949 0
-348 349 -370 0
-525 576 518 0
545 -546 -569 0
-325 -335 356 0
-726 713 795 0
245 -234 254 0
467 -493 405 0
-300 -213 290 0
-756 -761 735 0
-698 653 673 0
922 -930 945 0
-287 -261 -288 0
444 -407 -449 0
464 -448 -460 0
-697 -608 -629 0
567 -580 -588 0
-319 -361 -365 0
819 802 -889 0
-345 301 -400 0
-847 809 -849 0
17 6 -21 0
708 764 -767 0
-302 365 -314 0
994 988 -981 0
-474 -479 445 0
-394 323 384 0
996 -910 -985 0
524 -523 521 0
875 895 886 0
-165 134 -199 0
695 622 697 0
572 585 521 0
-800 -751 -739 0
-796 -760 793 0
313 343 348 0
-160 114 167 0
-934 -905 931 0
529 554 -580 0
-709 800 710 0
-528 546 -548 0
-301 384 356 0
190 -159 -195 0
-5 41 -77 0
-272 -215 276 0
235 -211 215 0
2 -72 6 0
220 -201 -226 0
59 -64 -11 0
183 -110 -112 0
-734 -782 715 0
-577 596 -546 0
958 -993 963 0
257 -283 -246 0
-898 893 825 0
-796 -743 759 0
-206 245 287 0
422 -449 -500 0
-91 77 35 0
980 -909 974 0
-283 -274 287 0
284 254 -227 0
132 199 -156 0
813 891 819 0
-909 -955 -987 0
-878 -875 -820 0
14 86 76 0
360 -383 397 0
-508 570 574 0
-692 -628 629 0
39 23 97 0
-756 -754 -792 0
694 -640 -642 0
37 -28 25 0
600 593 -535 0
-773 -717 787 0
-777 792 -800 0
769 733 773 0
-830 805 -850 0
292 -260 -253 0
370 -315 336 0
895 881 -855 0
-385 310 -325 0
444 -405 -467 0
577 598 -521 0
145 169 183 0
327 319 -398 0
488 409 455 0
-889 -879 -898 0
384 309 -370 0
-486 478 474 0
245 254 -271 0
206 -254 221 0
-695 643 -675 0
616 -689 -615 0
-380 349 314 0
-738 739 -776 0
-530 507 -549 0
-351 310 -339 0
-458 -417 407 0
-743 -799 758 0
363 -388 -312 0
-61 65 79 0
-674 670 -634 0
-119 -177 -131 0
947 919 968 0
337 347 -353 0
-468 -457 495 0
435 443 449 0
-76 -39 -100 0
-473 -479 494 0
-993 -902 -958 0
-512 549 553 0
-407 -435 403 0
687 688 659 0
41 63 91 0
-256 -264 -253 0
45 -93 -72 0
329 317 304 0
-198 140 -118 0
-134 -187 -179 0
-331 385 388 0
662 -629 -640 0
862 -859 873 0
328 314 381 0
-312 381 385 0
77 67 -20 0
-45 -38 -96 0
-72 -94 -91 0
-971 -925 -970 0
-34 -22 74 0
420 -477 -486 0
-918 -980 977 0
-687 686 -676 0
-938 957 915 0
-175 102 -196 0
-556 581 569 0
-374 301 323 0
332 380 -336 0
-874 847 -854 0
-923 990 -937 0
-808 -863 822 0
-17 -62 -91 0
437 -410 -495 0
151 142 152 0
-920 -911 948 0
-227 -299 252 0
672 674 -602 0
964 961 -942 0
-636 642 659 0
-130 -133 194 0
995 -952 -932 0
-794 720 -726 0
465 468 460 0
940 981 972 0
-568 520 528 0
179 -108 -186 0
907 918 944 0
871 883 831 0
817 -813 846 0
957 915 962 0
647 -696 -667 0
220 -253 -232 0
524 564 546 0
356 389 -336 0
667 602 -649 0
-730 -769 -792 0
-591 -538 543 0
268 -228 267 0
-443 -474 401 0
-154 195 -181 0
-17 7 -82 0
811 899 -839 0
986 -945 -979 0
-441 448 484 0
721 -702 724 0
-15 26 -35 0
567 516 -573 0
-443 -459 -483 0
-224 218 209 0
-513 547 545 0
-343 369 307 0
899 -832 -814 0
-79 -100 -46 0
-930 997 910 0
-823 840 847 0
244 248 239 0
544 583 564 0
-752 -748 -731 0
-261 247 -284 0
935 939 -946 0
-275 218 -242 0
86 -16 -48 0
595 520 538 0
937 961 -969 0
-653 680 -623 0
724 722 -776 0
-530 548 535 0
-935 -909 -934 0
-228 204 280 0
417 497 -494 0
-298 -215 248 0
-371 359 332 0
-361 -339 311 0
-945 944 997 0
739 -710 -731 0
608 -634 -643 0
868 -850 836 0
-639 -685 -646 0
-821 883 819 0
-729 -728 -761 0
940 -963 -919 0
117 -129 118 0
38 79 83 0
-269 264 229 0
-457 -487 467 0
-884 -856 -896 0
157 187 146 0
-877 844 889 0
-470 484 -433 0
-577 -572 571 0
756 -714 776 0
244 258 -248 0
231 248 -240 0
500 405 -419 0
-925 909 -933 0
141 138 136 0
-273 -266 -209 0
-901 943 997 0
301 383 334 0
-808 891 815 0
64 55 39 0
-351 -389 -301 0
-96 -10 -17 0
-856 -808 803 0
-937 904 943 0
553 -529 -586 0
-816 -830 813 0
728 -757 718 0
369 -375 -355 0
115 -192 -190 0
-449 405 -498 0
-593 595 -555 0
65 98 43 0
-320 -304 312 0
257 258 210 0
391 377 -385 0
331 -381 398 0
-224 -273 270 0
-430 -494 -452 0
-156 -144 -125 0
259 276 -290 0
735 -759 715 0
908 901 -970 0
-945 -980 -952 0
58 -95 -54 0
827 -817 814 0
-446 462 -487 0
-921 939 -914 0
873 -891 -850 0
-946 -909 -974 0
883 -858 -875 0
-701 -760 741 0
638 -665 -608 0
459 -496 436 0
716 796 780 0
401 -463 -433 0
-453 409 434 0
161 -180 164 0
-410 -438 451 0
-295 280 -208 0
297 299 -276 0
-277 -276 -207 0
-111 -110 186 0
346 -321 377 0
438 -436 457 0
-851 -885 -808 0
957 981 938 0
312 360 -369 0
-321 -380 375 0
88 3 -41 0
-47 -1 -37 0
-837 -806 895 0
934 904 -970 0
516 534 547 0
260 -256 -283 0
255 -222 -216 0
-716 -794 790 0
-848 -892 806 0
947 -928 943 0
30 83 -84 0
-687 -636 -674 0
-187 175 196 0
-133 -121 168 0
-616 674 -668 0
759 -719 747 0
-597 531 -569 0
-687 671 -695 0
-16 50 -65 0
239 247 276 0
-52 -73 -94 0
-613 630 -615 0
52 -8 13 0
172 110 162 0
-152 133 -171 0
-526 558 542 0
214 -204 287 0
-583 -571 -555 0
-137 -101 -141 0
-132 -121 134 0
-755 -796 -770 0
417 454 473 0
587 -572 -561 0
-87 8 -53 0
686 682 -657 0
-280 -209 255 0
-292 219 -300 0
-515 582 501 0
-907 925 -963 0
-745 -705 -706 0
914 -935 983 0
265 -201 273 0
578 -562 536 0
-531 -543 -507 0
-98 90 58 0
-755 -757 765 0
766 777 -793 0
757 -712 -799 0
116 -106 -143 0
420 434 -477 0
610 676 -606 0
-713 -773 -797 0
-654 -694 613 0
11 -54 -4 0
-485 -476 -440 0
726 751 -711 0
-827 864 -804 0
944 949 954 0
-690 697 623 0
-463 -465 -500 0
486 455 -452 0
-529 503 -536 0
-464 470 -468 0
-349 -362 -302 0
430 -444 402 0
748 767 714 0
490 485 491 0
-176 174 164 0
421 478 -434 0
639 -689 610 0
-215 222 -286 0
-236 215 291 0
227 291 -297 0
210 245 256 0
-720 746 785 0
-481 -444 -473 0
567 509 -557 0
581 -540 590 0
-902 -998 982 0
-465 412 -460 0
419 -492 -430 0
867 -836 844 0
-979 958 938 0
113 120 153 0
44 -55 40 0
607 -690 -669 0
5 36 4 0
-952 953 -925 0
206 -226 300 0
-461 455 484 0
726 -757 -763 0
371 -323 -339 0
-444 -423 -439 0
-442 -434 -489 0
547 567 -576 0
88 -44 -14 0
-39 -9 -65 0
-336 326 -316 0
-202 221 -288 0
-152 186 187 0
-363 -338 -340 0
822 829 887 0
377 341 332 0
-757 701 753 0
-274 260 246 0
231 214 -255 0
-544 -596 -517 0
-745 -795 756 0
33 18 -11 0
190 172 152 0
106 167 104 0
366 -382 307 0
734 716 786 0
-803 -846 -884 0
206 242 241 0
-492 457 428 0
-720 701 717 0
110 140 185 0
-123 101 -127 0
-115 -162 -147 0
22 55 -13 0
-169 105 -178 0
-828 -868 -899 0
-102 105 -181 0
-992 -961 972 0
973 937 -981 0
503 -540 -541 0
-214 288 -257 0
508 523 -503 0
-596 -560 522 0
793 772 710 0
29 -36 -77 0
515 -563 598 0
-150 -120 169 0
-404 -466 437 0
254 205 -234 0
183 -167 155 0
948 972 917 0
-123 190 -195 0
528 -521 568 0
82 51 48 0
723 724 764 0
-895 -891 817 0
399 -397 306 0
-337 -389 314 0
-909 -910 -933 0
615 -610 -607 0
966 -985 -903 0
-153 176 134 0
-668 620 625 0
548 561 -575 0
-386 -322 -305 0
-862 -885 -810 0
841 838 835 0
578 -548 -541 0
-817 831 840 0
226 -289 215 0
10 -37 -22 0
-823 -828 895 0
-893 -825 -836 0
954 -904 -919 0
640 663 697 0
451 -404 495 0
-496 -475 -444 0
54 43 -20 0
671 692 603 0
974 911 925 0
-492 -483 419 0
373 391 369 0
576 515 -582 0
-275 224 -226 0
204 268 214 0
-583 531 536 0
392 350 -357 0
922 -983 980 0
187 165 116 0
-498 446 -458 0
-180 -178 -159 0
436 -427 -465 0
591 563 -535 0
276 -220 207 0
808 -841 826 0
260 272 258 0
-649 -676 -660 0
-295 -220 279 0
-669 681 644 0
219 -238 -259 0
818 -866 824 0
783 -711 -736 0
836 -801 -885 0
399 -342 -365 0
874 898 -839 0
543 535 -554 0
-952 970 -926 0
55 -9 -72 0
-80 78 13 0
358 -314 -365 0
276 -295 240 0
255 -209 -298 0
-57 -11 83 0
-643 -689 698 0
910 998 -907 0
483 479 -447 0
274 -247 -212 0
-66 100 -58 0
167 188 -194 0
689 -640 674 0
183 151 180 0
562 534 546 0
-418 -434 483 0
444 498 424 0
236 219 263 0
-39 -17 -10 0
283 246 -273 0
40 -24 34 0
-318 354 370 0
-394 -396 332 0
706 -753 719 0
-289 258 202 0
824 -833 866 0
-466 -436 -470 0
106 -169 126 0
-259 220 -268 0
-867 -896 -841 0
-426 425 473 0
493 402 459 0
805 876 836 0
-608 -631 -647 0
-619 -643 -677 0
417 456 432 0
-46 -35 17 0
243 -263 266 0
214 -205 -248 0
226 209 -213 0
222 -242 287 0
71 66 87 0
479 -500 461 0
-873 -838 883 0
-955 904 947 0
229 232 213 0
-505 -562 -597 0
280 214 229 0
-603 -644 -666 0
987 988 979 0
769 -776 781 0
185 -143 113 0
-468 453 449 0
411 496 408 0
-75 94 -56 0
897 -878 896 0
-873 844 826 0
-707 -737 752 0
-486 439 -437 0
-432 -497 402 0
614 -665 -680 0
-688 -665 -686 0
136 -108 135 0
244 219 201 0
-986 933 -928 0
734 -705 766 0
553 -548 512 0
720 -772 -784 0
-876 -893 -866 0
530 -506 524 0
-113 168 -184 0
54 -25 98 0
-93 -71 10 0
629 -676 -678 0
-236 -240 277 0
82 -83 -58 0
-410 -470 -432 0
124 -198 -138 0
-849 865 891 0
97 39 48 0
-80 -61 -42 0
594 -590 -600 0
616 -613 668 0
-829 822 859 0
227 219 -207 0
779 714 -766 0
-868 857 852 0
469 -455 -454 0
752 -783 -722 0
-30 100 -2 0
796 766 -736 0
-215 -281 -296 0
686 -700 615 0
79 57 -67 0
376 -383 -358 0
-190 -178 -101 0
-770 -739 -783 0
217 -271 -274 0
-432 -450 407 0
-767 -725 747 0
722 -760 743 0
796 -721 737 0
306 -317 355 0
-447 -457 472 0
155 -122 -108 0
-26 29 -57 0
-579 -521 530 0
-925 982 968 0
774 -740 -752 0
550 522 563 0
-364 328 367 0
-978 -948 -908 0
96 -16 33 0
-612 602 -659 0
-456 404 417 0
632 608 691 0
84 -9 51 0
780 -730 -796 0
143 133 174 0
-885 820 819 0
-474 471 -461 0
944 -992 930 0
-113 198 -180 0
20 -42 62 0
804 -809 843 0
-651 614 699 0
95 -51 7 0
150 -122 171 0
436 437 477 0
-696 -692 630 0
133 122 -144 0
-946 975 998 0
492 -414 457 0
399 -348 -317 0
513 -504 574 0
-390 336 -397 0
850 804 -870 0
-270 -290 239 0
893 -811 -874 0
-769 -748 -707 0
745 749 -772 0
-977 960 925 0
74 -34 95 0
-864 -859 837 0
-830 -845 844 0
-312 330 363 0
607 649 620 0
-796 735 762 0
-435 445 451 0
-149 -145 173 0
-891 -866 875 0
-779 798 777 0
-774 799 746 0
-183 141 109 0
-173 -131 -157 0
170 123 108 0
939 -985 977 0
-25 -91 20 0
217 -226 -281 0
-55 96 -11 0
174 -187 -130 0
-500 436 444 0
482 -429 -472 0
48 -37 71 0
-187 -126 104 0
710 796 -758 0
-631 -611 -660 0
-396 364 -359 0
706 773 -737 0
839 876 808 0
-479 448 -452 0
-799 744 -743 0
682 -691 629 0
-252 289 218 0
-925 -968 -952 0
-571 -552 -578 0
-608 659 -649 0
-599 -584 -549 0
-30 -49 31 0
235 262 272 0
-96 -64 45 0
67 64 33 0
429 -403 434 0
-439 480 -479 0
-781 720 738 0
-140 -145 155 0
-296 210 208 0
-918 -906 -933 0
-208 231 -255 0
801 -831 -838 0
-975 -911 941 0
334 -303 370 0
-663 -684 627 0
-496 -440 -432 0
-84 -40 -71 0
182 -190 114 0
35 46 83 0
856 -809 864 0
-680 640 -632 0
58 6 52 0
-593 524 577 0
-208 296 -255 0
427 408 412 0
-220 -265 243 0
192 -115 -181 0
193 -181 129 0
-14 89 -45 0
-209 -249 -299 0
365 -341 -381 0
-915 -947 -966 0
159 200 -148 0
-271 -283 255 0
-875 -865 867 0
-670 632 607 0
-580 -584 539 0
40 -26 9 0
442 415 -434 0
408 -412 439 0
218 -289 279 0
-85 5 42 0
-388 -323 -359 0
621 617 -612 0
-298 -271 -287 0
-191 175 -129 0
698 645 667 0
404 438 -497 0
-336 321 -372 0
645 681 671 0
-268 -244 291 0
-681 -694 -661 0
811 -894 -836 0
-939 -981 -996 0
383 357 -318 0
-362 327 -334 0
853 882 -869 0
-801 821 -814 0
176 -195 129 0
319 -399 342 0
-424 411 -414 0
327 -397 -359 0
-712 -794 748 0
301 -319 -355 0
-996 941 -966 0
-811 -842 809 0
505 -528 558 0
984 996 -946 0
725 -705 754 0
487 -473 445 0
716 788 -778 0
288 -244 -204 0
-651 -601 626 0
-975 944 -966 0
625 -697 694 0
68 -65 45 0
634 628 697 0
59 50 -4 0
502 -565 -598 0
419 454 420 0
-557 561 -575 0
747 769 754 0
-11 -25 -9 0
721 -765 -737 0
-834 877 896 0
572 -502 510 0
687 700 -697 0
87 -8 69 0
-50 -75 -10 0
-330 -373 303 0
288 233 250 0
822 824 -898 0
-984 964 -909 0
-395 356 -332 0
-533 -536 -580 0
246 -275 -267 0
22 35 -64 0
404 -492 480 0
592 536 571 0
-134 146 -187 0
-92 2 -66 0
-561 -569 522 0
-753 800 702 0
59 71 14 0
222 229 -258 0
742 -726 725 0
-456 424 -496 0
643 685 -667 0
-334 369 -363 0
585 545 558 0
280 272 -211 0
291 230 240 0
-934 922 -933 0
431 -424 -479 0
994 -982 -908 0
795 793 765 0
-247 -231 214 0
-977 999 901 0
-510 -502 587 0
233 -224 258 0
-198 157 -105 0
-425 452 458 0
-300 -287 -286 0
-457 -442 446 0
811 -819 -862 0
196 -130 -188 0
-211 203 201 0
866 844 862 0
317 374 -370 0
816 -810 832 0
793 -771 788 0
952 902 901 0
-493 401 409 0
-767 710 -711 0
146 197 158 0
996 983 -959 0
228 -220 266 0
485 -467 426 0
632 629 -657 0
-277 -259 -283 0
-866 -885 -835 0
-84 -19 -33 0
-728 -721 769 0
793 729 706 0
-262 202 293 0
-165 -147 152 0
-690 -665 673 0
-824 811 809 0
-306 387 -376 0
16 19 59 0
-671 -683 -638 0
-431 -480 -451 0
739 723 -794 0
785 787 -708 0
563 -599 533 0
363 -354 -342 0
-330 -344 -308 0
-812 802 -890 0
319 305 358 0
-556 549 -502 0
99 -78 -91 0
767 -794 773 0
698 642 662 0
72 -69 14 0
449 432 -439 0
506 514 -544 0
736 757 -727 0
345 333 348 0
846 845 812 0
684 623 671 0
-619 -675 647 0
152 190 -165 0
753 -767 726 0
502 575 -538 0
-788 -794 -723 0
731 734 771 0
-727 772 -704 0
-726 777 738 0
807 -894 -805 0
362 -333 350 0
-128 -138 -127 0
-775 784 -722 0
451 -423 -456 0
-903 983 -977 0
-415 498 -470 0
-946 -932 914 0
147 -174 -171 0
610 -700 -611 0
547 533 -570 0
-870 808 -821 0
997 -912 919 0
-764 717 -792 0
990 -936 -920 0
-329 314 376 0
-822 896 831 0
352 -383 307 0
-303 312 -330 0
460 -436 -461 0
-710 -740 785 0
498 461 420 0
-329 347 320 0
305 -362 -356 0
-989 -966 973 0
-717 -729 -726 0
75 90 23 0
929 -956 982 0
6 28 -25 0
81 51 8 0
148 -109 184 0
-800 798 -723 0
-797 769 702 0
-730 -763 -720 0
477 457 -422 0
-474 -481 497 0
309 380 384 0
-882 844 -846 0
-225 205 -292 0
-81 -8 25 0
-620 -628 -694 0
940 919 -913 0
88 -44 -31 0
731 -705 -776 0
-452 416 448 0
881 890 -803 0
574 512 571 0
-210 237 -255 0
695 693 669 0
999 -922 -962 0
219 -278 201 0
879 -846 848 0
926 -955 -941 0
-283 258 -209 0
447 -484 -416 0
866 874 -892 0
-510 -569 -506 0
836 825 -827 0
-352 -323 346 0
681 -604 607 0
-953 905 909 0
-687 686 -630 0
687 692 -697 0
-875 -880 -843 0
749 756 -770 0
468 -474 410 0
420 479 -499 0
-755 766 735 0
-411 -423 -486 0
856 886 -898 0
798 -747 -794 0
200 187 -166 0
912 -928 -938 0
688 -617 672 0
-467 485 479 0
-297 260 -228 0
-918 -943 908 0
199 -162 -148 0
959 -928 950 0
956 -936 -958 0
-862 -846 893 0
-836 -888 860 0
569 -584 -528 0
741 -775 -759 0
-181 199 -169 0
-610 -637 634 0
-542 533 513 0
-462 -422 464 0
749 742 724 0
-621 669 643 0
-885 864 -807 0
405 467 433 0
-549 531 -518 0
694 -674 -638 0
-678 -606 640 0
-356 -373 -303 0
-511 -535 -519 0
-15 -73 -57 0
194 200 192 0
-109 -157 138 0
536 527 -572 0
857 882 -852 0
159 -121 118 0
-9 -44 -13 0
226 -211 -242 0
506 578 -582 0
-448 478 -402 0
-180 -127 -133 0
717 794 710 0
251 294 218 0
13 41 -73 0
750 711 -735 0
261 -230 214 0
-294 231 218 0
-734 -721 729 0
-279 -213 -294 0
486 499 430 0
741 -729 -730 0
-12 -75 55 0
-848 845 876 0
361 400 -393 0
323 344 306 0
730 753 768 0
-615 -700 -675 0
368 -307 -318 0
-177 121 118 0
682 665 -646 0
-340 348 -387 0
-556 527 -568 0
-515 589 -585 0
380 -308 343 0
-864 878 801 0
-48 -14 -45 0
-840 836 -887 0
254 285 259 0
-644 687 647 0
731 -759 -787 0
-768 -788 -785 0
918 967 986 0
-124 -154 199 0
-231 -215 -268 0
726 -784 -774 0
-253 -203 -274 0
633 -659 666 0
737 -787 -745 0
-908 998 -905 0
840 -889 826 0
-813 -832 838 0
-691 610 -652 0
-585 -592 -501 0
-838 -892 865 0
-272 -208 300 0
-839 870 -844 0
708 780 -762 0
-541 587 -545 0
-933 980 -911 0
-432 474 -428 0
423 472 444 0
-262 212 222 0
771 716 -787 0
74 77 99 0
-919 903 -1000 0
636 664 613 0
149 138 -183 0
-35 6 22 0
-129 178 167 0
941 -938 -988 0
958 913 961 0
-96 54 -63 0
-411 -448 499 0
-733 760 731 0
-59 70 -50 0
291 218 -221 0
782 788 -740 0
742 -737 -732 0
948 967 999 0
9 -31 -80 0
-253 250 -292 0
-674 -645 696 0
-423 -427 414 0
-992 -955 909 0
-8 -22 30 0
-950 966 -951 0
-425 -434 406 0
-832 893 835 0
61 -1 69 0
589 518 572 0
-183 156 165 0
-285 213 279 0
335 363 -379 0
970 923 974 0
64 -65 -1 0
18 -21 8 0
-899 823 824 0
336 351 399 0
644 -648 651 0
-880 844 -861 0
-661 669 663 0
53 -30 73 0
41 10 93 0
-427 -500 -475 0
-464 -420 -465 0
355 398 -337 0
236 -228 271 0
-272 -251 274 0
144 137 -172 0
948 915 951 0
68 89 62 0
-456 438 452 0
254 -279 -233 0
877 847 -879 0
292 246 279 0
-178 162 -196 0
-538 548 -524 0
30 -6 68 0
173 -134 132 0
960 933 908 0
150 182 -127 0
360 358 307 0
296 -285 268 0
-698 604 -634 0
458 416 -437 0
-496 446 -432 0
934 919 -906 0
318 371 -324 0
-220 243 283 0
-880 -869 895 0
552 -524 -562 0
-909 911 984 0
917 916 948 0
-965 -947 -1000 0
-215 -259 248 0
-556 -528 597 0
722 754 764 0
-863 -843 -829 0
71 -14 -56 0
237 234 -241 0
245 203 284 0
-59 100 -78 0
817 -876 -802 0
972 -995 -905 0
397 323 -358 0
-952 -989 -973 0
697 -688 631 0
181 -139 131 0
-479 426 473 0
734 -704 -752 0
-595 -534 -578 0
769 707 -778 0
906 990 -936 0
-16 59 -51 0
-381 -302 328 0
861 821 862 0
709 736 -706 0
226 271 202 0
-907 -908 961 0
781 761 739 0
-642 -664 -639 0
949 -981 1000 0
28 71 -67 0
-191 -110 -152 0
-924 951 939 0
-467 417 -405 0
-842 -898 814 0
994 932 -950 0
-333 -320 364 0
-546 593 -566 0
697 -624 -688 0
984 -954 -976 0
926 -981 -959 0
-328 333 -396 0
-489 413 -497 0
-252 -250 208 0
944 -966 926 0
-285 -214 258 0
-367 -337 -386 0
702 -704 -760 0
337 -397 -333 0
-36 42 -18 0
314 374 369 0
505 -510 535 0
-401 -404 452 0
353 384 -343 0
-679 -638 615 0
978 -951 -972 0
667 -660 632 0
509 -539 517 0
583 595 -561 0
-244 -287 206 0
-872 869 828 0
-358 -316 -334 0
192 -147 174 0
-229 -231 223 0
-428 479 419 0
141 136 -150 0
-389 369 -342 0
-625 -622 610 0
-501 -503 561 0
441 457 437 0
-515 599 528 0
863 880 -884 0
905 929 987 0
-312 385 315 0
-116 123 132 0
672 -699 -666 0
853 874 830 0
-268 -242 282 0
-801 -808 858 0
763 751 754 0
-725 744 792 0
501 -579 536 0
766 770 -711 0
-914 915 943 0
772 -748 777 0
646 691 -637 0
-606 676 -611 0
-348 350 -362 0
-700 636 -662 0
427 -409 480 0
751 773 -754 0
-899 -869 847 0
604 626 -649 0
848 802 822 0
773 -782 704 0
740 713 788 0
-565 -569 -558 0
868 820 819 0
-906 -918 947 0
-955 -954 -972 0
-639 -649 620 0
-447 -434 486 0
402 473 -442 0
62 43 -90 0
-147 144 110 0
-364 -357 337 0
-575 591 515 0
-462 -454 424 0
608 -649 681 0
-52 62 -13 0
676 -639 -680 0
145 200 -151 0
-46 8 -81 0
758 773 733 0
-989 -988 -920 0
942 -973 902 0
-438 482 -455 0
-648 -614 -666 0
508 547 -553 0
-632 -698 631 0
-950 -905 969 0
508 -563 550 0
866 898 -850 0
668 -619 -632 0
29 -93 67 0
-273 -265 282 0
11 -5 37 0
-762 -787 792 0
-460 -476 -493 0
-611 -629 617 0
537 522 -558 0
443 428 -420 0
252 -235 240 0
-417 -449 -451 0
98 71 -86 0
84 -52 11 0
676 689 618 0
173 128 -119 0
54 95 37 0
102 161 182 0
992 901 990 0
-120 -112 145 0
-241 -258 251 0
-242 283 222 0
-573 518 -520 0
-953 962 -970 0
541 577 -566 0
460 -401 468 0
-230 297 -293 0
687 626 689 0
966 933 907 0
-216 -289 -255 0
372 -377 -350 0
706 748 -759 0
-193 154 200 0
506 -524 -512 0
353 -359 -316 0
460 -475 -435 0
-308 337 392 0
550 -514 -573 0
-576 -552 591 0
-77 32 16 0
699 -692 687 0
33 25 -78 0
93 -26 -27 0
304 -333 399 0
336 -304 348 0
88 55 -62 0
-539 553 -537 0
-740 710 -742 0
584 -561 554 0
539 -566 581 0
-324 325 350 0
-80 10 57 0
102 -183 -164 0
933 930 -969 0
-796 -758 -710 0
-105 140 -138 0
683 -661 653 0
-204 263 -293 0
-756 714 -790 0
-301 -304 -333 0
-982 969 940 0
-811 899 808 0
536 583 548 0
382 344 329 0
-436 -482 -468 0
423 -478 460 0
-990 988 918 0
987 -991 -929 0
216 -230 -225 0
-990 -944 913 0
-967 905 -903 0
159 161 -111 0
-760 -759 -755 0
837 -816 -882 0
-24 32 42 0
511 541 -589 0
-10 -42 15 0
948 -922 -940 0
159 -170 -150 0
-41 -50 -66 0
578 -549 -520 0
-330 340 334 0
-944 -998 -965 0
-812 -881 820 0
379 -343 325 0
-265 -293 -210 0
939 -938 -958 0
-851 -840 829 0
-578 -579 -593 0
773 758 -770 0
45 22 -73 0
417 -434 -457 0
418 416 465 0
353 -377 365 0
-260 211 243 0
332 328 313 0
843 897 -841 0
-505 -583 551 0
925 -931 -976 0
-701 794 786 0
-398 -376 336 0
92 24 -58 0
-628 -647 673 0
-238 -277 -248 0
159 165 124 0
-281 -286 -246 0
-372 368 -329 0
-911 -998 984 0
360 400 -332 0
322 347 363 0
-722 725 -712 0
-744 -745 775 0
798 782 -779 0
41 -54 -24 0
-683 -660 -658 0
-974 -988 -977 0
716 -709 -773 0
-702 723 764 0
513 526 517 0
-958 -984 935 0
594 568 507 0
-336 -376 -373 0
572 580 -524 0
-743 -797 780 0
-416 471 -450 0
-231 -241 248 0
-543 510 593 0
-226 289 240 0
155 173 -131 0
-889 825 -865 0
-241 287 -253 0
17 24 -11 0
-36 59 -50 0
914 957 948 0
-599 -508 -579 0
-947 -922 915 0
-297 256 280 0
650 617 673 0
13 -48 -40 0
651 -676 -684 0
41 48 40 0
-30 -17 -2 0
-195 -192 139 0
187 175 160 0
-541 -571 -533 0
-412 -482 447 0
-387 -378 -383 0
864 -826 -812 0
-858 802 -847 0
486 -457 405 0
-245 267 -227 0
90 61 14 0
-57 -75 20 0
330 -355 361 0
422 -451 -467 0
-511 505 -542 0
836 863 -815 0
-917 904 -950 0
992 -938 966 0
701 -741 734 0
399 -382 337 0
122 -127 -106 0
306 -351 -356 0
-498 -488 -468 0
-859 -891 858 0
-386 376 346 0
632 669 670 0
423 -489 464 0
409 486 -405 0
721 -713 797 0
-166 -199 -154 0
459 412 402 0
-238 -235 -251 0
388 382 394 0
149 -159 148 0
-305 326 339 0
502 -518 516 0
442 -413 456 0
-738 733 -703 0
-156 -128 -174 0
-935 950 -988 0
-113 -138 179 0
44 4 -60 0
-904 901 974 0
342 -349 -377 0
20 3 -68 0
349 -380 353 0
207 -201 -203 0
245 229 207 0
-716 760 -788 0
84 -31 -19 0
712 -779 780 0
384 380 355 0
619 -642 -667 0
-670 -665 -655 0
-94 -43 32 0
-302 -316 366 0
643 -683 -658 0
333 358 -393 0
-259 -205 287 0
-713 799 794 0
566 -564 -520 0
-504 550 -564 0
142 -164 -156 0
721 783 -795 0
839 -824 826 0
3 -89 51 0
-876 862 874 0
722 702 -708 0
-281 -226 238 0
-675 609 -659 0
280 -259 -296 0
-548 -507 576 0
-135 -125 115 0
125 181 -132 0
-664 -643 636 0
-10 11 81 0
-360 393 331 0
-779 722 755 0
541 505 -590 0
-514 -581 -600 0
-799 712 792 0
214 -296 225 0
-608 -654 621 0
900 869 843 0
-718 -795 752 0
-427 -473 428 0
77 -29 33 0
347 -381 -309 0
-538 531 510 0
910 989 994 0
-511 510 588 0
666 693 -684 0
-360 -324 398 0
-944 -959 950 0
-387 396 -315 0
-366 358 -352 0
40 -21 82 0
38 -92 -34 0
-799 -732 -763 0
-952 991 -920 0
-556 -540 552 0
767 -739 -745 0
-817 810 821 0
561 -536 579 0
818 -844 892 0
54 84 -81 0
-637 -680 -677 0
-216 -206 -291 0
591 -529 537 0
-872 824 -867 0
-827 -868 865 0
955 923 936 0
772 776 -727 0
432 -416 -420 0
-948 -965 960 0
-639 608 650 0
919 935 929 0
-329 -337 327 0
-574 -535 551 0
665 -683 654 0
833 -884 -873 0
-899 882 -826 0
-735 719 -772 0
-76 44 -89 0
-665 -627 -693 0
931 932 965 0
773 716 703 0
-721 -795 741 0
-479 485 -413 0
-765 -729 743 0
101 122 -160 0
-790 776 719 0
-986 -978 -975 0
-334 -361 320 0
-815 -805 -843 0
-743 796 739 0
-20 38 -22 0
-209 273 258 0
-717 -765 707 0
-480 429 417 0
427 -465 411 0
-569 -563 -591 0
943 -978 -937 0
-19 -24 -33 0
262 297 -220 0
-976 -947 920 0
-775 770 714 0
-909 -905 951 0
593 -592 508 0
184 190 141 0
37 -57 -19 0
-317 348 -327 0
-396 -380 310 0
-915 -942 -991 0
-883 -873 -840 0
-953 926 919 0
-269 282 272 0
-855 -808 -856 0
-429 481 456 0
-796 -705 -711 0
-459 472 -410 0
-339 -354 309 0
129 -180 -173 0
979 -996 912 0
-593 -559 -566 0
-522 -573 595 0
266 220 285 0
-938 970 -918 0
-46 19 -95 0
-874 895 806 0
733 -729 -708 0
65 72 -15 0
949 -924 901 0
410 -423 -425 0
-147 -125 181 0
-39 -67 -36 0
-485 428 -484 0
-726 -708 -750 0
-731 -740 793 0
-448 -441 499 0
-960 -970 996 0
488 -430 -481 0
488 -459 405 0
-182 -148 161 0
-78 66 82 0
-606 670 -689 0
260 -216 -214 0
-629 -643 689 0
665 -648 628 0
981 903 -969 0
-459 471 -450 0
-298 250 -262 0
-506 -598 573 0
-479 452 499 0
367 -384 364 0
385 -375 -306 0
-743 -764 -738 0
-531 -542 -506 0
163 102 -129 0
285 265 -224 0
-387 -350 319 0
-422 487 -469 0
188 174 -155 0
-663 -608 -610 0
-241 -282 204 0
-776 758 -732 0
67 -90 -42 0
-36 -59 29 0
920 -944 915 0
-31 -89 80 0
-983 985 993 0
-560 566 516 0
708 -710 -757 0
-600 -536 -504 0
-345 400 -388 0
560 542 -514 0
325 -374 -318 0
-276 228 243 0
550 -579 504 0
-403 -485 -480 0
-877 -882 868 0
-627 628 -672 0
-296 243 283 0
510 591 -533 0
980 901 991 0
967 938 986 0
-114 -174 -153 0
-11 -60 40 0
853 -881 824 0
-529 544 586 0
-446 445 447 0
-796 754 717 0
89 47 -25 0
-837 856 890 0
871 880 -822 0
-317 -322 -357 0
-503 -600 -530 0
609 696 692 0
642 666 675 0
-753 706 -713 0
-154 165 -161 0
727 795 731 0
868 890 900 0
738 758 -734 0
-262 -271 -248 0
958 -940 946 0
379 327 350 0
-207 217 -248 0
-196 157 -141 0
330 -333 -311 0
-346 328 -384 0
475 454 407 0
-540 598 502 0
-855 -848 -805 0
608 601 -693 0
-798 -730 -781 0
546 557 524 0
-138 155 107 0
482 -436 -472 0
612 -690 676 0
464 476 495 0
543 -505 575 0
920 -973 975 0
-513 -554 -533 0
-714 795 -752 0
-63 -90 -47 0
362 307 331 0
-173 -174 138 0
-937 918 915 0
-640 -676 622 0
402 490 430 0
-1000 -967 -980 0
-915 -960 956 0
-837 869 854 0
696 -662 -684 0
-452 401 426 0
627 666 -616 0
-467 449 486 0
-701 728 -753 0
741 -766 -761 0
-156 180 -168 0
571 -518 -508 0
-346 -322 -359 0
365 331 353 0
850 -851 826 0
-833 895 -864 0
-48 -1 -40 0
947 937 -987 0
232 -251 -254 0
-458 406 -446 0
-544 -511 558 0
457 406 -460 0
72 71 4 0
673 609 -674 0
458 442 417 0
232 272 288 0
-244 224 -201 0
909 -951 -919 0
42 -51 -4 0
928 913 938 0
179 -143 184 0
-556 501 554 0
-378 -383 -396 0
-205 276 -213 0
-855 839 -832 0
712 722 742 0
963 928 -943 0
920 954 940 0
-283 203 -276 0
-570 587 -552 0
232 -240 -261 0
991 926 923 0
423 -495 402 0
-241 236 -246 0
890 815 863 0
491 -486 -431 0
105 125 -111 0
-812 808 865 0
839 -857 -885 0
429 432 460 0
121 116 179 0
-123 -173 170 0
541 562 -590 0
-829 -815 -886 0
77 83 9 0
-133 142 -153 0
617 664 -682 0
-614 669 -671 0
-589 575 588 0
-666 610 -643 0
395 -380 336 0
-157 187 -133 0
52 -78 -94 0
-392 -398 315 0
-903 -906 957 0
474 494 429 0
-624 -656 -683 0
-991 -965 -932 0
-683 633 -640 0
584 517 -600 0
-869 -852 806 0
-440 450 480 0
-627 696 634 0
-233 203 -289 0
-635 -651 -639 0
947 962 987 0
-835 -866 862 0
348 384 -343 0
321 306 -399 0
523 539 520 0
-426 -498 458 0
-527 -563 -537 0
147 151 129 0
222 -256 -226 0
481 437 440 0
57 -53 -29 0
-536 554 -566 0
993 -971 -984 0
547 528 -586 0
780 796 -743 0
29 37 47 0
-637 676 672 0
-87 5 56 0
877 897 -819 0
-706 758 705 0
192 -123 -127 0
990 -914 968 0
-235 -225 208 0
311 -344 398 0
-946 -943 -996 0
-373 374 -312 0
695 -621 -691 0
-722 -711 -772 0
-704 776 -722 0
267 -274 -276 0
-75 61 -33 0
839 846 802 0
470 496 447 0
604 -634 -679 0
429 -431 -450 0
-582 569 -519 0
-109 -136 145 0
673 -632 655 0
-429 -443 480 0
349 -378 -339 0
-413 -455 487 0
632 647 -625 0
-508 -510 543 0
451 -424 438 0
822 885 843 0
49 -50 -89 0
745 -752 735 0
643 -662 -664 0
271 -226 -224 0
931 915 905 0
154 -190 156 0
267 -244 207 0
51 86 57 0
199 -194 -165 0
787 795 783 0
313 -366 -328 0
633 -622 644 0
-510 524 -559 0
-581 518 543 0
-945 -936 -943 0
402 500 499 0
-922 -997 967 0
855 -834 802 0
369 -308 -337 0
-595 560 545 0
895 833 -884 0
340 391 -393 0
494 -411 423 0
-352 -315 -397 0
462 474 425 0
952 944 911 0
259 290 265 0
810 -834 869 0
-343 -348 386 0
949 968 926 0
-291 -258 -246 0
797 718 -751 0
-283 218 203 0
-181 109 -146 0
221 -243 262 0
-821 -855 -827 0
251 -288 213 0
320 344 -371 0
-84 57 21 0
532 570 -564 0
978 -949 -912 0
422 411 -461 0
815 -898 848 0
-402 -446 -489 0
-791 -759 776 0
731 795 717 0
286 224 -272 0
-178 -119 125 0
-733 -704 768 0
-212 -233 280 0
899 895 -867 0
-615 604 651 0
974 969 -973 0
-486 -474 435 0
-453 494 -470 0
-552 535 -558 0
618 -630 633 0
589 503 559 0
-208 -213 253 0
-18 -34 4 0
908 925 921 0
925 -914 959 0
-177 -137 -184 0
124 -115 103 0
862 827 -852 0
-621 663 672 0
23 84 17 0
166 168 127 0
-478 453 463 0
607 -637 -631 0
-81 -70 -78 0
416 -404 477 0
970 -910 -963 0
276 -252 272 0
746 732 -709 0
-715 733 730 0
-210 296 -260 0
28 1 -87 0
-156 176 -194 0
-70 -45 52 0
-398 355 358 0
124 183 -198 0
345 -377 389 0
-390 394 370 0
-46 67 94 0
790 -777 -711 0
517 519 -583 0
-906 950 954 0
498 -500 -444 0
599 527 -569 0
966 -993 -991 0
-219 -215 -247 0
-66 -79 -98 0
700 691 643 0
794 -709 725 0
-752 -798 728 0
-893 868 894 0
-176 -153 138 0
-868 891 880 0
-716 769 770 0
-357 304 -343 0
-202 284 252 0
-301 -373 353 0
-824 -821 863 0
-312 -381 337 0
-964 910 918 0
-851 841 -822 0
76 -98 57 0
942 -928 954 0
212 270 -293 0
-38 -63 -74 0
-389 381 373 0
213 -229 -228 0
-577 542 -583 0
262 -260 -277 0
399 -378 -398 0
-735 -743 -793 0
534 -502 538 0
920 -919 940 0
596 -576 -597 0
331 392 345 0
668 658 607 0
726 -751 -780 0
537 -503 569 0
-29 93 31 0
186 115 119 0
-452 464 -436 0
264 -216 280 0
-117 -195 135 0
-450 484 -419 0
-679 -699 602 0
-793 746 -733 0
-877 -814 843 0
265 -227 -228 0
-612 613 -643 0
59 -47 96 0
-653 -608 667 0
-885 898 866 0
945 997 925 0
937 903 -938 0
686 -628 612 0
-472 -439 -423 0
792 -771 728 0
548 594 -573 0
-132 -157 -158 0
-469 -445 498 0
96 -44 -40 0
-316 330 315 0
834 881 -819 0
-895 808 -832 0
46 3 29 0
924 976 906 0
318 -316 329 0
405 -424 404 0
-552 -546 523 0
569 572 520 0
-365 341 373 0
-96 46 -56 0
-874 -883 -808 0
664 -658 613 0
216 285 220 0
-856 -806 -821 0
