p cnf 1000 3200
832 807 -129 0
-423 -23 -935 0
-947 92 584 0
234 -621 495 0
-436 996 82 0
-326 -995 910 0
385 581 363 0
211 -56 -697 0
-630 535 -297 0
-98 158 773 0
-364 -159 -467 0
304 -363 -860 0
833 129 -542 0
-41 -864 -84 0
-370 -291 82 0
210 101 -354 0
-714 744 -203 0
169 273 873 0
499 355 531 0
557 -694 -905 0
-879 130 -889 0
988 60 -178 0
903 167 372 0
-470 462 422 0
-262 188 -322 0
229 -707 699 0
744 -871 -381 0
-293 941 -415 0
-571 257 847 0
438 517 568 0
-690 -105 -758 0
206 399 293 0
-158 113 453 0
-781 -904 -478 0
-604 235 488 0
776 -92 -940 0
734 -320 -28 0
224 -552 -779 0
777 -599 -331 0
235 701 -413 0
-803 -235 -41 0
-416 490 -747 0
156 -755 -665 0
-325 -264 -463 0
-284 979 -129 0
723 760 407 0
-48 184 -868 0
-293 935 -134 0
993 -505 761 0
-462 301 163 0
-87 726 -970 0
-593 -97 -550 0
-395 -101 -189 0
98 -518 272 0
500 375 851 0
278 -12 719 0
793 -525 935 0
943 383 871 0
-615 -301 -907 0
246 -581 -701 0
-914 -601 -394 0
-475 -623 467 0
-472 -543 -497 0
758 -488 686 0
-838 513 371 0
298 164 980 0
-707 -426 -996 0
-924 -948 -732 0
541 572 -959 0
-188 949 474 0
402 -416 247 0
238 36 -546 0
-188 20 231 0
3 339 110 0
753 -764 370 0
908 646 -937 0
180 -706 980 0
-488 428 850 0
-97 -121 -898 0
-56 -471 -276 0
-240 142 943 0
-693 794 669 0
709 -491 -781 0
386 -922 -326 0
828 -585 -146 0
-47 -779 -649 0
-924 493 887 0
-272 955 384 0
-561 -67 831 0
532 273 613 0
893 856 -480 0
-304 729 -415 0
-618 754 -522 0
513 -540 -336 0
-257 -133 721 0
477 -319 420 0
536 -213 -26 0
-624 33 31 0
881 807 588 0
935 590 294 0
510 785 -492 0
-140 159 -90 0
-978 -126 -577 0
998 227 738 0
-338 -645 -591 0
927 -516 -893 0
642 332 -260 0
-188 817 -389 0
-927 85 741 0
-260 895 -957 0
-273 -162 354 0
-988 94 265 0
-503 -145 -834 0
867 -781 -130 0
-146 872 -723 0
646 -783 -639 0
-499 -203 916 0
89 -282 -835 0
290 -647 870 0
129 -752 344 0
727 318 -752 0
410 347 -240 0
69 754 -282 0
-999 708 869 0
672 490 -593 0
362 833 -708 0
727 93 450 0
-809 -645 -493 0
630 371 83 0
-454 -595 -920 0
-214 280 -289 0
462 605 519 0
207 311 -640 0
489 -932 -733 0
320 317 -552 0
616 697 -93 0
2 327 533 0
322 -33 822 0
-816 680 -373 0
-604 719 547 0
866 -701 760 0
-427 -883 202 0
334 -238 -408 0
424 -906 273 0
-12 187 326 0
-728 366 192 0
-158 474 -696 0
156 -451 625 0
-301 -591 -803 0
943 -359 149 0
-54 350 311 0
-192 -413 -892 0
-475 -68 608 0
25 -180 884 0
803 -576 -759 0
37 -748 649 0
132 -828 -96 0
-574 561 -530 0
-418 580 276 0
891 -590 552 0
261 -400 704 0
815 303 -326 0
-593 -440 -680 0
688 826 -515 0
-493 294 -678 0
62 -916 -898 0
363 277 -117 0
369 485 -532 0
99 459 -816 0
-178 957 -804 0
160 -602 -321 0
460 538 327 0
-749 815 -284 0
-173 332 980 0
836 -743 -640 0
818 -793 -956 0
-775 -220 -661 0
721 -413 647 0
-862 310 755 0
505 323 -487 0
804 -441 883 0
-175 495 903 0
236 302 -906 0
-86 725 41 0
949 -914 313 0
387 -591 845 0
-986 -530 28 0
572 544 404 0
555 -687 380 0
957 148 -206 0
946 -663 -133 0
-41 -3 396 0
-72 -386 -679 0
-181 310 966 0
683 -119 -72 0
-76 153 -301 0
32 485 647 0
-133 6 -475 0
-405 924 984 0
-334 850 -462 0
945 589 -866 0
-161 -387 244 0
977 -901 979 0
454 -315 -408 0
-930 -876 -644 0
-12 -115 624 0
-989 84 83 0
-319 -546 -986 0
-653 -426 940 0
-444 -688 204 0
-747 -89 -882 0
167 528 630 0
842 254 -317 0
370 -206 -472 0
262 233 -484 0
-619 -365 259 0
348 -223 124 0
-532 985 -53 0
851 -952 -913 0
-649 289 372 0
-833 152 286 0
-754 786 -418 0
-364 -675 393 0
138 999 -373 0
24 -445 -918 0
614 -22 538 0
986 691 -996 0
56 601 505 0
-951 636 -64 0
-511 -284 868 0
129 -27 965 0
-605 441 -76 0
171 -178 507 0
-279 72 -471 0
24 -981 417 0
-956 484 -25 0
811 -453 -981 0
-777 464 -432 0
223 495 696 0
-713 104 -619 0
797 -636 875 0
842 261 -296 0
934 -52 117 0
-213 -617 85 0
655 -356 213 0
-338 -799 381 0
440 880 766 0
-951 -586 945 0
789 63 627 0
-984 -80 272 0
80 297 -678 0
608 -272 -356 0
57 253 -309 0
506 630 879 0
376 148 -117 0
-141 721 509 0
-809 -272 -120 0
836 633 -338 0
-569 240 -842 0
-749 389 747 0
-464 182 -187 0
-895 992 497 0
-632 -692 -974 0
673 531 669 0
-859 442 673 0
-862 -464 338 0
-560 974 83 0
-697 -620 686 0
425 536 915 0
771 -417 -950 0
319 -200 951 0
-40 412 -602 0
-933 348 -4 0
245 315 -873 0
-901 -450 -474 0
-206 69 -979 0
-345 18 693 0
-449 -336 958 0
-365 -315 -333 0
2 -136 -384 0
-22 943 748 0
-141 76 -568 0
934 -8 -993 0
-611 -189 -350 0
627 964 658 0
-424 -859 484 0
-292 -278 -978 0
-793 416 119 0
-603 -728 -250 0
591 -167 -687 0
796 -542 164 0
976 -149 -810 0
510 -362 768 0
381 504 885 0
-392 -11 -640 0
-32 433 292 0
209 815 602 0
-643 -798 -125 0
-445 -536 521 0
499 -994 -635 0
934 633 -428 0
836 165 -559 0
110 -523 766 0
46 914 -859 0
-664 -865 -317 0
896 942 801 0
-642 -955 -569 0
168 -535 -106 0
-415 979 -112 0
331 -92 115 0
46 -384 353 0
-385 -454 -306 0
9 -440 -881 0
-779 -635 354 0
186 -706 410 0
553 -517 441 0
173 980 -458 0
176 56 522 0
707 -131 685 0
-70 -769 986 0
-987 370 -303 0
-612 -508 854 0
143 -318 -575 0
83 -305 32 0
-3 -564 -611 0
407 814 -989 0
502 -102 -136 0
-640 -649 -518 0
-776 394 489 0
502 -294 80 0
-749 711 904 0
-272 -930 -138 0
837 -458 -286 0
746 413 565 0
-147 923 -671 0
-465 792 998 0
-504 46 726 0
186 260 379 0
-533 -572 914 0
-308 990 435 0
581 720 -893 0
-292 -178 -448 0
530 -103 -622 0
356 -348 243 0
-474 -779 -242 0
-817 -342 -642 0
-765 -76 -920 0
779 981 931 0
-149 930 -193 0
-818 459 -469 0
-319 -670 -318 0
475 -529 321 0
-342 -880 911 0
-232 -150 -74 0
-351 -227 72 0
713 235 -514 0
-741 793 -69 0
-79 -951 457 0
612 781 835 0
-96 196 -386 0
635 113 -429 0
-656 359 -613 0
46 748 -127 0
798 -528 973 0
959 -296 -271 0
-101 -390 -297 0
-853 438 -609 0
400 816 320 0
-624 946 632 0
-413 -528 -571 0
-443 -570 -813 0
-885 216 -342 0
-105 -545 4 0
-212 -462 335 0
637 13 271 0
-33 -174 139 0
772 -683 -835 0
693 853 -643 0
771 -315 -140 0
-582 528 367 0
795 115 -693 0
-259 -838 855 0
-245 -459 438 0
998 607 577 0
-593 81 522 0
165 -400 -298 0
966 85 736 0
-281 -209 469 0
-973 435 382 0
-691 -465 449 0
963 -528 -512 0
-541 451 306 0
275 -406 -47 0
-127 362 425 0
-632 -759 159 0
-672 -168 570 0
-9 192 590 0
670 -46 960 0
-699 -470 -118 0
-645 168 392 0
-448 556 -956 0
-283 40 808 0
-316 927 -436 0
-922 -56 -791 0
-797 131 654 0
-993 -273 -841 0
585 553 -444 0
875 111 123 0
861 739 817 0
581 -575 353 0
423 -46 273 0
705 566 -985 0
-425 -932 -64 0
-988 829 -189 0
-190 -208 724 0
419 241 -548 0
944 -902 434 0
804 506 -540 0
-51 361 641 0
288 821 109 0
-907 -411 -249 0
464 -613 -949 0
586 407 611 0
-759 426 246 0
-557 660 688 0
322 327 -847 0
-64 525 591 0
-638 73 711 0
-516 546 -46 0
947 -53 -30 0
-95 -743 -438 0
410 207 -362 0
277 969 -659 0
270 -34 50 0
538 130 -999 0
-178 571 115 0
-669 -179 -784 0
16 -847 35 0
478 -842 406 0
81 861 -376 0
-764 785 -888 0
275 -762 534 0
864 413 178 0
260 -820 -962 0
287 -906 143 0
475 -111 -3 0
-818 -309 -444 0
-484 -245 23 0
-717 -418 -691 0
-968 -56 358 0
546 652 151 0
-315 971 -542 0
-441 -724 -439 0
-287 -125 666 0
791 508 -57 0
768 805 -75 0
-814 397 -304 0
-126 712 -353 0
592 -337 -416 0
-867 -20 -545 0
820 487 -767 0
-775 202 -428 0
-870 -600 -147 0
980 -869 865 0
-491 -43 288 0
-321 -695 138 0
-348 -25 -792 0
855 443 983 0
-316 -92 -937 0
-290 371 -313 0
-635 -534 -840 0
986 -295 -959 0
269 -896 379 0
435 129 384 0
-341 -783 620 0
652 -143 -233 0
-68 -731 650 0
985 -514 -454 0
858 -487 932 0
-432 -20 -165 0
546 643 -930 0
517 -802 -68 0
338 191 -252 0
984 967 -246 0
985 225 -532 0
686 490 503 0
181 -720 667 0
-673 247 583 0
-656 606 -553 0
188 728 725 0
67 14 -969 0
705 492 283 0
622 253 -748 0
-249 -125 -561 0
-523 -698 -457 0
209 -975 527 0
-753 438 302 0
-382 -547 -180 0
66 -959 573 0
-337 169 -992 0
631 -971 -72 0
333 -773 573 0
-51 39 439 0
-813 562 65 0
5 -884 -987 0
-388 36 617 0
-754 -206 -951 0
475 -341 -154 0
-573 144 953 0
-93 -406 667 0
394 108 -185 0
-634 571 595 0
621 -234 -871 0
848 -370 95 0
-185 -869 377 0
403 -244 -851 0
984 -936 -519 0
-858 53 676 0
982 572 -74 0
-390 963 -457 0
-891 938 346 0
95 915 309 0
625 -249 -693 0
788 140 -703 0
400 -940 189 0
133 -606 849 0
389 -870 198 0
-781 -87 -714 0
-469 -806 -655 0
-792 -431 309 0
-275 -656 -415 0
1 760 -881 0
-540 -860 623 0
-999 -22 23 0
-593 -893 811 0
-488 83 -386 0
747 -201 496 0
797 202 775 0
450 -42 -616 0
334 901 -409 0
632 -326 220 0
95 -633 267 0
-897 882 174 0
-98 744 -933 0
-546 281 942 0
92 -173 857 0
-185 322 261 0
-789 -608 283 0
-481 107 828 0
-349 -563 -602 0
653 678 703 0
-731 -796 384 0
274 -465 -421 0
-610 306 469 0
75 -984 548 0
-223 176 -797 0
-661 -686 384 0
-138 -981 692 0
-726 -472 529 0
324 -174 12 0
425 -852 284 0
-791 740 313 0
-721 964 929 0
776 589 698 0
-326 -378 -141 0
-792 471 112 0
-751 -344 -471 0
-926 53 404 0
-249 -566 360 0
-168 853 -387 0
-733 360 661 0
-375 -134 234 0
-398 381 -994 0
-985 311 324 0
509 918 205 0
71 350 287 0
809 -867 782 0
779 797 -946 0
710 -727 -356 0
282 486 -917 0
-998 674 -801 0
356 994 322 0
-290 202 200 0
-453 662 801 0
-85 -766 -283 0
-14 -314 -774 0
532 625 543 0
525 589 -914 0
-10 -973 -711 0
200 -538 706 0
53 146 -377 0
-323 -891 611 0
585 672 905 0
-209 -448 206 0
931 829 -828 0
131 538 -718 0
556 964 -148 0
-818 234 233 0
90 50 889 0
-994 296 656 0
910 -850 619 0
-74 -969 29 0
898 -736 679 0
552 139 -408 0
-845 110 -999 0
-59 -929 -436 0
664 306 964 0
324 294 -611 0
560 83 -58 0
874 -824 -836 0
-913 -834 180 0
-979 918 -240 0
822 -977 774 0
491 770 105 0
93 -641 -461 0
-110 387 680 0
440 -361 -825 0
806 -754 199 0
350 -390 -240 0
786 -35 148 0
-564 915 393 0
-697 520 -117 0
-666 -62 -330 0
-98 401 330 0
-537 -775 -935 0
665 679 -853 0
886 -433 571 0
211 213 -224 0
735 256 -861 0
114 74 -166 0
568 363 -393 0
-278 -566 469 0
410 905 -842 0
-618 263 251 0
-186 562 -762 0
-540 -757 -379 0
-118 -345 -831 0
575 578 372 0
-141 849 222 0
-200 109 185 0
-55 -725 781 0
653 -114 -976 0
-950 231 553 0
-743 95 549 0
6 786 -74 0
997 -249 894 0
752 -548 -253 0
-510 -188 -104 0
11 13 348 0
529 744 -567 0
-310 -852 394 0
394 837 -618 0
-611 992 888 0
890 734 -111 0
-53 -516 -157 0
-585 906 -758 0
-209 -483 -115 0
-285 822 -955 0
952 315 -38 0
758 3 -87 0
186 616 775 0
51 -374 510 0
-43 -772 667 0
-444 403 963 0
894 -535 -628 0
502 548 -686 0
470 -543 -179 0
878 -995 43 0
-100 358 -695 0
47 -257 311 0
-52 375 827 0
943 759 863 0
842 -957 337 0
-1000 -569 774 0
956 626 -171 0
556 -226 -828 0
-839 -632 -513 0
-846 130 845 0
-443 26 73 0
-619 59 598 0
-997 756 278 0
829 -344 -924 0
766 -997 -821 0
-700 214 470 0
-299 860 -4 0
443 63 -715 0
-270 -245 -794 0
185 276 -255 0
-846 -640 537 0
-856 347 346 0
-736 115 879 0
-787 -883 151 0
436 897 -258 0
757 854 -689 0
952 -21 -297 0
-906 -297 -729 0
923 -342 -168 0
-185 856 976 0
-126 -518 -593 0
-91 -534 134 0
194 -226 -569 0
368 -641 780 0
615 233 706 0
988 -648 -542 0
982 -397 838 0
701 -837 -812 0
231 -511 820 0
-738 555 204 0
-682 -489 924 0
162 316 966 0
-991 421 -192 0
-410 701 267 0
142 676 -420 0
731 -129 -984 0
115 202 563 0
-968 50 -24 0
-247 -207 -89 0
631 -473 -879 0
355 -362 -614 0
-212 -561 636 0
-50 123 -809 0
531 -598 59 0
989 135 -237 0
185 712 -422 0
-550 364 657 0
801 116 550 0
-333 -781 -282 0
677 256 -829 0
-975 831 -486 0
782 58 46 0
160 -351 -166 0
732 -524 -517 0
-808 -73 -267 0
-352 468 -231 0
453 507 963 0
503 835 -177 0
876 -449 -288 0
503 333 -484 0
433 -867 -575 0
-253 321 429 0
-958 -995 -590 0
-846 665 -794 0
383 -238 -539 0
995 94 -144 0
-844 234 -914 0
87 304 132 0
-903 365 526 0
877 361 -983 0
-701 289 453 0
-801 805 91 0
-141 180 284 0
-680 -624 -561 0
-122 -387 548 0
-225 -574 626 0
604 356 137 0
-133 -868 899 0
900 645 -341 0
-500 -635 57 0
-891 141 -996 0
-22 -825 970 0
-639 -839 -390 0
-319 -317 -178 0
642 936 -56 0
-305 882 -489 0
34 -622 417 0
338 -823 -189 0
-617 -796 849 0
-918 -327 284 0
-696 -38 -520 0
720 -90 767 0
-249 464 193 0
-690 -833 516 0
90 498 161 0
-972 -232 677 0
-992 249 703 0
-266 417 442 0
-738 -747 -939 0
-911 805 459 0
824 -838 694 0
-486 -805 -967 0
311 508 -573 0
-765 -746 -933 0
-580 934 57 0
75 930 -65 0
-420 40 -637 0
-311 -3 -820 0
-30 -278 328 0
-784 -260 468 0
-619 -473 -710 0
-636 982 -937 0
498 705 -717 0
366 -930 -444 0
597 79 866 0
-314 -121 -464 0
464 912 128 0
43 -259 219 0
419 -432 321 0
-599 300 -457 0
880 -667 -247 0
-863 -92 -369 0
148 -60 -243 0
-666 356 -394 0
44 941 -409 0
384 213 316 0
-929 -802 -788 0
635 -559 883 0
-556 525 -133 0
312 569 -670 0
-56 159 685 0
-33 -232 96 0
-401 -298 -487 0
16 715 -561 0
-616 -56 890 0
-987 718 2 0
-423 708 -970 0
105 -733 493 0
353 -826 -781 0
-240 -170 -870 0
363 574 757 0
444 -568 -144 0
584 -354 -95 0
-34 338 -136 0
-758 -554 956 0
642 -14 474 0
736 565 -861 0
-365 85 -790 0
-467 -116 533 0
482 -260 -8 0
-795 86 -722 0
106 344 -528 0
70 675 -749 0
791 875 857 0
573 -24 -87 0
983 542 549 0
397 80 -524 0
-552 690 -115 0
364 452 -301 0
147 87 116 0
404 727 -98 0
-606 -33 230 0
-204 -12 -570 0
467 485 -846 0
239 -465 104 0
-365 -815 -550 0
466 -603 -274 0
206 156 -518 0
-905 -925 788 0
706 -663 -312 0
-490 -205 832 0
753 986 -560 0
995 -853 630 0
813 -29 -711 0
-300 -473 57 0
-760 -172 434 0
-966 -926 -163 0
-238 781 -921 0
823 -45 597 0
73 -882 -249 0
-434 -19 -210 0
-880 370 -903 0
804 404 298 0
-987 -331 -191 0
-565 -880 -613 0
-346 655 773 0
506 -200 314 0
-948 -180 329 0
906 -860 -217 0
330 -701 95 0
-760 889 456 0
-532 -669 -728 0
775 -335 -667 0
-647 -783 -867 0
-625 -206 -366 0
639 -184 -622 0
-333 615 -759 0
-512 -732 551 0
-213 304 80 0
491 -884 -328 0
582 629 -393 0
-145 155 -974 0
771 687 323 0
119 89 535 0
-249 -892 -433 0
-727 802 -578 0
293 866 -930 0
-393 -713 -652 0
-223 -313 190 0
870 560 726 0
-634 -333 -893 0
289 -392 499 0
-715 398 -628 0
162 -938 -760 0
568 159 -726 0
-499 378 -413 0
-119 631 -69 0
961 -734 397 0
-322 -637 -186 0
-436 187 -810 0
-58 -28 702 0
-312 -672 423 0
-955 -171 -780 0
-734 383 897 0
23 550 647 0
982 232 -957 0
-646 -20 -136 0
-119 -814 -235 0
47 523 -701 0
545 -197 -40 0
294 629 -90 0
68 -184 672 0
420 -516 -201 0
873 -553 -51 0
638 -704 -823 0
287 -794 -369 0
636 -670 667 0
-586 -168 -482 0
-774 -978 -72 0
-230 -38 -642 0
-401 79 241 0
284 500 884 0
247 55 416 0
-587 -304 -154 0
-384 -599 -736 0
897 590 702 0
-883 575 -612 0
-916 136 -983 0
-585 -541 -297 0
-67 533 -81 0
764 -336 -414 0
-167 -147 902 0
291 110 263 0
-965 23 77 0
-744 -131 -285 0
668 465 437 0
608 -437 507 0
303 -750 345 0
217 249 261 0
117 236 -108 0
-738 472 -298 0
-192 -558 -803 0
-545 -43 543 0
324 -667 616 0
265 -481 212 0
280 -525 973 0
-685 -682 -145 0
890 -571 -349 0
542 487 -291 0
-263 477 -530 0
-661 -986 1 0
527 873 396 0
-341 -414 -619 0
-775 -168 -887 0
884 -702 -2 0
-994 462 -490 0
782 -570 144 0
-771 721 47 0
297 -902 864 0
-775 -739 907 0
-968 -856 -735 0
-345 -903 407 0
-295 596 -171 0
-718 -565 -338 0
-502 -427 246 0
314 -440 269 0
-715 122 638 0
-934 715 741 0
248 881 -98 0
624 -467 -772 0
-37 495 -241 0
241 363 -321 0
417 -576 276 0
-360 642 4 0
942 906 961 0
964 -619 231 0
-844 -804 -807 0
-600 -727 -531 0
499 -319 -914 0
889 -948 -252 0
-741 346 -617 0
-568 423 -232 0
958 -506 252 0
-859 -1000 102 0
390 603 662 0
919 -609 924 0
-168 -536 161 0
-612 706 -596 0
194 994 933 0
732 -435 763 0
-33 882 -496 0
-880 50 -902 0
104 599 471 0
-515 -313 -954 0
-308 -972 811 0
-2 -847 935 0
889 537 356 0
840 362 -160 0
-575 -409 767 0
155 815 -219 0
810 948 284 0
751 -866 628 0
-382 -422 852 0
-195 35 -989 0
215 344 -45 0
780 -522 -634 0
703 -794 201 0
62 -316 848 0
-4 234 -883 0
-108 -454 912 0
176 985 558 0
-479 -755 -9 0
982 551 -789 0
-634 233 -26 0
560 266 -92 0
-885 -119 -749 0
177 277 700 0
880 -664 -42 0
-589 -28 -891 0
112 755 191 0
-859 149 382 0
365 228 -975 0
-954 566 -598 0
-1000 -662 470 0
739 715 -670 0
540 -580 425 0
-82 805 -661 0
-253 -909 -236 0
-50 -289 -999 0
-221 -662 161 0
813 -111 -194 0
880 -536 -435 0
-496 -299 -849 0
269 -304 261 0
-851 628 88 0
981 -408 -403 0
-143 555 -265 0
-37 -325 -830 0
-239 203 -226 0
843 462 927 0
265 -906 -552 0
-992 -57 48 0
997 622 -365 0
636 710 648 0
-460 -585 -147 0
819 -614 185 0
457 -830 -906 0
565 36 -167 0
592 -410 -499 0
-446 300 584 0
-579 434 -560 0
619 -776 292 0
811 -84 -373 0
-951 944 -954 0
609 886 395 0
-652 504 418 0
2 -754 -113 0
624 505 -944 0
210 -779 717 0
981 -803 549 0
-578 324 -242 0
-922 812 -555 0
-882 898 528 0
-686 -350 255 0
977 -901 438 0
784 690 -317 0
28 502 552 0
39 261 -6 0
115 -120 -209 0
983 -605 -261 0
714 -105 488 0
120 572 -792 0
-296 388 -353 0
253 94 -967 0
-164 917 -566 0
-787 121 237 0
-988 -633 -463 0
510 25 690 0
471 -532 829 0
-118 -454 -280 0
714 -365 -388 0
-938 427 -754 0
-761 -384 -528 0
928 -497 13 0
-978 850 111 0
-881 -411 691 0
233 643 -371 0
-795 -77 -38 0
-753 975 -597 0
-769 -466 -816 0
55 -482 -566 0
423 347 -159 0
219 -513 -78 0
-108 375 929 0
641 -961 28 0
-15 -496 -907 0
966 397 -23 0
227 260 297 0
-268 309 398 0
590 895 981 0
744 776 -64 0
-271 247 -413 0
69 -461 -586 0
-841 -227 866 0
-49 605 -818 0
972 369 -734 0
978 -661 -467 0
-856 532 -45 0
558 548 748 0
-87 900 649 0
494 -435 408 0
348 -747 -940 0
-448 -993 307 0
770 763 -470 0
-363 -334 843 0
-471 -420 -949 0
-370 -238 -511 0
-220 -172 -664 0
115 -882 -633 0
588 783 -549 0
679 -337 315 0
-966 123 111 0
-220 -56 -47 0
-331 -863 -649 0
396 838 66 0
-90 738 -582 0
513 -724 -938 0
118 -644 323 0
-724 -587 273 0
-880 -848 710 0
-717 842 509 0
491 -247 334 0
747 626 756 0
584 -728 50 0
-938 28 396 0
427 -411 630 0
534 118 -212 0
-98 878 -458 0
503 916 269 0
661 407 -788 0
330 -977 115 0
230 -120 -46 0
663 -247 908 0
-170 -822 -936 0
-825 256 719 0
900 -891 572 0
-738 12 -397 0
587 -428 -160 0
128 135 -517 0
663 -734 -525 0
851 570 -276 0
698 -80 -70 0
-165 -880 957 0
-618 782 818 0
855 570 946 0
195 -577 -103 0
-624 -429 568 0
-563 30 -571 0
237 -749 -682 0
-698 350 179 0
440 -209 706 0
489 -260 949 0
59 -988 -808 0
348 123 713 0
950 373 -22 0
899 -106 -842 0
-465 -229 -447 0
-77 -171 -365 0
719 -177 112 0
-624 -257 457 0
482 -471 95 0
17 365 996 0
564 100 993 0
-465 -72 -641 0
341 913 895 0
885 347 -866 0
-972 -547 184 0
-949 -233 112 0
83 758 917 0
-26 -31 -493 0
542 -15 181 0
-805 455 196 0
157 602 -19 0
-634 21 104 0
-941 350 -643 0
-229 61 -247 0
-520 815 644 0
-612 -195 -136 0
-254 -523 735 0
466 -29 -646 0
108 62 -451 0
30 -762 -802 0
555 753 27 0
418 350 144 0
-959 78 -664 0
-35 808 620 0
120 481 -390 0
-78 825 -56 0
367 215 173 0
-878 -217 -721 0
-285 -830 -768 0
812 34 -198 0
-926 662 -648 0
13 -508 826 0
483 -434 909 0
269 -49 -599 0
734 -527 -29 0
-124 -751 -657 0
90 308 801 0
379 -315 672 0
-451 536 -997 0
241 16 106 0
393 -676 784 0
65 -73 846 0
-630 -453 -532 0
-753 -180 453 0
570 930 466 0
-742 -230 833 0
-404 -838 955 0
-606 -391 383 0
919 -625 -26 0
-889 -247 633 0
-553 730 -458 0
-72 679 -451 0
-882 1 519 0
234 -768 685 0
-100 -331 -926 0
286 -110 830 0
-537 734 676 0
-245 -937 -125 0
-24 971 -206 0
67 892 -614 0
529 811 -230 0
-902 288 -176 0
-500 -475 -282 0
-874 565 639 0
619 816 559 0
-904 459 -939 0
80 -322 724 0
941 -615 -482 0
333 -75 963 0
926 278 -876 0
-397 -702 19 0
-999 -716 -991 0
14 -316 75 0
710 341 -563 0
-270 689 947 0
548 51 -21 0
-283 -183 -900 0
-332 777 -660 0
-836 -844 -145 0
338 -304 858 0
-259 364 -342 0
238 122 -363 0
-393 595 695 0
-742 -755 691 0
768 915 852 0
890 -424 -316 0
41 448 -686 0
357 -780 -903 0
192 -33 -895 0
913 -403 -83 0
213 490 951 0
-872 -275 972 0
215 653 -913 0
805 702 -671 0
-63 -674 -56 0
-119 801 649 0
-478 399 -757 0
568 -201 421 0
-962 -328 511 0
392 845 -132 0
988 329 679 0
233 -204 525 0
450 835 664 0
-417 392 45 0
344 935 -475 0
-390 -955 149 0
-954 547 -814 0
-710 200 -188 0
-526 1 914 0
585 -680 647 0
143 -159 280 0
725 -954 277 0
-980 582 -736 0
-80 -478 -49 0
-258 921 754 0
-295 804 -453 0
-156 645 418 0
39 -203 849 0
98 -522 -188 0
-345 386 90 0
398 -462 -990 0
-226 -798 -465 0
-746 778 -967 0
-948 756 78 0
-616 175 19 0
-558 203 -321 0
876 -407 -1 0
715 245 -92 0
-416 -388 445 0
-752 -512 -31 0
-581 551 -63 0
937 -797 -726 0
734 -839 280 0
-962 -565 -527 0
519 -651 -553 0
604 314 498 0
-513 -54 -297 0
330 -30 815 0
-636 -783 176 0
920 740 520 0
-895 202 -443 0
-622 -16 62 0
851 -22 -786 0
-752 103 -681 0
-318 -890 796 0
-358 978 -821 0
885 -918 681 0
-17 -524 -90 0
149 405 -241 0
731 -406 -848 0
658 -629 -405 0
140 971 -403 0
582 719 125 0
-973 884 -794 0
67 -189 -260 0
893 -391 156 0
191 878 -315 0
841 -306 -771 0
-557 973 -761 0
-913 919 -265 0
-680 -172 662 0
-123 85 368 0
872 870 547 0
186 -840 -671 0
-969 -588 819 0
826 -735 820 0
148 -782 -241 0
212 -795 -503 0
338 417 982 0
158 -170 965 0
-680 -915 -351 0
-794 397 -499 0
-51 -465 -755 0
429 598 201 0
37 -313 -999 0
-516 56 -285 0
494 -192 628 0
-154 710 -94 0
-182 217 -513 0
202 -659 -613 0
278 7 -61 0
-961 -848 780 0
-68 -483 756 0
-501 672 -911 0
-833 601 13 0
-588 631 -137 0
257 -373 193 0
-980 -339 202 0
758 -356 -231 0
512 307 -44 0
221 760 540 0
973 250 -903 0
-604 -55 -28 0
766 -721 -135 0
-785 -714 94 0
-940 205 545 0
-521 835 722 0
-64 -822 -288 0
213 615 -886 0
-210 -9 612 0
37 836 770 0
-371 708 83 0
593 -646 -645 0
837 -757 -890 0
695 823 -767 0
937 300 460 0
472 -127 -82 0
281 829 640 0
-934 404 -568 0
-331 -744 -428 0
-540 856 -172 0
-744 -37 677 0
-535 888 -606 0
-844 -987 -156 0
-532 618 -958 0
818 284 -276 0
-314 608 514 0
759 -200 946 0
156 796 960 0
13 -667 -285 0
612 -166 245 0
-792 -804 -233 0
-249 -794 -824 0
828 -803 653 0
512 163 -756 0
211 -82 -558 0
402 670 -58 0
-392 867 -242 0
-287 -329 251 0
914 197 957 0
503 903 -763 0
-278 723 172 0
469 965 238 0
289 -614 393 0
-529 -686 128 0
832 -599 792 0
216 -34 26 0
-223 -346 641 0
-441 -979 679 0
-854 86 934 0
500 -624 -368 0
-964 -527 -270 0
805 -200 -44 0
896 814 554 0
-33 -411 -880 0
932 485 -571 0
66 396 -346 0
-333 -314 -105 0
-178 186 725 0
-978 584 -4 0
757 522 -629 0
-856 629 -227 0
932 -607 -275 0
419 -961 -415 0
324 -709 -650 0
-35 698 -51 0
-751 447 549 0
948 904 -831 0
947 -151 699 0
14 784 414 0
481 580 -269 0
-226 -75 222 0
267 -533 728 0
689 -728 920 0
-48 -157 -689 0
815 -938 536 0
348 -645 -107 0
-999 -454 -593 0
796 280 -580 0
-858 136 200 0
-782 399 911 0
-191 244 -940 0
-520 939 359 0
-57 426 362 0
-408 -177 -611 0
-572 -448 648 0
460 109 -457 0
610 617 756 0
266 -159 -959 0
-721 43 -947 0
857 482 -429 0
739 -225 251 0
625 -311 -566 0
308 743 738 0
266 -720 598 0
-808 678 -528 0
-159 -263 -137 0
306 590 32 0
377 819 276 0
-443 -253 -34 0
273 -327 657 0
-72 759 463 0
1 697 704 0
-444 -655 -338 0
-114 -718 -973 0
803 55 -885 0
-448 343 -381 0
-915 -544 -100 0
74 551 570 0
-512 441 -291 0
945 -634 262 0
-629 761 922 0
588 -951 409 0
-542 -735 -191 0
533 -63 934 0
-492 623 -414 0
578 937 831 0
-2 323 -555 0
191 -297 473 0
-875 -908 -8 0
-575 -705 -712 0
231 -219 -104 0
685 -348 -761 0
-765 109 -931 0
-914 182 -590 0
230 273 -377 0
42 138 839 0
66 935 106 0
641 -399 278 0
-679 657 -764 0
529 824 300 0
356 -142 426 0
-871 -263 -594 0
-700 -597 64 0
-655 -862 841 0
482 702 928 0
467 546 -526 0
898 -520 110 0
600 -404 -456 0
114 507 -413 0
-131 -153 384 0
753 -728 -619 0
653 365 -814 0
-34 177 -250 0
-890 729 -335 0
429 -81 -368 0
-176 -158 208 0
-558 -662 -248 0
511 -210 -44 0
-905 236 79 0
-706 743 -159 0
-565 -645 247 0
-4 815 397 0
862 -126 164 0
-420 977 -529 0
894 550 -112 0
-52 238 -903 0
740 70 200 0
-410 -187 -754 0
-230 -894 381 0
182 506 -106 0
-93 14 -885 0
-347 97 378 0
-285 -505 318 0
-224 -501 38 0
587 -381 -169 0
-41 615 -300 0
387 695 847 0
-124 -744 -584 0
615 -114 145 0
-809 -912 986 0
-605 564 473 0
-405 220 -357 0
-780 110 -106 0
112 370 -461 0
-3 -604 -666 0
-729 163 537 0
-450 -372 71 0
405 -301 366 0
637 959 -249 0
-252 787 763 0
722 -840 958 0
-78 867 -539 0
194 -266 341 0
781 -300 -670 0
19 -487 715 0
-567 684 -913 0
956 163 -272 0
-912 234 -463 0
-514 -702 -541 0
-635 -624 -82 0
355 812 936 0
-328 14 919 0
-269 160 178 0
-256 -753 437 0
84 -864 -418 0
94 -798 -673 0
-375 766 -970 0
-996 -456 -549 0
672 551 -815 0
-886 -683 390 0
-652 -526 214 0
-950 17 -843 0
-123 824 366 0
-971 649 950 0
332 -186 96 0
-134 -895 -271 0
-140 926 -780 0
91 -147 774 0
-234 545 69 0
127 14 341 0
998 422 -621 0
-560 549 80 0
154 12 535 0
-525 -869 785 0
-196 186 415 0
-595 -57 489 0
976 -966 -685 0
-270 -32 709 0
847 69 -300 0
242 809 950 0
-417 414 -606 0
227 -666 -444 0
790 -361 34 0
132 773 -384 0
-568 562 -389 0
-524 516 -309 0
-451 432 -990 0
-311 21 993 0
909 184 -208 0
802 3 -469 0
-370 61 693 0
-930 -70 992 0
-204 215 -209 0
653 381 -214 0
707 250 -758 0
-186 -32 -741 0
256 -24 545 0
-643 -358 553 0
255 -539 -746 0
896 -289 294 0
7 -788 -162 0
-908 992 168 0
-614 -29 -549 0
568 964 -142 0
-875 543 -558 0
103 -867 -164 0
-484 -529 -81 0
-724 -321 -87 0
650 268 -954 0
118 -473 -411 0
-951 546 -211 0
-18 213 27 0
341 726 911 0
197 -923 943 0
-799 -958 354 0
906 -532 -64 0
-271 518 -459 0
-647 643 220 0
27 72 -581 0
48 -118 205 0
-662 -57 978 0
-729 -177 121 0
166 771 -936 0
762 -17 119 0
412 394 -700 0
-442 -636 -424 0
-941 -264 -779 0
597 -95 547 0
780 -425 238 0
790 -921 27 0
126 191 529 0
-512 -113 957 0
-762 426 -374 0
-229 497 537 0
-152 -177 -668 0
-900 862 -699 0
384 -737 -976 0
-490 -680 -961 0
641 949 -426 0
-186 233 158 0
-789 476 451 0
-743 -972 900 0
-651 664 -474 0
117 516 503 0
-353 -470 -89 0
-782 413 544 0
-447 -252 196 0
-574 900 -511 0
365 411 -538 0
546 342 -413 0
-295 -619 -506 0
-163 -346 -859 0
-826 521 248 0
-345 315 217 0
648 -641 -283 0
-821 -24 124 0
-651 -833 -319 0
-620 439 386 0
-766 -229 -303 0
210 134 110 0
670 256 818 0
16 161 314 0
848 -342 -210 0
-414 827 270 0
-506 -572 -109 0
247 25 855 0
206 111 116 0
211 245 -433 0
-376 35 -832 0
231 -887 -918 0
-551 -956 -931 0
-425 -488 87 0
-452 -234 996 0
984 -266 -811 0
494 -897 347 0
-321 -64 -851 0
195 -92 -291 0
411 -288 43 0
253 -475 -980 0
48 -785 581 0
-286 -583 87 0
475 -930 337 0
134 -196 -174 0
162 823 -80 0
323 -160 646 0
823 -454 542 0
-357 -496 -485 0
-981 -888 440 0
-894 890 904 0
339 -59 -91 0
-668 442 767 0
118 159 300 0
148 977 477 0
-510 -149 360 0
-228 341 703 0
-871 -196 131 0
-361 560 -706 0
791 -669 267 0
243 435 -682 0
-253 -693 481 0
-983 711 -759 0
178 -617 90 0
-475 -923 -115 0
725 -221 174 0
-550 -366 25 0
260 441 -439 0
353 -277 402 0
142 236 167 0
-277 851 -449 0
-353 509 -783 0
-38 -873 396 0
527 666 368 0
437 -844 360 0
-593 184 637 0
161 -29 833 0
203 -952 252 0
180 -645 -46 0
197 159 664 0
962 -834 -941 0
-664 -916 402 0
933 -613 -837 0
502 -582 -810 0
-654 -821 -494 0
499 -534 -621 0
359 -488 -632 0
-636 -282 439 0
-550 430 -603 0
35 -597 -806 0
314 -91 -563 0
114 -127 -354 0
-856 628 396 0
290 163 392 0
408 841 -346 0
759 -545 -979 0
591 -228 114 0
959 428 638 0
985 -832 626 0
-661 47 695 0
708 327 -919 0
871 341 -856 0
-421 -19 -395 0
-135 -76 -276 0
-937 -679 32 0
165 48 -611 0
-891 -956 -374 0
-608 615 -229 0
615 -346 441 0
-545 -90 284 0
-166 401 -562 0
272 751 652 0
-102 -727 -44 0
171 437 398 0
784 -566 863 0
985 -849 738 0
-64 231 189 0
-581 674 -931 0
214 113 -872 0
992 604 -878 0
423 -613 -384 0
144 776 740 0
327 674 -390 0
138 46 -448 0
-279 -384 880 0
760 -528 863 0
912 359 391 0
715 98 -949 0
-651 -774 900 0
628 100 -960 0
184 -109 -534 0
-226 -12 -62 0
-803 342 -661 0
-973 517 444 0
293 793 324 0
-399 -54 -580 0
-684 -616 619 0
881 345 109 0
-176 -872 -8 0
-264 908 665 0
978 276 -527 0
-684 662 -181 0
361 51 -730 0
582 305 531 0
-388 394 -498 0
121 726 268 0
735 889 -370 0
-735 -953 -83 0
-193 -248 -369 0
-74 760 -296 0
957 -160 -243 0
-653 53 738 0
338 -590 866 0
845 21 918 0
-750 -5 315 0
746 -999 -842 0
797 -124 719 0
507 865 -186 0
-952 -367 983 0
959 -102 666 0
-597 -892 14 0
943 -770 -762 0
-568 -883 737 0
-597 -692 622 0
-277 -464 -571 0
-488 249 172 0
225 -646 -904 0
292 849 810 0
75 -565 795 0
-359 -898 -599 0
-596 617 -594 0
599 -534 -911 0
-601 741 809 0
-612 844 168 0
-604 -158 518 0
-650 -60 -389 0
899 -500 -358 0
71 -605 936 0
-345 -106 -627 0
388 377 195 0
735 -467 878 0
-121 111 -394 0
157 502 366 0
-534 953 401 0
-69 688 -371 0
394 607 -137 0
496 674 869 0
-886 672 841 0
1000 61 994 0
-832 316 -129 0
55 -641 771 0
-633 81 -507 0
-681 83 -117 0
-900 922 -80 0
-764 -784 -98 0
-184 854 -391 0
-879 284 -583 0
978 -470 -835 0
-747 -409 777 0
-278 161 -273 0
590 -804 554 0
-34 -353 -922 0
-807 -342 636 0
-926 -839 820 0
-784 521 -696 0
62 -462 -101 0
372 -449 -952 0
551 -823 920 0
-631 53 -232 0
-925 -365 595 0
483 -888 -815 0
98 869 620 0
-313 68 -789 0
-611 -951 546 0
289 -934 592 0
-49 -146 789 0
-954 -881 16 0
-199 -498 506 0
92 973 171 0
-949 -870 -287 0
808 -174 -154 0
-273 -839 -725 0
903 -308 444 0
287 -195 -911 0
478 -1000 -227 0
726 -703 -877 0
-819 256 871 0
334 -97 -789 0
217 -273 -647 0
943 -833 -986 0
448 -805 -575 0
568 430 -864 0
-683 914 -127 0
790 -373 -660 0
-910 239 726 0
-284 984 303 0
-10 -492 -657 0
228 680 843 0
-60 804 -92 0
-947 -946 -568 0
-853 -462 -900 0
-671 373 32 0
-944 -780 406 0
953 116 595 0
-981 -265 -815 0
117 -925 355 0
-609 201 880 0
-434 -179 362 0
-260 -244 -847 0
-205 -191 213 0
880 -465 -926 0
423 348 5 0
863 305 -743 0
871 -477 58 0
901 543 -255 0
150 758 729 0
-840 -590 997 0
-731 262 -743 0
-867 384 76 0
832 -310 533 0
25 153 -391 0
542 29 -484 0
933 -826 340 0
258 228 -711 0
218 790 -555 0
-989 -621 778 0
-450 -927 -523 0
741 -648 -24 0
478 929 825 0
-494 733 -617 0
671 -30 -545 0
534 -393 608 0
-893 124 -543 0
19 990 -23 0
-537 -764 167 0
182 443 -544 0
-13 -688 -593 0
201 -819 -371 0
60 758 -301 0
-214 -647 -635 0
964 -75 -265 0
-405 386 -824 0
803 -431 133 0
671 849 -77 0
-711 -431 283 0
648 676 -859 0
-239 -122 -612 0
327 415 278 0
421 684 950 0
222 165 623 0
982 -774 417 0
11 988 -594 0
-100 930 -127 0
-603 490 -231 0
230 -737 2 0
-681 998 385 0
767 -380 293 0
-636 -34 233 0
529 144 -636 0
-906 965 -144 0
-123 480 -562 0
-249 -328 535 0
-441 -644 415 0
536 444 512 0
240 673 -247 0
-37 44 -455 0
-269 487 -176 0
-688 453 -979 0
-859 702 -628 0
-282 -340 -287 0
-884 -888 -608 0
550 824 758 0
650 688 31 0
-893 538 -387 0
-609 -298 797 0
-113 371 -137 0
762 -761 -854 0
737 304 -692 0
107 339 484 0
-655 -656 -663 0
680 -584 481 0
8 639 641 0
-284 754 142 0
174 456 656 0
-501 -673 233 0
809 -73 -466 0
-925 -994 789 0
-310 124 -524 0
-455 815 591 0
-603 -77 -546 0
-354 -925 -657 0
-817 -325 582 0
-712 770 579 0
836 583 -12 0
21 -90 -821 0
874 -996 219 0
-497 989 -324 0
120 678 268 0
15 -997 -174 0
896 849 -644 0
-677 -470 -847 0
-741 876 -236 0
309 604 -493 0
871 -897 -2 0
889 593 886 0
-123 667 -407 0
-226 -931 561 0
957 -209 75 0
807 311 993 0
355 -827 -889 0
-108 317 -642 0
321 389 -112 0
428 342 813 0
382 -111 -803 0
742 568 507 0
-949 911 229 0
-840 -719 -507 0
-901 -822 -535 0
11 680 -421 0
224 -776 414 0
953 -730 -800 0
-24 -794 -389 0
157 616 165 0
-91 -950 -583 0
897 707 -836 0
762 -304 275 0
399 -598 168 0
973 -756 -477 0
493 640 198 0
412 -90 179 0
-612 -305 562 0
-209 -824 -992 0
740 557 -571 0
-376 -978 -645 0
348 715 891 0
-921 -181 645 0
262 630 849 0
815 971 627 0
44 -278 -260 0
-328 612 491 0
550 -168 -922 0
-763 -888 -511 0
-404 746 276 0
577 -648 290 0
715 -925 566 0
-5 726 -175 0
-299 181 373 0
-444 567 518 0
-616 545 452 0
837 952 -933 0
-285 985 -646 0
583 858 810 0
-85 -389 -602 0
608 261 160 0
-491 97 545 0
744 478 308 0
-521 -240 57 0
141 -308 165 0
375 545 -712 0
-533 -53 901 0
782 509 -197 0
808 -893 830 0
-603 82 712 0
-903 -949 620 0
-266 -173 996 0
-766 -860 -400 0
572 430 -888 0
109 100 621 0
-629 988 -681 0
350 72 344 0
577 599 -537 0
805 671 485 0
341 -547 -467 0
169 -553 -574 0
-792 800 172 0
-857 735 538 0
754 467 -83 0
-981 -571 476 0
-733 725 -451 0
706 975 175 0
755 494 -777 0
-909 -905 -819 0
-67 908 -895 0
429 493 -678 0
-869 174 -572 0
-869 913 315 0
-325 810 -744 0
889 -135 511 0
-821 -712 382 0
219 -970 277 0
-801 952 650 0
736 -45 46 0
-548 -162 134 0
115 -666 -910 0
175 -96 -721 0
-229 -278 -981 0
491 -427 979 0
-760 -609 596 0
-970 -101 -697 0
-843 -879 -121 0
691 868 -297 0
289 961 -86 0
-591 -34 -649 0
-433 -929 348 0
-715 -770 -673 0
-901 954 -555 0
904 71 229 0
111 -543 -339 0
948 -921 -60 0
-533 -457 410 0
-675 908 860 0
910 642 605 0
-537 964 -751 0
935 -480 -993 0
656 359 965 0
293 -418 436 0
-671 -69 605 0
39 519 -181 0
182 537 710 0
-794 -826 844 0
441 -317 -533 0
331 -900 -527 0
648 -154 -213 0
664 -200 584 0
-294 248 -246 0
-522 -240 827 0
-806 612 -998 0
887 -499 60 0
815 45 -505 0
119 298 -873 0
560 -556 -244 0
-232 290 528 0
918 960 247 0
882 -219 70 0
-249 915 -697 0
-45 234 619 0
-817 101 -678 0
-538 -459 -789 0
-474 -435 -49 0
372 966 279 0
-743 361 -705 0
-709 415 204 0
632 239 -463 0
10 -504 -463 0
354 -373 328 0
552 435 -711 0
407 -394 744 0
883 842 433 0
557 -281 603 0
654 -96 -636 0
376 -106 -946 0
529 644 -404 0
-525 487 -954 0
-88 -146 -425 0
-999 -637 -900 0
-531 88 30 0
-103 119 -625 0
434 32 706 0
-51 148 -503 0
-492 -835 437 0
858 821 805 0
-371 -930 -743 0
436 -103 534 0
806 -710 -921 0
-794 -919 -848 0
-797 -145 -2 0
-675 -259 832 0
890 -965 -667 0
-428 727 -236 0
650 -715 154 0
-313 -990 593 0
-895 274 785 0
657 499 -171 0
966 -553 571 0
-996 856 -940 0
117 -853 112 0
918 -449 127 0
-162 266 -997 0
-183 -923 -358 0
310 295 -682 0
-442 570 -29 0
640 -326 -910 0
-196 306 764 0
-1 657 -810 0
391 512 520 0
12 -616 809 0
-469 -616 33 0
-522 745 -129 0
49 120 534 0
-343 -984 -408 0
-919 -235 21 0
-973 954 -617 0
-75 -505 645 0
-742 172 -867 0
-645 859 245 0
459 -292 943 0
-517 -148 -260 0
801 549 970 0
-137 131 836 0
637 -52 946 0
-948 463 745 0
603 -576 849 0
-187 831 640 0
211 999 384 0
-893 864 -750 0
-841 31 -442 0
821 -12 354 0
444 -815 626 0
87 501 -990 0
-761 -894 -663 0
160 241 -94 0
-879 524 -235 0
280 -672 799 0
-566 -318 -99 0
125 -264 625 0
215 -141 -382 0
-998 820 -8 0
-685 824 -857 0
600 75 646 0
-678 -457 -991 0
250 506 734 0
-291 -871 322 0
-79 908 -392 0
409 -534 -852 0
-398 -560 -542 0
-558 -649 -126 0
731 42 -633 0
390 -762 892 0
-613 816 711 0
-199 -433 -221 0
194 -55 249 0
-620 789 727 0
-181 -256 -490 0
-216 -960 87 0
-151 422 -810 0
-495 -421 851 0
-75 960 -566 0
955 595 -61 0
-669 772 -382 0
-660 -262 -606 0
-544 512 834 0
-568 840 449 0
-984 -232 1 0
517 950 627 0
60 647 128 0
103 -28 643 0
-6 232 722 0
297 950 -926 0
682 -533 -393 0
-643 -804 790 0
-98 301 477 0
347 993 687 0
599 -570 -818 0
389 188 -334 0
-438 -92 -510 0
656 -286 -348 0
-514 -378 -570 0
-736 781 -572 0
175 875 66 0
-454 366 -598 0
-133 528 588 0
662 974 136 0
-591 -522 -462 0
943 630 935 0
-823 535 948 0
976 629 -68 0
-868 -315 -893 0
350 -107 -426 0
18 -587 -541 0
-153 -31 -945 0
534 -24 466 0
-766 -322 246 0
101 -743 773 0
595 -188 943 0
354 872 -140 0
815 290 -584 0
706 -952 -518 0
-635 466 731 0
798 493 -306 0
379 -160 -829 0
-362 -781 -717 0
432 387 74 0
-369 634 428 0
255 -375 659 0
-664 -477 884 0
-94 625 982 0
-369 -963 -705 0
-940 196 592 0
-489 -234 -830 0
-717 -779 -549 0
753 -828 -738 0
958 191 736 0
-354 -164 -699 0
412 -153 -543 0
-297 882 -872 0
-931 -277 -659 0
32 130 -824 0
451 945 -541 0
-171 -916 -821 0
-797 -633 662 0
-190 845 -143 0
-311 -446 -344 0
514 37 968 0
394 -696 534 0
591 437 -121 0
-762 -343 372 0
-706 730 -135 0
843 330 414 0
661 -182 -825 0
-483 146 734 0
242 940 440 0
353 -715 60 0
654 -605 197 0
272 -475 -360 0
755 -205 -440 0
32 24 681 0
-745 -502 -99 0
-63 -569 280 0
-734 -962 -519 0
-423 917 -784 0
-321 -289 -586 0
551 754 607 0
-987 -437 441 0
52 -476 -471 0
-665 -679 422 0
487 -642 -461 0
-421 -909 242 0
-296 -55 -931 0
-813 -244 -718 0
869 -198 -853 0
462 -947 -802 0
911 -516 -250 0
-549 -757 395 0
-272 -67 -885 0
972 792 -30 0
306 223 653 0
990 160 -509 0
-332 762 310 0
409 -970 13 0
-368 958 -315 0
-951 617 -466 0
-619 714 -73 0
-287 -983 138 0
-931 -982 -671 0
-785 926 -897 0
-607 -365 68 0
990 466 -16 0
403 941 -172 0
-971 924 -448 0
-132 -134 597 0
341 -947 488 0
418 595 -6 0
-540 15 354 0
275 498 821 0
-770 829 415 0
259 -75 -279 0
-89 -43 -567 0
-535 -365 -755 0
159 -984 -673 0
538 -458 831 0
868 -628 411 0
-114 622 837 0
365 -776 848 0
586 -492 397 0
687 -966 67 0
441 116 982 0
-811 100 420 0
667 855 -398 0
-708 -629 396 0
522 -536 115 0
-107 702 313 0
278 766 398 0
-862 582 835 0
-655 -855 -762 0
341 -797 97 0
-261 104 -189 0
-146 439 489 0
801 333 -625 0
-998 722 -658 0
-676 -196 -797 0
364 825 933 0
-106 253 -261 0
-979 -989 -544 0
-541 -153 876 0
-650 925 621 0
-80 -834 266 0
-461 -583 -760 0
630 -421 378 0
-771 -369 -972 0
357 822 -910 0
377 167 -685 0
-618 -699 -636 0
174 -631 -701 0
-715 325 407 0
-10 -250 -1 0
994 -30 755 0
231 -159 906 0
-525 751 -444 0
-217 -167 -960 0
-975 -212 -585 0
-861 816 -939 0
-64 -210 -228 0
-856 -799 394 0
656 45 -12 0
-445 -686 503 0
193 525 -222 0
-418 726 449 0
992 -276 258 0
144 689 -860 0
956 201 493 0
-288 366 -478 0
-656 26 -64 0
-146 -162 636 0
-598 -22 585 0
-649 270 519 0
168 -327 -182 0
440 982 929 0
77 709 156 0
133 -565 -358 0
-475 652 -88 0
-383 -829 -367 0
560 10 26 0
375 -473 531 0
-321 726 728 0
-627 -390 -556 0
-3 -734 -426 0
-679 -949 408 0
165 -503 -463 0
556 -281 170 0
-741 -614 34 0
897 -147 851 0
-340 -240 -736 0
-538 547 50 0
-540 75 504 0
173 -909 783 0
312 887 799 0
124 185 869 0
-437 -94 498 0
130 -972 -266 0
482 387 -649 0
-594 -296 346 0
702 212 -86 0
912 -975 792 0
38 780 -311 0
722 -313 -494 0
-550 980 -59 0
-764 132 -169 0
151 -777 -851 0
377 -129 723 0
-650 -638 902 0
62 -25 -710 0
448 83 -758 0
300 -917 371 0
-842 304 890 0
246 842 40 0
-706 -501 -129 0
539 549 798 0
164 -628 -160 0
-341 678 -929 0
-411 -573 820 0
235 321 -252 0
504 -32 31 0
854 -26 751 0
67 -51 492 0
903 -89 -799 0
-485 -221 391 0
588 -56 403 0
-507 349 -315 0
-232 -29 196 0
-884 668 555 0
858 -675 90 0
-490 315 -690 0
-967 -106 -302 0
-780 111 763 0
-227 374 -525 0
-613 214 -222 0
-935 3 306 0
61 474 -379 0
-37 -996 757 0
670 188 -359 0
-218 -11 -905 0
157 883 -166 0
-367 -175 223 0
982 -973 89 0
50 118 -362 0
-872 -658 776 0
-39 -878 -687 0
-440 404 85 0
-453 -639 557 0
367 -602 5 0
170 -232 -347 0
441 886 -619 0
-915 341 275 0
-346 -293 -741 0
164 520 -554 0
461 914 -575 0
-789 440 -242 0
609 828 11 0
276 117 868 0
674 -136 -709 0
768 653 -217 0
880 919 85 0
-989 -179 -194 0
368 270 648 0
283 71 -904 0
798 -666 -69 0
903 -886 -1000 0
-616 926 -85 0
-749 280 419 0
47 4 -92 0
796 687 483 0
-413 982 75 0
755 463 -288 0
597 -977 -958 0
785 -752 69 0
-106 -88 847 0
-550 -6 953 0
-150 271 140 0
566 352 -982 0
598 194 -962 0
-895 -47 -367 0
588 441 -645 0
-129 -323 -753 0
983 680 407 0
936 991 487 0
-36 690 94 0
530 -701 -708 0
507 686 969 0
-425 397 167 0
556 194 -292 0
13 -615 204 0
-720 894 635 0
-39 -574 266 0
-704 -543 -213 0
-562 -901 -487 0
261 -223 435 0
263 -428 131 0
-676 211 527 0
318 132 -330 0
310 -335 486 0
88 -425 -454 0
-319 437 117 0
125 -464 810 0
-866 -160 -22 0
611 674 -386 0
-779 734 187 0
586 574 -121 0
589 139 -828 0
257 -731 -845 0
-390 53 -633 0
938 630 -676 0
138 -162 988 0
475 -889 453 0
252 -732 389 0
-759 875 228 0
-340 998 138 0
994 21 457 0
945 345 801 0
219 -670 -194 0
185 86 -849 0
-867 85 294 0
467 762 16 0
122 -392 787 0
-119 94 -552 0
-804 -658 -293 0
231 449 -949 0
-415 276 -979 0
-1000 -989 166 0
295 -200 832 0
-288 -796 843 0
793 -847 931 0
11 142 137 0
766 123 372 0
-289 -334 840 0
720 -674 24 0
906 -299 -928 0
-313 528 -430 0
-670 636 -871 0
696 412 327 0
-59 -382 178 0
-31 -117 532 0
144 -795 -201 0
-792 -157 -718 0
-696 384 418 0
-431 233 784 0
-185 -301 279 0
526 -245 431 0
32 182 507 0
233 30 -561 0
-722 -683 837 0
788 82 961 0
-155 267 -586 0
55 221 -808 0
983 -456 -633 0
22 19 518 0
-292 307 769 0
-378 268 506 0
-492 -854 -140 0
95 -12 -483 0
221 -211 822 0
-890 -170 451 0
-45 -431 950 0
412 563 702 0
-411 991 75 0
-491 657 -253 0
-55 69 862 0
166 501 696 0
712 -70 116 0
336 104 -775 0
733 198 -939 0
-11 -294 989 0
346 -153 147 0
-111 85 501 0
819 -585 531 0
549 89 -519 0
-916 385 -705 0
251 71 -28 0
-43 -518 544 0
-382 102 722 0
-40 -282 825 0
146 17 -269 0
135 553 -347 0
692 -501 -725 0
311 390 -763 0
919 663 -948 0
950 535 60 0
-118 -894 67 0
-172 -965 -391 0
776 -582 -365 0
-736 -591 -266 0
866 4 13 0
-570 -899 -909 0
-824 496 -811 0
152 -247 144 0
-453 67 -554 0
339 402 -156 0
833 -804 -98 0
-561 692 48 0
-631 -256 -837 0
572 -733 -775 0
540 -444 280 0
938 -250 306 0
690 -452 -602 0
859 -565 174 0
859 -51 -456 0
-683 -625 144 0
893 692 -653 0
785 869 -267 0
336 156 -378 0
456 -525 -881 0
762 659 -96 0
-163 -962 438 0
-928 -215 -387 0
-924 257 -591 0
746 29 -345 0
7 187 -26 0
987 793 433 0
-751 -240 -547 0
-750 -263 110 0
207 -65 384 0
-197 -365 995 0
905 743 230 0
-219 246 84 0
-798 -150 712 0
-427 393 670 0
-207 -564 -387 0
-669 -652 704 0
-698 -512 568 0
899 519 679 0
232 477 781 0
883 127 94 0
643 260 -86 0
998 853 145 0
125 255 10 0
-707 -526 194 0
574 -488 -968 0
814 45 -335 0
-887 -692 -225 0
-45 -111 561 0
-55 511 -122 0
150 724 -261 0
198 647 -523 0
-542 111 -569 0
-398 -298 414 0
527 -902 223 0
918 -805 -883 0
-687 995 786 0
790 -484 613 0
907 150 13 0
-847 499 320 0
-348 521 -939 0
-355 -86 -198 0
-196 872 32 0
-895 -534 36 0
812 -18 169 0
267 -709 -591 0
-74 -341 -755 0
231 -685 -86 0
-749 122 676 0
-525 549 898 0
-747 69 203 0
137 -490 -483 0
427 -479 -89 0
-93 -879 603 0
-931 224 331 0
717 -974 -926 0
610 319 485 0
700 -642 -22 0
-937 -704 -422 0
-430 964 230 0
883 985 965 0
-848 -276 578 0
248 442 -168 0
-561 -104 -151 0
-793 -682 94 0
-937 16 632 0
-234 -95 271 0
424 -40 836 0
527 -795 -860 0
-597 -263 267 0
-434 -272 -19 0
935 35 -930 0
-897 -874 -159 0
-821 -602 -625 0
-204 70 -621 0
-17 -863 751 0
645 92 -777 0
950 234 143 0
700 -799 -697 0
-271 854 -404 0
-291 109 101 0
892 689 667 0
-474 643 -74 0
196 756 41 0
166 -692 -173 0
-405 -845 927 0
842 254 -377 0
661 230 748 0
-49 -650 932 0
919 -863 589 0
-335 615 -157 0
-654 -894 296 0
840 -665 -655 0
-514 298 251 0
882 -341 -947 0
828 616 -393 0
-665 677 -20 0
165 862 811 0
-955 -521 -104 0
634 398 -934 0
-624 -239 171 0
919 -256 192 0
-522 -803 934 0
392 -381 475 0
419 59 418 0
916 -828 -60 0
945 296 -80 0
-155 -716 908 0
-710 858 -855 0
440 823 -254 0
-903 -242 325 0
25 468 -574 0
-765 391 -7 0
249 -959 -25 0
-70 -394 -716 0
241 297 -615 0
228 -732 93 0
-204 473 655 0
-804 -212 -122 0
387 998 -667 0
575 855 -832 0
-693 -124 -804 0
151 767 -31 0
137 753 830 0
708 732 -973 0
-2 185 876 0
-356 -283 406 0
-497 -608 -943 0
41 301 -348 0
-160 -729 -866 0
742 -619 -774 0
-558 -772 671 0
724 -773 -748 0
-318 -319 434 0
-59 175 -584 0
879 -185 385 0
268 -679 -523 0
545 -22 163 0
396 562 -44 0
-14 -107 252 0
-987 290 339 0
4 -735 -304 0
225 815 391 0
712 298 -611 0
788 873 779 0
282 95 -919 0
415 156 -660 0
97 267 -84 0
-160 441 -522 0
13 999 -414 0
758 218 992 0
442 66 -155 0
-352 -907 775 0
270 382 -529 0
863 293 -787 0
530 40 -882 0
977 162 -94 0
242 257 -664 0
174 503 524 0
-720 853 -910 0
-937 -278 374 0
-998 588 774 0
-111 886 790 0
-489 -925 697 0
-136 -993 62 0
450 956 767 0
-314 797 942 0
612 -67 -571 0
142 244 -302 0
4 -114 448 0
622 994 -234 0
369 226 -77 0
958 684 144 0
440 -496 -754 0
636 806 -231 0
-981 -241 -816 0
6 359 -66 0
-956 486 589 0
335 -325 40 0
-592 618 -278 0
968 -63 -5 0
973 601 978 0
-663 -380 637 0
126 -253 283 0
547 423 -805 0
941 -264 -350 0
279 -43 -32 0
-40 -646 520 0
171 -843 -880 0
-804 704 -481 0
-457 64 56 0
204 -743 705 0
-228 452 -712 0
-125 -263 480 0
596 431 896 0
-4 316 114 0
148 530 -622 0
-388 -332 461 0
910 708 36 0
-213 -280 -450 0
271 -196 856 0
157 -830 946 0
-386 -539 -201 0
213 -490 196 0
-112 866 -429 0
833 62 138 0
224 -398 -764 0
-177 767 801 0
762 658 -742 0
-563 296 -110 0
865 -243 677 0
-792 -945 125 0
-972 -357 -367 0
280 605 -58 0
452 708 -631 0
512 523 -4 0
-70 -859 -835 0
913 787 778 0
-848 565 -537 0
184 171 532 0
416 -356 429 0
419 908 123 0
-96 373 290 0
-767 899 -630 0
741 -942 795 0
549 -850 456 0
860 -462 -653 0
-866 549 226 0
396 749 357 0
-673 -681 633 0
-707 -99 621 0
619 -585 -673 0
-212 715 -593 0
-622 -856 -326 0
247 -994 -501 0
-430 -416 76 0
450 -677 -490 0
503 23 -611 0
33 -999 -405 0
938 -576 917 0
206 363 18 0
995 979 -115 0
361 381 248 0
422 -396 -214 0
-35 319 -658 0
585 -860 800 0
681 7 -431 0
-207 -262 -933 0
-192 -667 -851 0
991 573 576 0
-778 -440 -97 0
982 166 -507 0
-668 526 -274 0
-858 442 940 0
-14 477 928 0
300 -422 603 0
187 271 -828 0
787 -166 568 0
-232 -157 -589 0
954 373 -557 0
-816 -18 -990 0
849 -804 106 0
392 947 -551 0
-995 -640 721 0
700 -285 789 0
364 928 625 0
-110 742 193 0
-523 -111 347 0
412 618 -522 0
-407 -597 -461 0
285 927 -84 0
-685 -299 179 0
85 -440 776 0
501 -165 691 0
844 -840 -949 0
-927 511 477 0
634 -950 584 0
99 -65 -387 0
-439 350 304 0
391 -187 -222 0
96 -169 -3 0
-534 -191 393 0
-765 -169 530 0
265 173 -272 0
-509 -67 -259 0
-319 696 637 0
-994 -704 528 0
872 549 263 0
-530 -477 -653 0
337 793 -696 0
-897 -308 -646 0
897 608 -882 0
-353 484 676 0
607 414 -588 0
722 -476 395 0
-681 98 955 0
152 866 -923 0
-569 209 -712 0
-561 -374 388 0
-664 -1000 790 0
-452 -903 186 0
-331 491 -423 0
-501 677 733 0
-872 -416 -632 0
-100 -257 809 0
-967 -330 -158 0
-301 -196 515 0
-693 -486 -702 0
-309 -349 -179 0
-879 427 -906 0
-689 399 -617 0
-817 -261 -788 0
-610 954 861 0
-910 -860 567 0
69 -685 16 0
-193 467 355 0
-671 -151 -83 0
-76 -543 -875 0
-486 518 970 0
72 -452 -284 0
297 -69 -645 0
-789 222 575 0
527 495 17 0
262 -726 -576 0
-215 132 -688 0
-841 -378 638 0
759 816 -412 0
701 218 329 0
466 835 20 0
-725 -167 -146 0
-156 -237 350 0
-729 -518 -217 0
431 -242 160 0
-407 -217 249 0
178 781 18 0
-340 -14 239 0
536 869 -788 0
-132 954 94 0
104 329 981 0
249 -479 -523 0
-710 -449 -756 0
-848 -719 -119 0
862 555 -692 0
172 620 572 0
93 -963 -828 0
-845 -659 763 0
674 46 -653 0
228 593 381 0
-473 409 -539 0
-211 214 -914 0
179 -538 273 0
522 622 175 0
-218 -780 -629 0
-615 588 -9 0
-764 -419 531 0
-160 -810 -385 0
-198 -901 356 0
-823 -995 -45 0
923 -254 581 0
190 -999 839 0
269 -745 -691 0
229 46 600 0
546 542 62 0
-555 949 867 0
-995 291 357 0
269 -845 667 0
753 -350 -592 0
186 569 519 0
-870 -291 554 0
-425 740 285 0
-774 246 429 0
161 357 290 0
-427 111 1000 0
748 -678 228 0
2 -261 -627 0
779 956 -379 0
-621 542 -512 0
528 599 -481 0
719 949 873 0
-207 973 446 0
393 983 -129 0
-611 -745 989 0
2 -311 -703 0
-186 -747 -622 0
162 691 532 0
710 269 179 0
-552 -545 904 0
475 721 -227 0
829 522 -898 0
-710 -150 -702 0
992 432 -714 0
-590 -213 -905 0
851 627 815 0
-935 -543 942 0
-519 -536 -609 0
-740 763 -28 0
-363 -576 -503 0
19 -521 493 0
915 -199 857 0
-957 489 298 0
-168 999 368 0
-374 253 827 0
86 952 -705 0
-814 483 -372 0
175 210 -713 0
-552 465 -521 0
-300 566 -99 0
366 538 583 0
-762 600 844 0
-518 -734 -944 0
-350 -419 -691 0
550 -925 -325 0
113 437 -668 0
55 -712 974 0
-210 809 34 0
-539 287 671 0
908 -235 -243 0
918 -800 -710 0
-336 -682 528 0
-199 84 -205 0
156 -456 411 0
-591 43 875 0
651 489 -329 0
444 -8 295 0
-131 424 -754 0
587 -991 -477 0
-803 474 352 0
534 85 396 0
324 849 -964 0
-908 256 257 0
-601 410 679 0
851 -798 530 0
-452 -818 -457 0
549 -645 165 0
-211 890 -983 0
495 162 -768 0
873 -794 758 0
827 -122 500 0
-113 666 -687 0
-292 530 795 0
-4 -531 971 0
-238 55 -826 0
271 397 -662 0
-798 -86 791 0
462 547 -678 0
167 -152 -145 0
478 708 -861 0
-92 859 529 0
-713 852 -450 0
-548 -624 732 0
-454 -699 -210 0
-490 -71 534 0
-336 202 551 0
337 -987 228 0
-837 233 -915 0
-147 864 342 0
252 227 235 0
-138 -906 826 0
-781 616 -869 0
611 -227 -898 0
-445 38 679 0
-349 -194 980 0
587 -22 740 0
270 718 -883 0
122 -852 123 0
-656 -487 580 0
38 -588 791 0
-291 -185 -588 0
179 903 653 0
-624 -212 25 0
21 -482 -595 0
691 36 -490 0
684 -494 595 0
268 -433 816 0
-92 -665 -757 0
515 -50 -558 0
957 181 140 0
96 862 787 0
-459 -697 538 0
-296 312 -319 0
-982 -577 263 0
-244 -743 166 0
-789 -978 -420 0
206 -427 -716 0
-543 16 884 0
287 915 120 0
176 -719 696 0
-36 379 -914 0
376 -507 -769 0
-339 317 -156 0
765 -781 -34 0
-805 -179 -161 0
951 125 730 0
828 -885 455 0
935 224 372 0
942 104 453 0
-837 -406 25 0
-147 875 890 0
62 448 -684 0
638 -205 -43 0
-487 -369 1 0
-401 574 -250 0
86 775 411 0
712 6 -408 0
750 200 -493 0
-827 738 -874 0
-322 -347 -110 0
522 730 442 0
541 798 464 0
-96 553 297 0
-70 -266 -769 0
-854 367 -100 0
-461 -855 591 0
896 -403 -811 0
-454 174 -247 0
696 -737 438 0
177 -647 -554 0
219 412 -487 0
-871 -403 -472 0
-882 -210 -799 0
800 441 -971 0
291 -677 444 0
-533 808 -850 0
110 168 -520 0
872 512 447 0
453 -364 761 0
-836 -228 719 0
993 -651 -576 0
-583 -402 -144 0
740 583 -558 0
-335 -529 765 0
750 -693 314 0
767 -124 136 0
775 593 -511 0
-601 627 110 0
149 -623 -437 0
190 -117 107 0
-812 -300 898 0
-609 256 767 0
328 981 -897 0
592 -807 191 0
971 -981 -508 0
168 426 255 0
-127 -121 49 0
-888 450 -815 0
-638 296 -659 0
-45 -409 637 0
289 262 -308 0
-682 549 -138 0
-955 -926 953 0
-651 -878 -806 0
693 -648 750 0
-211 -883 834 0
709 989 9 0
149 831 72 0
452 -128 985 0
-658 337 -192 0
600 -321 -249 0
-243 -191 -533 0
898 232 -557 0
576 -665 -654 0
-769 -930 -210 0
-258 791 255 0
934 -318 655 0
454 802 323 0
-978 233 -187 0
-953 424 124 0
-78 -199 -924 0
-75 -524 -625 0
-579 109 -1000 0
-790 839 246 0
