p cnf 500 1100
317 72 -399 0
156 -175 449 0
304 263 13 0
-108 -483 374 0
-179 -296 -137 0
-332 386 -361 0
-498 198 -131 0
-243 204 195 0
-329 103 428 0
-462 147 -452 0
362 500 41 0
150 -109 189 0
-74 140 1 0
-263 181 155 0
188 -92 204 0
94 -277 -210 0
-209 64 404 0
-139 17 313 0
-339 71 13 0
311 -394 470 0
-459 -320 -381 0
-227 -250 -65 0
130 65 -390 0
-268 243 -50 0
-218 -366 249 0
209 242 277 0
8 -266 204 0
205 -254 441 0
278 -135 -26 0
435 282 331 0
-495 -150 -61 0
-178 -449 -391 0
210 -180 -285 0
-83 277 336 0
-183 -33 65 0
-480 -124 457 0
161 -357 -78 0
260 -422 -63 0
-200 -257 151 0
190 -195 -246 0
375 -281 192 0
273 257 -484 0
-116 -500 195 0
214 228 232 0
-111 -493 -137 0
-195 -210 -476 0
364 -29 71 0
484 -262 -96 0
-144 194 472 0
-422 -6 244 0
-263 -319 62 0
-470 -473 131 0
-424 351 -19 0
368 -362 -23 0
-383 171 -430 0
474 149 -89 0
162 -92 469 0
228 -266 9 0
-43 367 30 0
51 -67 141 0
-20 -165 -285 0
-46 233 -484 0
-121 130 49 0
-22 104 164 0
113 -28 -389 0
-77 222 434 0
-90 389 152 0
-386 -415 -72 0
122 206 -498 0
-136 73 -484 0
381 -19 155 0
359 446 -197 0
-100 -494 448 0
72 303 -272 0
208 -453 271 0
-98 9 -292 0
388 -195 238 0
-25 348 -167 0
358 -212 287 0
376 -97 -204 0
141 -225 -99 0
154 445 338 0
-38 -66 473 0
292 270 150 0
-159 -16 -411 0
-232 116 179 0
-254 150 -374 0
-363 437 -102 0
-460 26 38 0
118 241 -270 0
-400 445 -340 0
264 -483 -262 0
102 -99 -114 0
-32 -488 -300 0
-430 42 219 0
-319 239 162 0
-497 424 -317 0
-483 -335 -352 0
-383 -227 -273 0
-477 131 353 0
359 34 93 0
-190 26 -266 0
204 -333 -256 0
-209 155 -431 0
283 -410 -473 0
498 -490 -358 0
-291 -298 119 0
-420 27 -18 0
223 -63 -449 0
-405 -299 432 0
62 495 242 0
178 76 -500 0
-220 -366 -332 0
329 194 -67 0
-369 480 400 0
-124 24 -36 0
-65 -417 -301 0
-159 30 -476 0
-46 58 -180 0
157 184 -254 0
-333 -237 117 0
-336 498 -228 0
337 187 470 0
417 -337 -27 0
-464 -417 210 0
411 -133 -464 0
-442 -452 -351 0
287 -125 430 0
379 357 207 0
203 -334 329 0
140 273 32 0
430 221 137 0
367 -396 412 0
-482 143 95 0
-498 367 -88 0
-168 2 460 0
-172 25 -7 0
471 194 344 0
188 265 191 0
207 297 121 0
345 318 377 0
-439 -210 435 0
-37 387 487 0
159 -2 -179 0
-469 40 217 0
-393 -485 119 0
-495 -95 348 0
-200 155 -364 0
297 -42 233 0
149 337 343 0
109 -404 360 0
-281 314 436 0
-321 -145 -357 0
-499 92 -21 0
-474 87 282 0
8 160 -288 0
-262 433 408 0
-477 293 -423 0
-354 -225 359 0
31 242 -409 0
274 -499 387 0
423 314 -363 0
-457 158 254 0
-307 -38 -30 0
-4 376 -100 0
434 86 -94 0
269 158 328 0
-271 -327 -170 0
-142 -87 218 0
374 34 44 0
-451 427 -39 0
-204 -196 87 0
-286 -209 -82 0
378 161 20 0
176 -183 -43 0
253 27 95 0
-43 289 221 0
383 474 488 0
458 481 -393 0
-28 486 -262 0
191 -4 251 0
80 214 -62 0
453 252 340 0
328 85 -61 0
6 -154 146 0
-321 72 135 0
134 50 477 0
-268 428 16 0
-83 -294 496 0
-235 -298 -364 0
382 -154 454 0
310 458 -216 0
-159 -296 476 0
54 214 -345 0
214 -299 381 0
363 -33 234 0
-135 -8 -133 0
-98 325 -318 0
468 70 -43 0
16 -434 405 0
314 -398 386 0
370 457 -175 0
363 -52 -484 0
271 286 265 0
37 -147 -61 0
343 99 333 0
-182 -479 -411 0
-156 -103 474 0
413 56 -318 0
-483 65 22 0
-54 323 -131 0
367 104 -464 0
-201 -27 -153 0
-116 323 120 0
-342 -46 -64 0
89 422 38 0
-70 62 384 0
-294 -481 -491 0
395 -253 -123 0
-98 344 -273 0
-305 -149 26 0
358 -265 -424 0
286 -296 430 0
-143 -404 -435 0
31 -157 366 0
381 102 37 0
-370 9 -357 0
185 50 -171 0
467 -171 486 0
-456 -346 47 0
-82 -69 302 0
-327 130 389 0
231 133 -402 0
73 187 -454 0
-287 392 9 0
174 417 -330 0
-115 157 -177 0
-48 336 -461 0
-56 -221 -78 0
-322 433 334 0
2 -485 146 0
196 -72 419 0
489 -246 -75 0
205 58 -489 0
443 -382 -25 0
367 396 -97 0
-82 229 -495 0
-113 494 -243 0
-181 -313 376 0
-128 -287 -455 0
294 246 79 0
195 445 -219 0
-67 -191 -339 0
-17 216 -261 0
206 -158 230 0
456 -448 103 0
99 -166 -139 0
134 75 452 0
-156 -265 178 0
437 -91 433 0
161 246 -81 0
-38 430 -451 0
422 282 -485 0
-316 60 2 0
57 282 -177 0
409 73 236 0
355 -500 134 0
132 283 -413 0
-135 -129 429 0
165 299 184 0
-46 220 -125 0
-24 430 -220 0
217 87 192 0
69 373 71 0
391 -411 -125 0
103 24 42 0
341 434 149 0
-210 -217 -220 0
-447 -239 -189 0
28 432 -499 0
-144 -48 -321 0
160 -71 211 0
358 -48 -154 0
-425 -338 491 0
68 -25 87 0
-119 427 122 0
-171 58 403 0
345 -91 29 0
262 -70 185 0
-202 100 290 0
375 -71 14 0
344 -330 194 0
-359 -376 -45 0
-138 -105 378 0
-337 -333 370 0
121 163 48 0
-10 454 23 0
-135 -17 223 0
239 147 -420 0
-263 -474 -89 0
159 -457 344 0
-76 -109 -381 0
180 134 300 0
102 -320 -147 0
-258 -126 -354 0
-126 -469 -180 0
324 295 337 0
103 43 -414 0
239 472 79 0
35 411 -428 0
460 38 413 0
-138 25 146 0
153 -120 268 0
-395 393 335 0
-124 -28 424 0
51 282 -200 0
283 -373 -379 0
-399 57 -95 0
270 107 189 0
-147 42 -10 0
-388 -239 -50 0
-437 -102 -260 0
-41 -38 -25 0
-326 -206 -494 0
-34 170 -132 0
170 245 -466 0
-218 -177 273 0
157 -271 408 0
-393 439 -341 0
245 -246 -235 0
437 -197 -215 0
345 -199 464 0
184 32 197 0
-21 -452 249 0
-203 -241 347 0
242 -214 415 0
274 244 -122 0
-1 316 -72 0
-243 351 -217 0
126 -439 325 0
-210 -194 -374 0
-213 59 -412 0
283 -463 494 0
-60 465 -147 0
66 -302 145 0
212 166 -179 0
497 -409 -32 0
-289 83 137 0
-293 -317 116 0
-240 499 200 0
-227 -142 317 0
-181 202 184 0
88 -4 -363 0
347 251 471 0
284 18 -490 0
-126 -160 422 0
18 441 -285 0
270 -165 -57 0
477 101 -433 0
-62 264 265 0
238 -308 107 0
216 -249 293 0
-221 -182 433 0
348 -400 378 0
-377 330 73 0
-32 450 -204 0
-110 165 -463 0
201 246 -17 0
176 -354 -277 0
-93 30 -242 0
215 -274 371 0
374 113 -167 0
-164 -401 -324 0
-239 -171 -242 0
-329 104 253 0
-45 -359 392 0
-220 -180 -74 0
-209 178 440 0
-104 -154 106 0
180 114 -73 0
221 -72 -148 0
265 45 34 0
-256 260 250 0
191 160 95 0
-136 -214 158 0
-154 338 319 0
-484 -125 -14 0
181 375 310 0
-226 -186 -175 0
221 305 381 0
-20 29 -301 0
-446 -403 -53 0
-406 -62 -239 0
414 23 -437 0
-375 371 -182 0
-388 364 -272 0
-4 -60 -195 0
154 206 -384 0
35 -463 198 0
224 -182 -17 0
318 -181 143 0
-431 499 -180 0
221 61 -3 0
-212 396 147 0
141 494 124 0
324 383 -441 0
246 -411 278 0
240 98 -29 0
-492 -364 -18 0
486 226 200 0
437 -397 -362 0
-485 192 -246 0
-82 -32 -293 0
-93 488 -402 0
123 -97 -469 0
137 351 171 0
-23 139 -444 0
-339 -95 130 0
-429 -287 295 0
-238 -268 67 0
-105 -258 -115 0
337 -22 -310 0
-395 172 -354 0
-249 74 107 0
-163 378 -261 0
-195 -120 337 0
-142 492 405 0
-194 -242 254 0
-400 -208 377 0
92 493 64 0
-285 -470 465 0
-130 379 278 0
-375 -248 -110 0
-492 -97 289 0
411 -423 191 0
434 -71 261 0
149 227 -84 0
18 -102 124 0
22 235 39 0
-190 -250 -113 0
350 -435 429 0
-323 72 50 0
415 195 231 0
494 -317 -435 0
-319 -9 -381 0
369 -365 -188 0
-407 -225 -408 0
430 -326 -224 0
-414 -148 344 0
-493 211 -475 0
262 382 -306 0
-149 -175 329 0
-314 -305 389 0
102 -127 -462 0
334 346 -182 0
-106 123 91 0
-402 -51 425 0
-225 -453 -487 0
287 412 210 0
-485 -162 -118 0
-172 -137 220 0
187 -463 -307 0
22 444 -158 0
99 -489 11 0
-343 -48 4 0
-103 -59 218 0
-177 72 -123 0
238 -297 397 0
386 -323 390 0
244 -77 -420 0
-497 -108 -207 0
411 467 -176 0
-16 114 -175 0
-500 391 -27 0
19 -288 168 0
-183 440 -100 0
216 -339 -271 0
-273 -397 -138 0
381 -297 129 0
459 -198 89 0
279 -227 324 0
415 -192 -246 0
74 38 136 0
-310 -168 -191 0
416 -472 163 0
270 -486 -72 0
129 332 -331 0
-6 -27 -82 0
147 185 -227 0
243 -312 -21 0
-314 -365 -285 0
-86 -159 242 0
-133 48 148 0
-306 190 118 0
-270 -262 62 0
-174 -238 355 0
-458 20 -134 0
202 -332 365 0
18 -299 -215 0
99 208 -88 0
42 423 -207 0
-55 -16 117 0
366 -42 110 0
209 419 302 0
251 390 471 0
-224 192 -419 0
483 -169 181 0
-391 -110 -200 0
-328 391 -87 0
-202 149 -327 0
430 189 86 0
272 -175 -94 0
7 -189 -371 0
-426 -128 -395 0
-169 -173 185 0
-9 176 398 0
341 -227 367 0
37 189 451 0
450 119 330 0
-263 -234 -369 0
390 -110 379 0
-303 274 316 0
-369 109 -494 0
301 -447 -453 0
-334 -220 252 0
143 -110 248 0
-398 -288 -434 0
152 -228 197 0
-476 482 -162 0
446 -497 -50 0
-168 -114 -457 0
152 -158 353 0
168 408 -104 0
418 -84 -90 0
187 -437 -219 0
-94 -246 184 0
-392 128 49 0
227 -437 470 0
340 -430 -171 0
466 53 148 0
218 235 -12 0
-10 -7 131 0
-78 291 -147 0
344 -78 476 0
-216 -327 -282 0
-265 -229 -380 0
-337 417 -72 0
440 176 -399 0
224 174 241 0
88 377 317 0
-489 -33 -393 0
-331 -8 164 0
298 275 444 0
-233 -85 86 0
307 41 328 0
220 -323 286 0
-150 323 64 0
332 194 301 0
49 484 -211 0
407 139 -194 0
-361 226 310 0
418 -389 64 0
272 373 178 0
48 491 261 0
-328 106 128 0
-17 242 -366 0
-72 278 46 0
-374 302 -290 0
-388 477 396 0
12 -428 -462 0
320 195 -197 0
316 341 55 0
-434 -382 -117 0
-381 183 -301 0
-268 154 -291 0
471 303 -65 0
30 317 -464 0
186 -113 -147 0
-461 349 391 0
-136 -74 -354 0
92 360 -164 0
317 -332 377 0
-285 -386 212 0
158 -88 301 0
-249 493 326 0
-415 185 -213 0
285 -219 386 0
-22 -104 443 0
147 296 172 0
-109 -421 151 0
-110 -364 425 0
-456 -163 47 0
206 382 -283 0
-235 -124 369 0
-443 116 241 0
-268 -498 -276 0
-148 344 468 0
18 -117 285 0
-165 -41 255 0
129 -161 150 0
488 -421 445 0
490 350 -483 0
363 394 -226 0
-232 -125 -46 0
90 -6 27 0
499 241 -261 0
-482 395 -36 0
-87 -150 -293 0
57 -476 273 0
271 -221 -470 0
-22 -437 -3 0
-330 276 -495 0
-258 -268 -178 0
236 -349 384 0
299 471 308 0
53 -209 259 0
-272 -152 496 0
-368 -85 -384 0
-8 208 304 0
-174 -293 285 0
461 -87 192 0
225 -28 105 0
343 -88 -453 0
250 492 -479 0
-450 482 418 0
287 -456 -109 0
14 -86 -365 0
-274 241 -399 0
-316 -244 55 0
201 425 278 0
-137 -188 -156 0
-20 428 -230 0
-149 -296 152 0
-279 123 300 0
-118 -297 460 0
167 164 400 0
377 144 318 0
143 306 -437 0
108 -469 -131 0
219 -331 -217 0
-14 -493 188 0
152 -46 392 0
-110 470 -405 0
-272 112 16 0
10 26 108 0
60 -264 -447 0
-370 260 -378 0
55 50 -81 0
276 210 322 0
-466 -151 414 0
282 -400 365 0
72 69 257 0
86 480 -317 0
217 294 -165 0
118 -376 464 0
-180 170 146 0
426 444 15 0
-143 -229 -79 0
-348 -203 13 0
46 -304 -173 0
-347 -174 348 0
324 -414 -6 0
285 -230 423 0
218 -54 -462 0
237 57 53 0
84 132 -4 0
-59 267 -160 0
45 188 239 0
491 392 214 0
-47 -420 113 0
-365 -24 343 0
-328 -317 291 0
-244 237 -321 0
-473 387 287 0
-333 -285 53 0
79 -131 -392 0
182 166 36 0
168 -23 476 0
-401 4 -449 0
-404 80 48 0
-390 -462 -351 0
-383 -358 -425 0
49 483 -312 0
229 -156 -205 0
261 27 448 0
163 -425 343 0
-258 436 253 0
443 -205 -59 0
471 -217 210 0
390 98 330 0
287 -136 -40 0
205 229 -154 0
214 161 487 0
-218 -333 235 0
-140 -195 325 0
-126 -119 125 0
366 -454 -391 0
-64 -270 -141 0
-26 363 318 0
74 496 -219 0
468 -76 -84 0
-298 180 -406 0
372 163 199 0
-338 310 394 0
-437 121 -184 0
-229 135 253 0
404 -167 427 0
460 434 440 0
-300 463 -187 0
-52 111 -141 0
-100 -205 -213 0
-245 331 405 0
431 58 -39 0
188 122 445 0
5 -153 430 0
317 14 -302 0
-348 447 352 0
328 -122 -276 0
144 448 -183 0
-33 222 -6 0
-273 -22 -377 0
-18 457 -106 0
393 288 -113 0
-275 90 -14 0
-20 -155 429 0
115 -252 -437 0
-481 -114 123 0
-377 18 286 0
235 408 -295 0
223 -215 21 0
-417 -84 -476 0
-158 -257 -416 0
-461 -86 293 0
-178 -146 -198 0
309 -228 -165 0
-77 172 -468 0
-381 92 -485 0
-452 -81 -170 0
-104 41 -292 0
38 162 282 0
-469 223 419 0
113 145 177 0
300 34 -32 0
-62 499 389 0
254 423 -239 0
494 -23 280 0
84 -88 65 0
-213 -265 121 0
156 494 429 0
-409 -130 -309 0
452 -434 -337 0
-361 261 -212 0
-193 366 -85 0
-102 -238 -13 0
-253 -97 291 0
494 167 499 0
261 235 -228 0
451 6 155 0
-24 -403 -280 0
261 -253 359 0
118 -247 386 0
349 174 220 0
-14 74 -93 0
250 148 85 0
207 -357 -370 0
50 -466 -154 0
-89 24 -471 0
4 -494 -70 0
140 -399 -481 0
57 349 -345 0
-196 -434 -306 0
18 -43 151 0
-304 428 -360 0
-27 290 162 0
-274 376 327 0
-25 -184 -314 0
46 210 392 0
469 244 314 0
-157 420 -2 0
-437 329 467 0
-113 -35 341 0
141 323 260 0
2 146 300 0
-423 -191 -204 0
-99 356 -387 0
-273 383 -333 0
207 425 -247 0
258 324 -262 0
9 369 439 0
129 -118 440 0
195 36 -400 0
366 -48 16 0
-39 342 -24 0
115 -166 -268 0
332 -398 481 0
-341 -108 -133 0
-463 -423 220 0
-382 401 -490 0
-167 -207 57 0
145 -475 496 0
-191 -197 -105 0
-199 -234 -362 0
-453 471 189 0
116 112 -338 0
37 -362 356 0
371 -211 -422 0
-374 244 380 0
-207 284 260 0
-9 451 -162 0
122 446 -166 0
-18 -178 -45 0
100 35 -269 0
-374 201 -303 0
381 -248 -126 0
97 -102 -277 0
-298 -42 -152 0
-186 197 425 0
241 -394 -452 0
171 -354 128 0
-234 491 312 0
-184 114 -3 0
435 244 -93 0
264 -75 171 0
54 446 -245 0
-411 -437 -462 0
402 -279 51 0
-281 -287 459 0
283 242 -204 0
437 7 -312 0
-346 -51 -414 0
474 -15 362 0
-375 225 333 0
-487 244 137 0
167 -144 -484 0
357 307 80 0
23 -409 104 0
350 14 -339 0
-380 -462 123 0
353 -399 120 0
51 -217 -415 0
442 -208 -408 0
281 -101 265 0
84 98 6 0
-350 -83 234 0
208 225 -232 0
28 172 120 0
166 218 -412 0
135 -377 157 0
311 101 183 0
192 -234 -145 0
-450 208 344 0
193 163 315 0
-237 -134 263 0
-44 2 -474 0
-79 335 256 0
-252 -75 3 0
235 279 248 0
-281 -192 -1 0
-87 -322 -34 0
-199 -206 -392 0
-287 91 -246 0
6 -385 460 0
-118 -479 -342 0
-277 -169 -389 0
131 -252 328 0
-141 33 381 0
-233 444 123 0
370 103 -7 0
203 -384 -432 0
-338 233 44 0
248 -296 13 0
281 -134 404 0
-499 -131 485 0
357 -212 -481 0
227 360 -344 0
-130 -160 397 0
-57 -24 -29 0
98 -360 455 0
-272 -88 21 0
440 -200 380 0
168 274 -55 0
-146 36 -120 0
283 230 -449 0
407 -89 -303 0
-41 369 -315 0
42 406 -390 0
230 290 -216 0
190 374 498 0
-260 -162 -303 0
-87 -93 -214 0
195 -391 -202 0
-445 -468 -412 0
-234 -251 495 0
128 -163 250 0
-310 334 -31 0
211 -261 -294 0
290 34 -87 0
396 163 263 0
468 177 91 0
-388 477 -272 0
35 263 107 0
-230 -229 102 0
405 -267 250 0
-412 -342 343 0
389 181 196 0
-412 -59 -230 0
-225 58 352 0
75 -396 -78 0
179 405 -443 0
400 -203 294 0
231 353 500 0
268 37 -146 0
-391 -490 -98 0
400 -60 -320 0
209 76 -326 0
68 -268 -286 0
362 -426 60 0
-47 450 -33 0
-257 -50 93 0
124 238 -381 0
-212 -243 327 0
130 -314 288 0
-32 116 403 0
-394 -314 85 0
-22 -37 396 0
-500 228 239 0
-316 -473 257 0
-455 294 22 0
468 -234 469 0
383 -474 -68 0
-484 381 442 0
-238 55 -285 0
-416 479 147 0
284 25 498 0
341 155 -52 0
52 -329 183 0
-481 181 333 0
-309 -390 276 0
403 111 167 0
124 -203 482 0
-463 -239 431 0
105 368 -42 0
-273 67 2 0
-368 460 306 0
489 -142 483 0
-24 -143 71 0
136 -210 -93 0
424 47 422 0
-33 430 183 0
-21 -219 207 0
-300 334 -248 0
142 -370 -484 0
486 -342 -11 0
438 107 -266 0
162 -128 -175 0
-448 -341 393 0
158 204 469 0
105 266 193 0
-244 -372 -342 0
-477 -294 75 0
52 25 286 0
-179 101 -135 0
470 336 -52 0
-483 -260 485 0
271 130 286 0
-47 -258 -382 0
-391 429 489 0
233 -235 248 0
-236 -76 -451 0
213 -488 91 0
-304 -190 98 0
-106 410 -476 0
487 189 431 0
214 217 -318 0
-284 -442 -31 0
-379 260 -298 0
473 344 450 0
131 -134 -152 0
342 -489 134 0
-208 -448 -205 0
-79 189 337 0
-9 -211 35 0
74 -201 148 0
110 -36 -494 0
-418 349 -461 0
342 -480 -249 0
-217 -415 -320 0
271 -328 -447 0
-267 463 307 0
469 82 18 0
-79 -51 -230 0
397 88 -103 0
376 445 472 0
-37 90 250 0
-89 -435 -96 0
-435 -399 -290 0
97 -199 356 0
413 -482 157 0
196 315 444 0
-491 -8 29 0
-464 -145 -8 0
398 88 -357 0
-339 -301 -50 0
-68 20 -252 0
55 471 169 0
-281 348 177 0
129 -266 -168 0
-267 -435 129 0
133 37 -262 0
487 -146 -264 0
-1 64 -426 0
14 -103 290 0
389 -171 140 0
-258 44 -3 0
98 140 -168 0
325 44 96 0
347 -376 -158 0
275 -250 65 0
-437 -215 -409 0
-388 365 -355 0
188 212 165 0
177 -58 -417 0
92 213 -278 0
112 -83 -85 0
-341 -297 -14 0
464 210 378 0
14 -259 270 0
63 -199 -311 0
-73 196 436 0
-384 -364 10 0
-471 122 212 0
-248 150 233 0
-119 -3 86 0
279 54 -317 0
152 396 -192 0
-238 309 -405 0
23 -269 396 0
440 169 459 0
-373 353 218 0
-330 427 -323 0
-419 -445 -295 0
-484 -227 110 0
-419 293 -40 0
169 -272 263 0
-99 -195 -299 0
433 272 -368 0
-220 109 7 0
-450 240 276 0
-30 -396 9 0
-75 -337 377 0
-9 -161 -427 0
-462 -388 257 0
151 183 -363 0
113 -71 -70 0
-139 -42 -413 0
-368 33 -472 0
358 375 401 0
463 304 280 0
475 40 -488 0
34 18 21 0
140 -342 258 0
-357 -317 127 0
-43 48 -448 0
81 457 -165 0
221 -444 -190 0
450 -431 -147 0
280 352 -168 0
-385 70 -135 0
125 -141 -130 0
-390 -343 274 0
426 339 26 0
96 167 61 0
-186 471 43 0
-488 333 -455 0
-163 15 -373 0
405 -371 476 0
-121 126 -294 0
7 234 -21 0
-44 60 69 0
-336 -326 377 0
15 -449 -100 0
496 342 -84 0
-411 243 340 0
-454 -438 253 0
479 227 -469 0
142 -159 -68 0
-62 408 -324 0
190 257 329 0
-30 167 -419 0
-215 80 370 0
-43 245 -375 0
-115 -385 -46 0
-486 160 -419 0
-144 -113 -309 0
-351 449 212 0
-343 -498 241 0
91 -275 69 0
-31 -319 -46 0
-321 262 -356 0
-297 436 -397 0
