p cnf 100 430
94 -14 -77 0
-67 21 -29 0
-82 -98 -48 0
55 -61 -30 0
54 25 -9 0
-37 46 35 0
-68 -98 -93 0
95 10 90 0
-71 98 -41 0
82 66 45 0
82 -11 50 0
-96 -14 -35 0
50 24 -58 0
-41 -72 79 0
-42 46 -65 0
-21 86 -75 0
-94 -77 14 0
-95 -92 12 0
70 33 -67 0
84 -85 63 0
-40 25 -33 0
-16 52 67 0
21 39 -2 0
36 -37 82 0
12 88 15 0
88 42 80 0
25 51 38 0
-100 75 62 0
2 -28 8 0
40 -65 -68 0
-31 44 96 0
-34 53 81 0
19 71 -23 0
77 -74 -26 0
-70 33 -28 0
52 -22 97 0
-50 -46 -21 0
-18 -97 16 0
-14 -71 -23 0
-77 24 -16 0
84 -42 -73 0
25 -81 -50 0
-29 57 -42 0
22 -42 -71 0
-67 -41 43 0
2 31 -26 0
-6 -5 31 0
-43 -3 -12 0
1 30 -99 0
25 -64 7 0
91 -88 -83 0
85 60 98 0
88 -52 55 0
-44 60 -32 0
-88 -70 38 0
6 -53 -21 0
-56 -6 83 0
28 36 98 0
56 82 11 0
-37 -60 81 0
59 19 -75 0
25 24 -3 0
74 69 22 0
78 -82 46 0
87 -74 71 0
24 60 70 0
28 51 -3 0
58 4 -93 0
-55 75 49 0
-24 23 -21 0
6 -34 -74 0
-76 57 84 0
48 -78 -43 0
-71 -86 76 0
-79 -74 -99 0
-59 -8 -54 0
-100 -28 -45 0
70 -47 -54 0
-20 52 -45 0
-27 11 -77 0
-82 -45 37 0
-63 61 -49 0
42 46 -72 0
-84 38 97 0
83 92 -73 0
-22 -91 74 0
-64 35 76 0
-85 86 -3 0
-70 -87 -98 0
70 -24 18 0
78 -39 83 0
63 -69 -43 0
-41 44 -47 0
94 61 -63 0
22 93 -34 0
-3 -51 6 0
-10 38 23 0
-23 -38 -61 0
-22 66 -27 0
13 -32 -43 0
-31 49 74 0
-5 -83 -58 0
-54 -15 -32 0
-63 73 -64 0
-43 -92 -51 0
3 80 -54 0
-49 48 -27 0
-37 -89 92 0
14 11 92 0
47 -75 -38 0
-16 -26 -12 0
-49 -77 -56 0
-28 -40 47 0
73 -35 32 0
-1 40 7 0
38 -8 -37 0
-28 -5 99 0
11 27 -8 0
60 -50 -26 0
-6 18 -97 0
57 89 98 0
-41 -26 9 0
31 -52 -63 0
-11 22 -6 0
86 -6 31 0
-89 -87 91 0
29 13 90 0
19 18 -40 0
-5 -54 -68 0
100 14 -16 0
-84 78 -48 0
96 69 52 0
54 19 -21 0
36 18 -85 0
74 98 59 0
68 -38 55 0
-22 -26 92 0
58 -100 40 0
72 -6 -63 0
-98 -45 -56 0
96 44 -9 0
-67 77 -42 0
2 48 32 0
-46 -49 -27 0
-7 -39 22 0
53 60 58 0
-73 33 -82 0
-35 16 88 0
-60 -30 68 0
57 96 9 0
10 34 -47 0
-29 24 34 0
-78 28 74 0
10 61 -52 0
11 84 -61 0
9 -65 -25 0
-61 78 10 0
38 60 -80 0
-88 -15 73 0
4 91 57 0
84 -9 1 0
80 66 73 0
4 -76 95 0
71 46 -76 0
-73 84 79 0
-16 51 -66 0
96 41 -72 0
64 -94 -52 0
-50 -26 -1 0
-3 -7 89 0
-89 28 47 0
-93 11 68 0
-65 -33 -48 0
-92 -72 -9 0
-100 -14 15 0
-38 86 -71 0
-61 -2 -73 0
-57 -12 32 0
-14 13 -19 0
-32 -7 -94 0
70 86 -84 0
23 20 89 0
-59 29 -12 0
-73 27 -76 0
69 63 97 0
59 -96 -60 0
-8 26 14 0
86 -97 38 0
-34 -53 84 0
-67 -3 -100 0
40 -42 -2 0
-51 63 70 0
50 -14 -49 0
12 -75 15 0
55 -54 -16 0
50 31 33 0
19 82 71 0
-71 -66 17 0
94 43 -19 0
-95 -72 15 0
36 -69 68 0
-71 -65 8 0
-97 91 -37 0
68 46 -15 0
-76 16 -14 0
-20 -53 48 0
42 -77 -37 0
-15 -1 64 0
-50 97 -88 0
9 87 -83 0
-12 82 -31 0
88 -80 -30 0
-73 77 56 0
47 48 -83 0
76 36 -91 0
31 -24 -4 0
-23 82 53 0
98 73 45 0
-100 95 76 0
-32 -91 -10 0
96 10 -30 0
-64 68 -95 0
100 -98 -57 0
92 20 30 0
-2 -64 -24 0
70 84 -99 0
4 63 -16 0
53 94 70 0
-16 91 98 0
-45 -35 55 0
86 99 -13 0
67 -47 74 0
59 6 49 0
-86 -11 99 0
-57 99 96 0
-29 -87 72 0
-74 -34 -95 0
20 3 -31 0
-95 63 18 0
-33 52 22 0
-71 32 5 0
62 -13 6 0
-26 -91 -56 0
18 20 42 0
95 -62 6 0
85 -3 7 0
24 -44 78 0
9 69 96 0
-86 -52 -68 0
48 55 -94 0
33 -92 -27 0
11 -23 -9 0
75 1 44 0
2 90 31 0
-49 -21 2 0
-37 93 -61 0
8 -6 -87 0
35 -5 -49 0
70 72 43 0
-80 -92 69 0
51 -90 74 0
84 -81 92 0
38 72 -13 0
-21 81 -50 0
30 -57 74 0
-13 57 -4 0
-8 96 48 0
72 -23 -38 0
-4 73 -46 0
98 80 3 0
-100 58 -6 0
18 -90 14 0
-94 -2 24 0
87 30 -42 0
-43 13 -22 0
-18 -13 29 0
80 71 -31 0
-30 -17 85 0
3 67 4 0
-48 66 39 0
34 94 -22 0
-77 37 -5 0
100 37 85 0
2 93 -86 0
25 -75 82 0
91 21 -63 0
78 23 -73 0
1 -83 54 0
-14 2 62 0
24 -30 -8 0
16 -20 99 0
75 -99 -23 0
44 -51 -93 0
60 -73 -85 0
-71 -47 -44 0
-61 27 48 0
-9 -63 50 0
72 55 2 0
-50 -21 -61 0
-21 41 11 0
88 -96 83 0
47 85 7 0
-78 -74 -19 0
-91 -21 -92 0
-45 32 -38 0
5 8 72 0
-27 -58 -96 0
-79 -84 70 0
-7 86 91 0
-51 -78 96 0
29 71 -30 0
72 8 22 0
-48 -38 -4 0
-1 -14 10 0
75 -55 -79 0
11 39 -61 0
94 -48 -98 0
-75 -35 22 0
-2 11 -63 0
75 46 7 0
3 -40 13 0
-25 -5 14 0
3 35 44 0
69 30 -7 0
-53 -79 -36 0
32 64 4 0
15 -36 -100 0
57 -7 -95 0
45 31 5 0
39 -12 74 0
-91 -28 -82 0
-40 52 -75 0
95 14 -45 0
-70 -24 -30 0
-30 -78 80 0
-34 -95 78 0
-48 15 -71 0
37 -6 23 0
-54 -74 77 0
-27 14 -31 0
-63 2 -93 0
17 -10 -97 0
-27 18 -1 0
44 45 -58 0
-100 -99 -25 0
-88 20 47 0
66 -34 -31 0
57 100 -78 0
89 38 -94 0
30 99 15 0
-57 85 -97 0
-54 51 -83 0
-70 -33 -40 0
-77 88 85 0
75 -64 -1 0
-95 24 26 0
-66 92 32 0
7 96 27 0
50 28 37 0
-99 85 91 0
66 -87 14 0
-35 96 -59 0
-32 -83 -33 0
-14 7 -86 0
81 27 -92 0
-95 89 -18 0
-13 58 -39 0
-26 -67 35 0
-40 -59 -89 0
-19 -71 31 0
-32 54 -68 0
-14 -25 48 0
-68 12 -65 0
-95 78 -83 0
67 -16 36 0
23 76 10 0
-45 -5 69 0
15 -66 22 0
64 35 32 0
39 -72 -44 0
-43 38 -83 0
-84 -13 -60 0
-4 -45 91 0
-32 -19 -10 0
-49 -32 38 0
69 -26 -66 0
15 2 39 0
14 23 -80 0
-70 -60 48 0
85 44 -42 0
-54 -44 30 0
58 45 42 0
68 -24 -6 0
-71 -29 78 0
-65 -11 23 0
15 66 -58 0
-64 54 -4 0
29 -21 -45 0
-15 42 12 0
75 -60 87 0
-51 39 45 0
51 -10 -89 0
-85 -88 72 0
-60 43 2 0
-36 8 -46 0
75 94 -93 0
-53 -58 37 0
75 53 -48 0
-11 -47 -39 0
-79 32 34 0
-65 67 45 0
-40 -69 94 0
-56 -49 90 0
16 -47 -42 0
99 -39 58 0
-4 42 -25 0
-84 -35 77 0
-58 10 90 0
-75 63 9 0
-3 -77 76 0
81 -85 -59 0
-70 -67 -45 0
-91 -35 -32 0
-20 84 -76 0
48 41 19 0
-70 -99 -25 0
-25 71 57 0
34 64 -11 0
70 -94 -14 0
63 -81 -20 0
