p cnf 500 1800
-389 480 -174 0
10 328 -99 0
265 476 34 0
433 -243 142 0
-77 -349 179 0
-158 428 -326 0
328 188 -494 0
498 -104 -482 0
-375 -203 176 0
125 202 93 0
-283 -197 -71 0
376 491 197 0
-407 -319 -273 0
365 -88 -158 0
-220 -235 116 0
-24 -126 407 0
-411 -123 -344 0
226 391 421 0
434 -250 475 0
-148 -33 -429 0
102 123 -115 0
-480 -180 275 0
208 -110 -147 0
286 327 -128 0
14 -163 -84 0
403 191 -306 0
-126 -78 375 0
205 50 -454 0
224 254 301 0
314 -318 297 0
-125 -214 -215 0
75 273 -405 0
-435 246 -232 0
-434 -209 28 0
-289 30 -153 0
-44 243 336 0
-454 491 21 0
-75 231 305 0
-94 -209 432 0
136 70 -33 0
263 -201 500 0
-371 -387 412 0
184 -447 -180 0
478 -367 12 0
-337 490 111 0
499 -216 -173 0
-294 -384 311 0
378 -111 336 0
-361 55 331 0
-283 -432 470 0
330 -479 211 0
480 -27 175 0
-215 -472 110 0
-467 164 63 0
-138 -52 365 0
-75 421 -452 0
-413 176 -9 0
-345 -246 -457 0
98 162 -260 0
-186 -397 -144 0
-199 -340 -355 0
45 -233 -288 0
-493 103 -479 0
-282 450 256 0
35 -292 11 0
-422 -238 -179 0
-105 290 479 0
-245 -253 -287 0
-494 113 -407 0
56 462 181 0
3 -170 -59 0
-266 -183 -484 0
-9 -7 -248 0
-349 77 127 0
32 76 -452 0
-206 -202 198 0
-348 -322 381 0
412 -493 29 0
-196 95 -148 0
-351 -193 -352 0
-193 323 374 0
43 -364 382 0
-194 40 -325 0
361 -467 111 0
-272 297 -263 0
-26 -273 -377 0
-127 85 -174 0
-350 -415 -469 0
440 -427 -417 0
-492 299 -19 0
-376 -216 -493 0
-32 -350 -298 0
-189 460 113 0
51 -203 -143 0
-385 -120 187 0
-42 156 235 0
363 -276 -460 0
125 -256 356 0
-144 -33 162 0
204 368 -249 0
98 -498 357 0
-158 248 235 0
94 -119 -355 0
282 -142 -422 0
-343 -63 402 0
-101 -399 -189 0
188 -250 117 0
-354 -357 189 0
-469 -447 -349 0
-172 153 239 0
381 -356 -422 0
383 -53 -310 0
-345 -261 -192 0
-443 -333 -485 0
-144 199 473 0
-129 -387 357 0
-412 455 397 0
-346 146 -92 0
17 -351 -121 0
79 140 18 0
47 79 -264 0
362 132 -150 0
-385 162 456 0
125 56 387 0
-268 121 -327 0
-76 237 53 0
50 169 -332 0
93 320 362 0
-325 358 -122 0
279 420 -73 0
-457 -486 319 0
-132 -370 -498 0
-316 123 -187 0
175 334 -135 0
-134 -474 9 0
-69 -235 265 0
-125 133 -458 0
417 286 94 0
499 -485 -328 0
-500 -172 -165 0
-160 -146 -179 0
238 97 396 0
97 92 -411 0
-9 -106 79 0
-21 -11 -285 0
430 193 139 0
-459 393 -274 0
-434 300 -276 0
41 -332 -487 0
256 -423 -66 0
-73 69 91 0
320 -369 178 0
-273 -280 314 0
427 128 465 0
370 -86 62 0
-76 -58 -157 0
7 335 -453 0
281 350 -333 0
470 -266 138 0
70 54 292 0
-163 -63 -35 0
-202 -390 375 0
-163 350 -166 0
-210 -355 139 0
25 -300 -239 0
141 66 398 0
-275 155 -496 0
-459 405 -390 0
397 -339 219 0
-451 261 -174 0
291 -232 -200 0
149 405 -118 0
-227 88 -118 0
395 -349 243 0
238 398 125 0
89 -442 213 0
-276 403 116 0
-211 -387 283 0
204 -446 188 0
182 -187 302 0
-22 -368 -435 0
114 206 42 0
31 -270 -206 0
-40 -500 -91 0
449 51 -83 0
423 254 -151 0
-291 425 -379 0
-430 -27 133 0
182 389 -448 0
-377 -317 60 0
-159 458 -335 0
-338 477 -443 0
-265 56 279 0
-340 -443 -80 0
-103 213 -449 0
-356 -339 200 0
-444 377 148 0
155 210 157 0
-150 175 302 0
-93 -212 96 0
-25 299 -143 0
-92 -15 180 0
-78 -88 253 0
453 -110 214 0
432 -496 -327 0
-328 107 256 0
443 8 13 0
220 -219 -164 0
-158 76 -19 0
28 462 199 0
-392 -266 -108 0
-357 -34 -427 0
-6 186 170 0
-259 431 -498 0
88 439 382 0
322 387 356 0
439 -202 299 0
-197 -58 135 0
-324 101 90 0
-78 19 413 0
372 -25 189 0
73 120 158 0
141 -206 177 0
-358 -256 -159 0
-252 329 258 0
-141 -88 -266 0
50 404 -452 0
-95 -449 189 0
-186 -35 39 0
473 -65 438 0
-352 75 -81 0
-234 -322 -241 0
434 -105 -59 0
-477 -127 233 0
-28 255 316 0
-330 -142 -409 0
49 401 -362 0
384 188 131 0
-123 301 -352 0
-145 -469 -39 0
-233 100 -409 0
246 -272 68 0
7 -259 -363 0
203 -201 -114 0
231 -133 338 0
-456 -14 -107 0
229 -258 27 0
324 -337 -162 0
-315 439 198 0
262 141 215 0
-36 -201 38 0
15 191 136 0
393 -431 85 0
155 205 184 0
162 244 452 0
-357 182 -290 0
-450 411 -467 0
222 458 427 0
-322 -210 481 0
-127 294 480 0
-208 -310 -180 0
406 298 -65 0
-321 -226 -191 0
70 158 250 0
-428 -231 -286 0
-60 402 -200 0
-458 163 394 0
428 386 -135 0
-449 98 -477 0
-106 4 193 0
306 46 99 0
-169 -305 91 0
390 -1 -292 0
305 385 261 0
46 -187 13 0
260 104 -303 0
-346 454 -243 0
-17 328 118 0
368 55 -291 0
213 -405 109 0
-305 479 32 0
-399 303 384 0
-500 146 189 0
119 303 -243 0
261 166 272 0
296 -127 485 0
289 65 236 0
380 339 -398 0
-216 -485 -261 0
-363 151 -73 0
203 287 -79 0
-148 135 400 0
-10 437 230 0
-186 -209 90 0
296 -239 -110 0
163 436 497 0
4 244 -162 0
-105 193 -281 0
-355 462 -169 0
38 447 -64 0
238 274 102 0
-356 -335 222 0
-102 -49 -227 0
-392 163 -342 0
319 -330 -222 0
-209 -386 -336 0
262 203 -284 0
317 170 122 0
467 -89 -109 0
-163 107 91 0
-55 96 -204 0
414 56 -22 0
-58 -454 467 0
-212 -126 -5 0
322 -271 442 0
-103 473 -85 0
478 -494 -164 0
-175 -5 107 0
-413 90 -21 0
133 473 -226 0
-163 249 243 0
10 109 -206 0
-58 72 290 0
-221 -113 -308 0
326 -421 246 0
-71 -339 -306 0
-280 -319 177 0
-108 384 168 0
-108 136 3 0
-75 274 37 0
-254 -372 319 0
-259 -93 -230 0
128 -391 499 0
48 299 392 0
-348 -369 289 0
104 115 -254 0
226 137 362 0
297 -24 402 0
485 -365 299 0
-139 -250 266 0
143 -52 -332 0
323 434 -384 0
438 222 -367 0
427 -143 125 0
-36 342 -294 0
-289 -384 -315 0
425 396 -328 0
197 108 341 0
397 -28 357 0
258 463 -402 0
448 -305 -311 0
-113 203 45 0
-195 -460 -147 0
87 -474 457 0
156 -382 -128 0
-234 -183 -481 0
201 -26 -39 0
232 486 365 0
-181 -64 437 0
148 -500 -45 0
315 83 -237 0
35 -174 -160 0
252 440 203 0
467 79 -139 0
-258 227 -60 0
287 -205 -486 0
-309 463 -40 0
-170 -448 312 0
-164 -483 105 0
414 280 279 0
-263 -69 -50 0
106 -410 376 0
-312 287 133 0
-479 208 106 0
236 -370 478 0
-227 -41 -186 0
-226 216 -129 0
189 463 -384 0
300 -154 142 0
300 396 -367 0
494 118 36 0
92 333 -467 0
281 -451 60 0
-497 35 267 0
-117 452 -303 0
-122 -273 -424 0
-152 262 -93 0
-471 221 -125 0
-161 -131 214 0
-33 -326 162 0
-488 -210 -499 0
382 -132 145 0
-401 123 -478 0
195 117 -295 0
220 362 51 0
-431 383 38 0
-377 164 -359 0
-249 -284 -306 0
144 16 474 0
-315 -257 333 0
-365 245 -292 0
3 494 -322 0
194 -146 195 0
-285 261 -301 0
498 240 -139 0
-113 -465 -184 0
-461 -416 -319 0
-495 -205 -293 0
476 -477 101 0
457 401 -50 0
231 204 234 0
-421 -315 -137 0
-179 -396 -282 0
-96 464 -151 0
-203 -251 -428 0
-384 -43 -30 0
-103 333 -50 0
-47 -43 -2 0
-128 -259 384 0
-172 -476 -337 0
48 -52 -247 0
-296 115 277 0
85 47 -219 0
-294 -438 -325 0
326 390 438 0
-330 75 176 0
450 467 372 0
162 -350 -210 0
105 229 109 0
-378 437 -322 0
70 -281 -184 0
242 236 208 0
197 -404 249 0
-436 289 355 0
-409 -83 490 0
-281 -492 -495 0
-468 280 217 0
-109 392 -283 0
367 -114 -139 0
9 -373 227 0
-189 157 -234 0
-149 469 378 0
14 -24 139 0
-146 -76 309 0
-68 361 169 0
377 22 -24 0
-54 -465 485 0
26 -57 -453 0
215 458 186 0
-191 -74 416 0
-191 42 218 0
-5 388 -357 0
-245 378 239 0
252 -192 436 0
-409 278 176 0
381 -181 342 0
23 73 186 0
-492 104 -325 0
354 82 27 0
201 -227 162 0
485 303 297 0
-352 -268 -123 0
396 143 272 0
-453 -252 -445 0
-366 197 377 0
438 -483 251 0
462 118 117 0
-3 379 47 0
-430 14 -374 0
-327 -169 -72 0
115 12 -490 0
-102 145 -257 0
233 112 240 0
451 149 10 0
-222 -7 145 0
-253 313 -98 0
356 367 -100 0
-409 302 219 0
193 -194 95 0
-450 -89 -168 0
-264 -71 -134 0
364 -162 -74 0
-304 281 11 0
395 -185 488 0
415 -138 118 0
-459 57 -500 0
56 -353 -462 0
9 -178 288 0
328 156 -109 0
216 107 -89 0
156 -500 -128 0
-183 -143 -11 0
-1 55 118 0
55 -162 14 0
122 -217 -57 0
-462 414 205 0
-430 123 344 0
3 392 330 0
302 -169 455 0
-404 500 -111 0
-433 -395 -490 0
416 -246 -296 0
372 -403 274 0
-237 -442 269 0
-332 -54 -331 0
-91 -104 154 0
411 -225 -184 0
219 406 214 0
-271 92 -487 0
487 -402 -496 0
-5 -160 45 0
336 329 87 0
-153 387 -113 0
-223 -29 287 0
126 -198 -292 0
-391 -103 113 0
426 -410 240 0
-196 -113 -180 0
-315 -418 222 0
395 114 -238 0
-147 -165 -259 0
66 -414 412 0
468 83 -308 0
-343 100 438 0
-273 -466 -132 0
-465 -148 -260 0
-399 178 -7 0
136 498 97 0
303 -4 160 0
55 -180 -135 0
-449 495 354 0
-203 -238 -103 0
-199 17 -239 0
-395 -59 -281 0
-405 -288 496 0
196 -410 -111 0
393 -264 184 0
445 -459 307 0
306 -114 -253 0
307 -310 -70 0
-207 -220 -107 0
488 384 469 0
-213 310 224 0
348 441 -33 0
-397 416 -164 0
183 -89 459 0
221 -60 124 0
485 -199 435 0
-140 -90 -332 0
-376 132 135 0
-48 -317 -32 0
-316 -190 -350 0
-434 467 252 0
381 140 -322 0
-335 -272 138 0
84 -399 -112 0
424 49 470 0
-113 -174 -347 0
-330 -262 496 0
-297 -251 443 0
-393 438 -155 0
111 -431 -491 0
-145 -135 338 0
308 -329 303 0
-243 -335 -418 0
494 -57 145 0
217 -344 6 0
158 496 -153 0
4 409 43 0
281 218 373 0
228 64 9 0
-238 -490 118 0
114 -267 -136 0
-469 367 -379 0
473 37 -246 0
101 361 340 0
239 251 192 0
191 -488 -75 0
95 -398 157 0
-386 170 489 0
-364 -312 289 0
-488 -162 443 0
-127 -385 191 0
430 -310 471 0
-485 87 238 0
440 -454 234 0
-51 -347 346 0
-126 377 46 0
209 -471 -325 0
146 356 67 0
317 -104 -227 0
-236 475 363 0
396 147 -310 0
338 -81 209 0
-200 -136 34 0
-178 -352 -113 0
-14 34 428 0
-492 63 -100 0
-389 88 -326 0
-100 -197 1 0
-243 -262 72 0
-484 364 414 0
46 -163 -189 0
-430 -476 -411 0
-43 -258 464 0
293 67 350 0
-437 71 17 0
488 278 -266 0
408 -189 360 0
-219 -265 331 0
-149 325 -440 0
-135 -192 -104 0
-53 -128 -316 0
-167 -389 -169 0
-103 -213 -382 0
109 147 128 0
322 156 429 0
88 -150 97 0
-250 -441 130 0
407 -253 389 0
-63 -436 -159 0
-169 -148 -280 0
-297 -488 55 0
44 40 -120 0
386 -91 194 0
-92 -197 -74 0
482 -328 -325 0
-290 285 393 0
127 466 170 0
459 32 -65 0
152 -215 -456 0
-64 -100 109 0
-427 45 357 0
36 -281 448 0
-199 -465 74 0
6 250 53 0
-365 -471 23 0
-203 362 -307 0
404 -335 -149 0
-168 396 4 0
210 -389 499 0
-389 -166 96 0
145 49 -425 0
327 334 -375 0
-18 -209 -113 0
28 -312 25 0
60 70 -451 0
-278 -178 418 0
-200 -241 -179 0
72 249 -37 0
-405 -358 -392 0
-330 -190 356 0
-316 218 -426 0
314 -229 146 0
342 290 -464 0
-64 -308 -380 0
366 -44 295 0
-372 -142 6 0
-201 282 -188 0
186 109 -230 0
-466 -167 -414 0
474 -188 -397 0
-190 -265 -140 0
263 465 154 0
360 -24 458 0
-433 357 -465 0
-324 -239 297 0
14 139 -162 0
-249 -382 32 0
-202 418 308 0
333 -231 190 0
-2 -204 140 0
280 378 -232 0
419 -170 -64 0
-435 -10 -57 0
171 257 -354 0
-218 -242 -373 0
-205 420 480 0
-33 -62 -146 0
-248 -238 -251 0
-15 10 -395 0
-419 -454 444 0
223 -324 459 0
-125 271 338 0
46 -467 315 0
-474 302 -369 0
393 83 -376 0
467 -227 301 0
-157 271 -488 0
236 170 -89 0
397 -284 -448 0
182 -462 -221 0
181 -170 -103 0
-139 186 2 0
-406 396 -260 0
-194 281 11 0
-249 -399 -412 0
-319 401 -258 0
-255 -55 -241 0
408 -25 433 0
78 396 143 0
-291 -336 109 0
106 148 189 0
272 -212 -59 0
-231 162 -411 0
381 307 293 0
262 -308 353 0
-467 -450 -391 0
15 -183 -333 0
297 -315 -217 0
-314 -381 455 0
45 238 74 0
173 -102 -484 0
-285 -458 -408 0
440 316 -77 0
-464 432 166 0
289 349 -20 0
-189 -254 333 0
381 -212 -219 0
-32 145 272 0
57 -454 -21 0
416 320 -144 0
-132 -480 143 0
376 35 -346 0
45 196 5 0
-371 -88 338 0
262 207 -421 0
456 58 459 0
433 132 -298 0
197 -386 264 0
-266 417 -463 0
323 -203 -246 0
-250 434 254 0
107 377 49 0
109 -459 236 0
-84 270 275 0
171 314 -404 0
-194 363 75 0
-466 -253 -342 0
476 -83 -185 0
452 -82 133 0
155 417 235 0
-341 286 214 0
346 -473 -449 0
-15 108 425 0
129 491 -46 0
-306 178 -93 0
-236 -380 -409 0
-212 86 450 0
350 -53 323 0
352 494 -477 0
-300 -32 -236 0
-182 -109 -248 0
-371 424 -164 0
-105 419 259 0
-437 -98 -117 0
-74 -87 -472 0
-436 -429 -30 0
-302 -391 394 0
266 440 -332 0
-166 256 -208 0
-411 -74 -348 0
140 -106 149 0
-59 -79 301 0
368 400 -119 0
-134 -22 97 0
-153 -250 458 0
-281 -441 392 0
-281 338 386 0
76 -80 -107 0
-77 -195 399 0
57 -91 -324 0
-245 382 -191 0
-390 176 -328 0
-289 -318 -348 0
-114 -477 -2 0
-423 -77 51 0
-490 203 327 0
41 -357 372 0
-300 -413 -3 0
199 313 108 0
127 -417 216 0
183 -474 67 0
491 203 -254 0
114 221 395 0
345 326 -422 0
-470 92 447 0
151 380 166 0
485 -311 291 0
228 231 49 0
36 -248 -98 0
210 -1 250 0
444 234 -466 0
20 474 -233 0
186 -342 337 0
300 18 254 0
29 44 47 0
-359 -80 165 0
-30 454 33 0
-101 -372 -432 0
-403 125 156 0
-248 -310 -401 0
70 -211 174 0
357 -116 -361 0
428 444 -443 0
227 -486 189 0
-456 -157 -245 0
102 -152 326 0
258 145 -59 0
94 92 257 0
98 -199 -329 0
-380 469 -26 0
23 -310 -199 0
-133 -193 267 0
315 -80 460 0
64 -434 -445 0
-380 277 10 0
277 -471 54 0
-201 348 -99 0
-439 -308 436 0
199 -304 324 0
-207 -362 253 0
-245 -172 21 0
-23 212 175 0
-408 -260 -412 0
122 -375 415 0
-3 -17 -68 0
347 417 472 0
342 178 -110 0
-458 495 -181 0
217 195 274 0
291 -222 -469 0
-287 -152 -383 0
-214 304 47 0
-77 384 449 0
140 295 405 0
-263 409 427 0
-414 -275 -195 0
-335 -130 -230 0
-190 -57 199 0
-263 -52 484 0
-451 -104 55 0
-45 248 40 0
-453 -95 457 0
-336 -61 -458 0
-245 -383 -210 0
-31 400 403 0
-338 350 419 0
-262 -317 345 0
118 -482 208 0
-259 485 -432 0
-190 430 -425 0
-283 -274 110 0
464 -8 202 0
-188 -424 357 0
-117 363 265 0
-422 158 -32 0
387 139 -293 0
40 -477 284 0
5 -359 -405 0
349 60 -419 0
-338 -72 109 0
357 -312 117 0
494 217 32 0
-179 231 -28 0
-336 -208 -358 0
-180 -283 488 0
367 -97 156 0
216 125 175 0
-487 10 -167 0
-381 -224 272 0
-316 1 201 0
-227 -461 -305 0
117 8 -441 0
-133 -48 -308 0
-194 430 391 0
-163 200 -66 0
-223 -441 251 0
33 324 9 0
-191 -83 -480 0
-430 202 -416 0
-13 -475 -426 0
-122 145 -476 0
-148 270 94 0
-62 -214 50 0
202 -24 269 0
-417 -190 8 0
-466 -285 -87 0
470 -473 -375 0
-367 280 66 0
197 345 125 0
-395 -340 -117 0
-173 191 137 0
-292 42 436 0
-392 26 -387 0
375 -93 95 0
245 219 -290 0
441 368 342 0
-19 -311 -226 0
-62 -35 380 0
-77 -333 370 0
267 -183 446 0
-9 339 -16 0
450 308 -252 0
168 390 -225 0
-460 250 -49 0
-316 166 -381 0
-158 186 29 0
-476 268 13 0
25 23 343 0
-402 -299 -169 0
288 -176 -318 0
463 330 -451 0
-476 166 -439 0
130 495 434 0
-450 -459 286 0
95 -330 -252 0
451 253 316 0
134 4 -97 0
-263 23 97 0
142 -103 -162 0
63 -186 -466 0
480 -453 366 0
267 224 -431 0
48 348 364 0
321 364 -45 0
36 317 472 0
365 123 404 0
-386 -339 42 0
-249 263 266 0
445 -308 282 0
-290 321 -326 0
-113 14 -184 0
-186 377 210 0
-34 459 -395 0
438 231 300 0
374 279 -343 0
-319 -324 347 0
-185 -297 -429 0
497 -248 -141 0
-446 22 365 0
173 169 61 0
-275 -114 344 0
-381 -265 405 0
-284 -259 -263 0
33 -100 184 0
-399 -417 363 0
181 296 -183 0
145 358 -389 0
490 342 -69 0
334 380 -328 0
-37 100 -479 0
-470 -492 -258 0
-32 -500 -449 0
474 -187 315 0
-420 -34 255 0
406 334 206 0
250 434 -88 0
-68 -338 386 0
-114 -258 446 0
92 389 366 0
-251 292 -67 0
330 306 -200 0
-387 470 -437 0
200 103 -239 0
-249 -478 409 0
-461 -198 -218 0
-401 -101 396 0
-447 -360 368 0
295 156 -131 0
160 -86 -181 0
190 340 -110 0
-210 -91 -235 0
-79 438 -458 0
489 -462 155 0
-438 -148 -379 0
-209 -258 52 0
-148 322 266 0
43 -83 138 0
458 -403 235 0
-16 382 89 0
-63 441 -126 0
496 206 -247 0
443 -360 -348 0
25 137 -187 0
278 168 219 0
397 187 99 0
75 -451 411 0
-193 -271 -28 0
-485 229 -424 0
418 50 -253 0
-359 -128 -365 0
-390 -157 -45 0
226 83 -429 0
330 -265 -418 0
-469 -266 -269 0
-367 69 -58 0
102 -82 460 0
-181 -258 371 0
221 -491 -124 0
-250 -450 234 0
143 -163 465 0
-436 478 -434 0
18 -362 483 0
352 486 235 0
-116 6 496 0
-497 279 -246 0
98 -232 -218 0
13 361 289 0
99 -463 386 0
23 -82 238 0
-450 -494 240 0
185 188 -36 0
-240 -397 -398 0
289 295 -22 0
264 134 330 0
-152 350 437 0
-97 159 -47 0
480 174 -244 0
-453 64 -25 0
284 -80 -210 0
376 -292 136 0
-278 85 91 0
433 262 -172 0
-2 -27 168 0
-399 115 471 0
401 -304 324 0
486 -301 143 0
308 200 183 0
165 481 -178 0
360 412 -59 0
-460 131 270 0
-100 180 268 0
-309 2 -237 0
474 -391 -71 0
-445 -462 -449 0
-107 251 481 0
302 247 414 0
352 -304 132 0
295 -121 382 0
265 175 157 0
417 -471 348 0
347 28 116 0
-239 -202 27 0
8 -247 466 0
-313 249 342 0
-191 -461 -56 0
267 166 -198 0
-493 162 -306 0
203 108 -303 0
-403 279 448 0
316 -229 198 0
-339 340 -281 0
-386 385 -65 0
270 116 254 0
-153 435 253 0
-209 -339 170 0
63 -386 173 0
-323 -212 -41 0
461 -326 14 0
285 352 -196 0
434 236 263 0
-485 446 -177 0
-392 498 64 0
-189 393 292 0
-492 -238 -225 0
-278 94 355 0
437 -200 384 0
174 -278 -460 0
-403 101 -200 0
341 -73 -60 0
134 -332 336 0
-418 456 -60 0
237 -170 -120 0
11 -214 41 0
257 425 -418 0
402 -96 -328 0
-348 482 247 0
189 366 -285 0
-218 29 -47 0
350 -398 -157 0
-446 426 -404 0
-384 296 -338 0
-184 -278 288 0
208 2 -452 0
-425 358 52 0
24 364 41 0
483 316 -466 0
161 -108 -119 0
-69 380 201 0
-498 -322 -171 0
-18 440 -439 0
-308 421 -357 0
-451 -314 -376 0
350 272 116 0
389 -102 -369 0
428 -96 -420 0
349 112 94 0
291 -225 25 0
232 101 -212 0
-263 191 -384 0
-312 -428 134 0
-294 447 -477 0
-455 474 166 0
-410 -271 497 0
148 -235 86 0
494 -219 -35 0
-135 417 -48 0
297 236 -327 0
-403 -202 -215 0
-209 -404 373 0
-360 -168 -435 0
-254 377 -436 0
-152 -455 66 0
190 169 324 0
-420 370 180 0
-171 -271 4 0
-104 -435 329 0
-311 262 227 0
186 264 125 0
289 -395 432 0
-193 440 -341 0
-305 500 207 0
-463 -284 -84 0
38 220 -243 0
-63 126 188 0
397 -495 232 0
347 266 -407 0
36 118 -480 0
-376 -34 -33 0
-461 -233 407 0
389 -160 201 0
266 145 241 0
-318 -105 326 0
-200 231 -295 0
-23 -189 -116 0
222 -398 457 0
290 462 252 0
-374 -453 -83 0
-220 18 -11 0
174 -140 -323 0
-293 373 258 0
387 -131 -293 0
471 -103 359 0
-467 -65 -339 0
31 385 -152 0
96 66 15 0
-223 479 -310 0
446 -462 92 0
-329 465 -126 0
-85 232 336 0
222 -434 -32 0
-369 -474 412 0
-79 -257 -237 0
98 -224 368 0
-144 221 366 0
-149 211 -486 0
-323 10 -349 0
278 442 240 0
-358 -413 -350 0
38 118 -437 0
395 254 89 0
210 -204 -243 0
114 500 -54 0
-448 250 -163 0
-435 33 485 0
419 106 -18 0
-40 323 -489 0
-208 -361 370 0
134 -318 -443 0
400 -105 359 0
82 180 490 0
-82 358 -158 0
316 83 -84 0
-390 -233 321 0
-71 166 -168 0
73 -326 -227 0
-403 137 161 0
-300 309 348 0
-287 -195 -419 0
137 427 275 0
-380 -105 -230 0
163 102 -337 0
-313 -439 283 0
-267 211 -34 0
-421 385 -354 0
-125 273 -379 0
-58 -362 351 0
133 292 368 0
397 -435 443 0
-441 -208 -225 0
-163 453 -278 0
-119 -133 33 0
-176 -451 54 0
-258 -470 -8 0
366 -305 49 0
-421 -95 111 0
-137 489 -394 0
-491 -135 29 0
108 -235 -301 0
283 361 -294 0
139 -304 93 0
-99 394 -33 0
440 416 95 0
70 -141 -253 0
450 -34 141 0
244 330 306 0
115 -406 -47 0
-445 -491 177 0
26 -391 -327 0
-166 243 -493 0
282 -374 443 0
-253 1 371 0
433 -419 -473 0
-106 -101 383 0
12 95 -259 0
-37 500 -354 0
61 391 -342 0
262 261 -414 0
-428 314 236 0
-152 481 -291 0
-342 -476 -107 0
-220 -107 325 0
327 -372 183 0
194 -342 -64 0
320 -146 193 0
-215 2 71 0
459 -12 -473 0
-243 -294 -38 0
-159 -111 -490 0
68 -367 229 0
-170 -471 -344 0
22 -231 141 0
-198 329 -352 0
495 -367 -185 0
-74 98 278 0
-476 -71 159 0
-139 480 -32 0
30 147 -34 0
-22 414 -184 0
-251 -162 -139 0
-333 -198 271 0
-323 -117 440 0
-356 437 15 0
332 -107 -13 0
324 -459 -354 0
-252 -409 -479 0
-445 17 205 0
-190 291 -185 0
76 190 324 0
-290 42 -258 0
-238 -328 -231 0
-399 -66 41 0
-91 206 251 0
82 208 -245 0
-482 156 -159 0
-262 71 103 0
-323 -373 458 0
-421 -439 -260 0
171 -228 -44 0
-388 291 -171 0
-296 451 -164 0
-55 287 -281 0
-199 -274 497 0
-359 43 275 0
459 -479 -326 0
436 317 175 0
413 494 193 0
193 -3 72 0
-225 214 -168 0
164 447 -245 0
-46 -62 -357 0
-88 -104 -359 0
-93 -39 -377 0
-76 -445 -332 0
420 -496 -97 0
-28 281 6 0
396 339 36 0
314 -73 8 0
415 -275 -34 0
434 402 -180 0
114 -262 252 0
194 464 -462 0
474 411 -225 0
-460 -161 415 0
453 -113 -185 0
-361 213 -295 0
-418 12 242 0
286 -118 111 0
-427 -14 -492 0
3 278 275 0
326 -466 19 0
292 316 416 0
-2 26 -177 0
-114 -78 423 0
432 185 454 0
26 342 -306 0
-178 -328 64 0
93 -24 164 0
281 364 -476 0
-288 -314 -26 0
64 -38 -495 0
-82 449 157 0
254 -358 330 0
-244 484 60 0
-148 -97 203 0
154 -151 -78 0
418 452 -188 0
16 -101 278 0
-383 272 -102 0
156 265 247 0
389 64 -411 0
114 230 479 0
8 99 41 0
287 131 -367 0
262 -322 304 0
-34 148 -289 0
107 -348 -252 0
272 -160 386 0
-494 180 257 0
-441 -55 -222 0
-225 -210 19 0
486 -354 -192 0
-172 294 206 0
-437 -208 226 0
-37 -189 433 0
493 260 337 0
411 -45 472 0
462 454 145 0
447 -181 148 0
177 147 392 0
-285 -412 -416 0
-305 91 -450 0
421 413 74 0
-420 -349 -237 0
-486 -210 -270 0
-482 2 -248 0
278 -172 -86 0
-202 34 378 0
-41 -84 239 0
199 219 -66 0
-171 -270 -248 0
212 -325 -327 0
-144 -91 403 0
42 415 -153 0
308 367 -155 0
-477 178 221 0
325 -247 -282 0
266 178 395 0
286 -85 -151 0
282 209 -326 0
-218 -36 377 0
-12 -301 372 0
-94 -323 410 0
223 -296 129 0
-54 57 1 0
190 -222 -152 0
372 212 489 0
-388 -180 313 0
186 -259 -452 0
-376 118 98 0
-220 118 -65 0
12 67 291 0
467 384 420 0
360 338 -187 0
314 -445 366 0
-291 -148 363 0
247 -321 291 0
-486 -37 321 0
25 -355 -85 0
-157 471 -283 0
-471 482 175 0
239 -494 -441 0
-413 321 24 0
-329 128 -118 0
338 356 -473 0
-385 -373 329 0
350 -322 151 0
-418 -177 -92 0
136 288 -314 0
-356 93 293 0
8 458 476 0
-185 -3 -336 0
-173 323 -123 0
-88 -415 225 0
387 -182 -233 0
224 -32 -307 0
-54 285 -151 0
-355 -477 -127 0
-178 -149 -313 0
163 379 -234 0
216 450 -262 0
-50 -235 -192 0
209 280 400 0
-307 -416 43 0
-318 -450 -59 0
2 410 59 0
-201 -157 -24 0
356 -37 -489 0
459 169 259 0
267 -339 -23 0
-134 -394 212 0
-444 -210 -126 0
221 351 346 0
-203 169 134 0
-138 -91 54 0
432 -499 -399 0
-23 -181 312 0
284 235 -27 0
401 427 299 0
128 132 -310 0
-25 411 -79 0
30 -174 -254 0
-360 300 -29 0
-413 -367 362 0
-449 355 137 0
-153 205 -335 0
-100 -478 477 0
-21 436 -407 0
-424 360 70 0
-176 419 -166 0
473 302 400 0
129 -40 319 0
-472 399 -407 0
-186 371 -297 0
-414 208 132 0
436 -132 -119 0
-407 198 190 0
-170 -87 -269 0
-375 134 263 0
-289 -316 -194 0
-40 75 95 0
35 296 103 0
-89 -405 -34 0
-293 11 -391 0
-377 170 -95 0
297 -270 295 0
239 142 426 0
482 157 -429 0
410 486 257 0
-201 -359 414 0
-186 176 441 0
-358 -54 442 0
329 470 55 0
-264 217 362 0
349 355 129 0
403 306 40 0
-439 237 118 0
102 -190 419 0
107 7 270 0
236 -372 -365 0
453 -255 445 0
451 -66 -202 0
-173 -279 493 0
414 256 -320 0
-32 433 226 0
-98 62 400 0
-344 99 -357 0
433 439 205 0
268 -323 342 0
281 450 -331 0
260 308 175 0
-432 325 -102 0
415 376 381 0
124 448 255 0
-307 -127 131 0
210 -120 417 0
216 44 135 0
13 166 -400 0
496 -226 207 0
-339 276 -302 0
126 -48 152 0
-236 160 -112 0
-18 -41 -131 0
141 -126 446 0
255 173 125 0
324 -357 231 0
-122 175 139 0
-308 422 447 0
6 -486 130 0
187 116 -359 0
471 468 -129 0
-412 -6 42 0
205 373 -7 0
-324 -386 -383 0
-91 233 406 0
-39 -189 -126 0
223 -276 -415 0
-343 296 302 0
-334 -459 18 0
492 -193 -325 0
-473 3 -357 0
-16 -200 -205 0
-369 319 -74 0
327 237 293 0
466 -38 380 0
-2 74 129 0
130 452 -27 0
209 -280 301 0
-492 -304 235 0
411 -193 407 0
-270 -173 294 0
113 -54 166 0
-370 106 -78 0
-397 73 -350 0
-332 455 -15 0
-290 -434 77 0
311 120 -268 0
24 -26 401 0
-192 -222 220 0
393 494 53 0
277 -310 -484 0
10 -102 -189 0
15 376 -430 0
-364 388 -428 0
-32 62 -191 0
53 301 -374 0
151 327 -352 0
-306 -464 203 0
203 -221 -211 0
-493 -197 -354 0
458 338 337 0
172 -413 61 0
185 -20 447 0
-369 479 -12 0
-472 200 -393 0
-194 285 221 0
362 -187 -124 0
-39 361 -314 0
-24 439 127 0
-333 287 -286 0
8 26 429 0
-55 97 257 0
224 -435 -7 0
190 118 -489 0
165 -205 -175 0
494 140 -120 0
330 -165 -389 0
258 -119 182 0
-324 -194 241 0
352 -91 479 0
201 -409 -363 0
438 -377 106 0
-248 423 331 0
297 -176 226 0
321 -288 285 0
-203 -170 -232 0
362 420 308 0
420 362 -304 0
-328 339 -110 0
265 -430 -416 0
-435 273 -355 0
256 70 -218 0
-397 -462 208 0
478 399 267 0
-204 278 -123 0
159 49 34 0
-139 290 97 0
-186 34 -82 0
310 165 -493 0
229 285 -443 0
367 13 329 0
224 428 -210 0
-163 157 196 0
315 -329 -269 0
308 187 360 0
-46 336 -110 0
492 196 365 0
-65 -98 450 0
464 187 -40 0
-283 -476 354 0
340 376 -492 0
451 221 -214 0
482 -153 461 0
-449 -24 104 0
-203 -248 238 0
-361 -267 -54 0
227 -389 402 0
322 363 -118 0
-206 118 -251 0
-107 131 361 0
453 -490 -24 0
88 -68 -304 0
-331 397 365 0
106 -401 371 0
412 254 293 0
277 -132 158 0
474 240 -4 0
143 -306 -195 0
275 406 296 0
139 110 -253 0
-335 -376 491 0
-104 378 347 0
33 353 -77 0
54 -251 -206 0
126 41 119 0
157 -68 -398 0
494 -368 161 0
188 120 -190 0
-15 399 306 0
-210 -469 -330 0
-230 18 -459 0
77 12 -263 0
66 246 237 0
-382 -398 -361 0
-472 457 -108 0
-131 167 -165 0
302 420 -372 0
-149 120 -447 0
-80 -494 389 0
-202 -105 -180 0
-420 -280 12 0
-13 -324 195 0
248 -80 -338 0
429 143 177 0
-96 147 442 0
-204 142 42 0
17 -424 10 0
77 459 282 0
105 -420 98 0
274 -125 46 0
-30 -444 -227 0
-74 -128 -451 0
-472 94 -91 0
316 102 78 0
136 84 452 0
-143 440 -60 0
461 -347 -450 0
112 -228 483 0
161 180 476 0
-338 3 48 0
-486 393 35 0
124 379 -480 0
236 193 83 0
314 -235 65 0
54 -472 104 0
-258 3 -242 0
-143 -384 -296 0
476 169 119 0
-451 -323 276 0
141 -110 -187 0
-274 -205 -435 0
-153 -424 348 0
115 -13 -182 0
-400 -32 126 0
-182 7 -196 0
-278 -398 -445 0
-200 297 208 0
284 340 226 0
349 429 89 0
-98 -109 244 0
435 -232 210 0
166 -228 -254 0
-458 151 95 0
416 467 -370 0
-492 184 340 0
-172 -332 27 0
463 -228 -444 0
-418 56 -462 0
390 -159 -278 0
215 -403 224 0
-486 -425 -175 0
-223 457 -29 0
-23 -287 241 0
357 -262 -90 0
362 -337 347 0
66 -90 154 0
-4 95 254 0
-369 166 238 0
-400 -208 286 0
24 -6 -117 0
186 326 178 0
442 121 147 0
-477 -360 51 0
-49 -232 389 0
126 20 -348 0
364 -268 140 0
181 -288 -143 0
460 -142 313 0
6 -465 156 0
81 5 -365 0
439 6 307 0
309 -495 262 0
130 -243 406 0
-440 71 -137 0
14 -358 -253 0
-144 358 408 0
-252 89 40 0
-493 290 297 0
441 471 -435 0
-309 170 40 0
-252 433 -94 0
481 -221 207 0
65 413 140 0
-399 321 -473 0
40 99 -441 0
372 469 -477 0
-378 41 -455 0
68 -220 -178 0
252 370 131 0
-162 57 -344 0
-118 -304 -248 0
-59 -97 425 0
485 -144 337 0
251 351 425 0
225 -471 500 0
-233 193 -262 0
164 -67 349 0
-27 -176 235 0
433 459 -464 0
19 -353 -485 0
-35 -12 251 0
456 295 121 0
-195 -40 100 0
184 -68 -292 0
450 396 -44 0
450 168 134 0
-446 279 -44 0
23 -379 -128 0
-341 -325 -53 0
444 405 -256 0
-284 161 418 0
-167 -490 -310 0
-183 376 -31 0
-197 -417 439 0
-498 262 403 0
349 -397 223 0
17 60 -134 0
-250 345 -277 0
75 -114 72 0
-395 -263 -273 0
-410 -115 -82 0
111 -454 -274 0
-83 -386 428 0
-280 348 328 0
106 -36 134 0
285 320 477 0
466 -57 -164 0
134 -308 -49 0
-258 115 470 0
422 15 -368 0
-91 -7 352 0
472 360 423 0
-128 478 -393 0
-19 400 -269 0
-333 181 71 0
-265 -445 105 0
402 491 231 0
-81 -478 157 0
405 -306 41 0
363 -109 -68 0
-63 -68 -306 0
84 -45 188 0
-219 -197 147 0
438 -201 -247 0
103 -475 -284 0
-111 6 -482 0
111 118 188 0
383 150 -372 0
-58 -246 150 0
-409 -469 -62 0
-326 49 -142 0
434 -323 331 0
-23 32 -162 0
3 -178 85 0
-34 430 386 0
-357 272 25 0
440 162 425 0
-158 -333 209 0
483 74 -49 0
-42 -460 -168 0
42 295 -237 0
-250 -240 404 0
-464 -122 -218 0
-151 -129 373 0
-442 -136 -85 0
305 -470 -339 0
-419 -340 166 0
-430 -344 -390 0
334 -374 205 0
122 -30 235 0
252 472 -174 0
425 -102 466 0
-102 80 -37 0
490 440 252 0
-401 -374 -219 0
467 495 -314 0
-159 -1 -184 0
-135 382 244 0
210 -9 -35 0
-379 -32 -260 0
351 421 491 0
78 396 -468 0
-178 14 237 0
-393 -472 368 0
-191 -413 198 0
181 500 -25 0
-354 -343 431 0
204 -102 125 0
-113 -426 347 0
