p cnf 1000 3350
-938 -571 850 0
-43 -278 461 0
-354 715 156 0
811 -43 426 0
-385 200 324 0
79 -778 -357 0
-680 -139 401 0
-970 977 447 0
675 282 -244 0
-764 -489 -786 0
336 51 549 0
820 -420 -141 0
388 -634 806 0
444 983 355 0
-109 71 230 0
-482 443 416 0
540 663 -793 0
51 349 -754 0
175 855 422 0
-652 -511 -869 0
-1000 70 296 0
705 292 -239 0
677 449 904 0
-635 300 820 0
-596 817 -343 0
-859 -333 475 0
178 203 -19 0
-498 -673 957 0
774 -667 -115 0
-923 36 -510 0
-240 673 977 0
228 -28 461 0
743 -406 992 0
-584 275 -366 0
23 859 920 0
-41 -255 -982 0
176 603 51 0
689 -682 166 0
666 425 933 0
178 -585 -983 0
891 44 393 0
276 -668 -765 0
677 518 -69 0
460 36 -445 0
-921 129 368 0
-699 -776 -128 0
585 -302 -536 0
-691 -326 394 0
-655 176 -589 0
-82 -274 989 0
-355 502 -748 0
-232 957 -27 0
-635 56 964 0
-582 775 932 0
-380 24 841 0
790 -658 488 0
-338 -722 757 0
742 -394 -982 0
-90 708 -806 0
853 -159 735 0
317 194 449 0
11 746 716 0
-995 -180 -61 0
630 -84 -253 0
844 730 292 0
-591 -59 249 0
-996 -374 246 0
-380 -54 -538 0
18 -452 314 0
846 -694 642 0
-214 561 877 0
14 -579 -842 0
992 759 437 0
956 -462 -773 0
567 -666 533 0
-760 75 -413 0
-836 -70 -945 0
925 567 900 0
248 426 -416 0
923 -145 -229 0
935 -550 -937 0
914 177 -205 0
184 -49 -525 0
133 318 -942 0
-505 824 232 0
-84 265 660 0
-97 165 -916 0
299 837 925 0
243 -885 941 0
241 318 -211 0
194 467 996 0
-587 870 104 0
981 -690 -825 0
47 374 -889 0
-185 794 -164 0
87 85 -538 0
-359 -948 371 0
-237 580 851 0
-563 -595 602 0
294 -526 587 0
-755 -851 321 0
-598 -552 -10 0
-469 941 -395 0
382 363 118 0
-678 -274 -931 0
-588 882 128 0
-792 -743 -638 0
-28 -285 980 0
-559 -221 -353 0
-308 -423 409 0
766 772 -976 0
-955 519 22 0
-274 29 -220 0
-444 -765 -497 0
-242 -464 -884 0
-723 -201 -110 0
-769 679 124 0
-764 -925 735 0
873 -781 -581 0
-909 -904 333 0
-590 818 -726 0
-578 -956 49 0
-240 -631 -271 0
27 808 800 0
-792 145 471 0
-212 40 651 0
-780 -413 499 0
-914 110 -189 0
990 698 -169 0
970 462 -371 0
-93 820 985 0
-143 628 -905 0
617 170 335 0
593 58 -35 0
-578 -265 294 0
563 -790 555 0
-21 870 -891 0
702 984 -283 0
-187 -484 879 0
179 -805 17 0
282 -187 215 0
305 155 740 0
578 -68 933 0
-336 -612 190 0
-836 -950 -620 0
-853 -582 -577 0
-710 675 -712 0
740 -61 -327 0
465 -629 128 0
-870 515 16 0
-944 866 -530 0
625 -999 -282 0
-440 373 912 0
-49 462 837 0
-928 979 754 0
974 380 560 0
-611 886 -199 0
952 -486 197 0
406 -408 7 0
-585 144 -734 0
-642 -424 659 0
-211 -672 567 0
366 923 520 0
45 93 314 0
-589 627 661 0
-215 -924 789 0
-490 -437 902 0
572 -712 128 0
-766 -536 -610 0
46 -316 -474 0
-99 -66 -482 0
-1000 -723 -968 0
-259 809 -832 0
-938 -821 272 0
-750 -230 -443 0
-916 -31 163 0
-188 -897 842 0
-983 376 480 0
-727 327 911 0
793 -441 960 0
-932 -558 194 0
-930 -386 -11 0
738 98 -102 0
71 870 109 0
389 -699 117 0
-890 618 984 0
-486 372 346 0
927 -994 187 0
-975 -783 313 0
-503 691 -893 0
-403 -104 -582 0
604 6 -964 0
-32 78 922 0
744 663 -61 0
822 -879 -611 0
914 579 -525 0
-994 -850 -815 0
-340 386 -925 0
878 -359 367 0
310 382 580 0
59 -746 306 0
428 -544 653 0
-63 519 -316 0
-528 -135 -529 0
305 -79 -238 0
993 968 -474 0
579 732 434 0
-956 871 -509 0
858 -1000 425 0
60 -391 83 0
-389 -534 421 0
980 695 -102 0
956 -848 -17 0
-76 663 763 0
41 348 -536 0
-448 539 -391 0
-896 673 -400 0
-497 708 -317 0
735 -231 139 0
-15 -64 -289 0
189 -472 239 0
664 303 654 0
-892 -236 -972 0
-612 360 -111 0
779 939 638 0
-435 594 605 0
-269 -217 -357 0
708 -240 663 0
-515 933 934 0
144 41 -968 0
-376 -688 -412 0
91 -542 893 0
126 -864 -606 0
853 140 620 0
348 347 -446 0
-221 -465 -698 0
-447 743 -533 0
-955 596 600 0
-103 133 -596 0
412 -446 669 0
-240 -560 556 0
-493 529 -764 0
-824 -264 223 0
162 518 939 0
-372 -97 -793 0
-349 -130 -443 0
-335 591 -357 0
713 769 -17 0
-52 786 -380 0
991 -192 428 0
-950 -478 -261 0
358 -193 -993 0
106 -794 -651 0
916 -198 797 0
-829 -132 755 0
939 -700 -347 0
-617 -784 -662 0
39 -883 361 0
14 386 -277 0
-577 427 -136 0
-942 957 -97 0
55 932 57 0
994 791 987 0
485 -104 297 0
-689 52 88 0
-396 -271 -901 0
831 -260 331 0
-322 -928 345 0
164 -17 -35 0
64 441 -535 0
-253 568 -842 0
-350 -284 -517 0
-379 761 754 0
731 -389 -850 0
560 -199 462 0
-968 -933 -307 0
553 575 -125 0
-885 793 499 0
-459 -396 827 0
-336 -792 813 0
342 149 611 0
561 -415 -682 0
-844 -88 -950 0
-354 -413 222 0
620 -664 -41 0
479 575 -985 0
-476 755 -914 0
-640 -70 -608 0
-936 -293 -254 0
-344 -10 867 0
-674 -703 780 0
192 -933 -843 0
757 -464 485 0
-70 -640 -883 0
949 496 211 0
-610 -289 -49 0
17 622 134 0
767 487 -522 0
-60 -311 -98 0
915 -3 -172 0
-580 376 150 0
-841 66 993 0
-406 250 360 0
433 -98 78 0
992 727 608 0
343 -907 390 0
-971 697 497 0
-74 -979 657 0
204 -190 450 0
-607 -818 -173 0
-758 -737 -175 0
635 488 886 0
10 -451 -579 0
-164 161 -909 0
-185 -823 254 0
-223 -275 407 0
169 669 780 0
800 -353 681 0
589 -228 577 0
-298 225 -446 0
-635 985 732 0
856 -474 -560 0
-970 229 -398 0
-474 59 -882 0
-863 148 40 0
-876 241 -158 0
-893 23 -787 0
776 371 -103 0
-817 386 924 0
121 503 -300 0
-922 86 -672 0
647 -770 -324 0
-697 -705 924 0
198 -423 -709 0
305 -983 -345 0
-896 299 -765 0
294 736 -136 0
-470 178 -164 0
-133 449 -319 0
-628 -472 -877 0
-782 -346 120 0
-360 970 854 0
412 -279 -268 0
-682 387 -337 0
224 642 890 0
570 -937 817 0
39 844 -90 0
-305 615 917 0
-552 616 719 0
512 -294 -70 0
817 -242 -533 0
551 -715 -220 0
-824 -965 587 0
-506 -656 -206 0
338 223 332 0
984 911 -27 0
53 556 -615 0
-298 -629 -34 0
543 -429 830 0
-557 -947 -680 0
901 -492 -459 0
529 -720 379 0
627 403 834 0
-747 -374 801 0
145 -475 708 0
-178 765 568 0
66 447 -320 0
770 -532 -463 0
-799 984 726 0
122 -199 -90 0
9 31 -7 0
984 -972 963 0
53 -348 -148 0
241 400 1 0
-175 977 580 0
348 957 111 0
16 135 -451 0
-446 957 -905 0
300 717 -937 0
-19 -512 -616 0
707 -32 -167 0
-820 954 -654 0
-628 839 553 0
32 -345 -645 0
-462 -302 -181 0
882 794 13 0
-4 -281 913 0
756 785 -490 0
-922 45 120 0
-870 -888 -244 0
-889 45 -815 0
-393 -75 20 0
859 675 392 0
176 -777 781 0
667 -291 13 0
-748 84 681 0
908 252 -503 0
173 -120 580 0
772 -45 336 0
732 -628 512 0
653 831 284 0
-645 -317 414 0
-995 -999 620 0
806 857 -818 0
123 536 -177 0
-389 806 487 0
-945 326 -83 0
-6 163 274 0
432 958 410 0
515 -213 229 0
200 -1000 -196 0
-557 94 -739 0
635 -474 734 0
-709 38 -385 0
-224 90 85 0
363 983 -513 0
-167 -466 -366 0
-398 -733 -954 0
-601 -130 -672 0
-768 694 47 0
-794 197 431 0
722 520 750 0
-338 -773 -781 0
-305 758 -932 0
-733 -1000 -334 0
16 255 -954 0
-461 938 702 0
194 712 -413 0
260 359 -64 0
68 340 864 0
-371 183 9 0
118 -437 576 0
154 -108 769 0
815 -563 687 0
-507 -344 599 0
828 535 -529 0
176 -424 -474 0
-830 34 -354 0
376 -40 -828 0
223 691 71 0
-781 464 416 0
555 115 11 0
-396 865 -730 0
-700 557 727 0
57 797 116 0
315 731 430 0
532 949 -557 0
-1000 -210 -668 0
-822 185 479 0
-219 126 871 0
607 535 -24 0
-590 -436 884 0
-957 -459 -644 0
42 639 -22 0
583 -984 -741 0
-687 -175 -846 0
800 905 370 0
837 498 -855 0
780 -334 87 0
-260 -594 -859 0
395 735 -875 0
988 -160 60 0
-857 694 -151 0
718 -593 -220 0
362 -323 -591 0
224 186 -416 0
-237 -979 -843 0
534 333 -483 0
-145 -215 -89 0
355 -502 -771 0
87 -260 -72 0
-610 242 -872 0
-355 379 -866 0
304 -520 551 0
206 -366 -846 0
479 852 34 0
-600 425 -736 0
-430 -782 469 0
-516 -420 718 0
453 927 -611 0
56 191 564 0
-84 -873 -244 0
964 -988 534 0
-112 -96 -236 0
-999 550 -61 0
425 -804 40 0
-519 746 -303 0
-112 128 -665 0
157 -595 -499 0
-868 521 345 0
922 282 -600 0
-195 98 114 0
423 -263 463 0
143 -191 39 0
113 55 -347 0
428 -215 771 0
-938 382 -337 0
-275 803 -55 0
611 146 -710 0
-33 219 985 0
57 501 -175 0
-51 -30 470 0
-496 818 -373 0
-789 454 -374 0
-757 -403 -782 0
-949 406 -275 0
-20 876 382 0
-851 842 676 0
-833 -730 -422 0
173 -6 518 0
861 -819 -671 0
-415 201 -356 0
-190 877 -636 0
-107 232 243 0
-350 -183 -642 0
887 -284 -471 0
-428 289 149 0
-109 836 -552 0
-542 -555 -799 0
-110 -107 -364 0
-109 48 -684 0
-968 -797 -801 0
-7 523 640 0
907 352 677 0
-174 -320 244 0
117 475 -278 0
-91 875 -961 0
625 848 864 0
301 -407 520 0
-494 -359 874 0
-40 -23 -446 0
-975 -328 -730 0
547 -295 415 0
771 346 336 0
530 710 -545 0
344 929 36 0
254 249 447 0
-897 689 241 0
-664 318 -644 0
-581 -30 223 0
900 821 860 0
775 -183 695 0
-869 789 -886 0
-790 -491 598 0
-353 -411 970 0
755 381 -4 0
920 -577 979 0
-968 493 969 0
-733 -5 -262 0
377 -30 485 0
-64 -454 -176 0
-193 -649 127 0
441 -734 488 0
832 -969 -611 0
175 177 -769 0
-1000 909 775 0
544 378 -770 0
892 -210 285 0
-88 -327 960 0
-949 -288 54 0
-251 -172 -965 0
488 432 57 0
142 -872 -578 0
52 615 -26 0
931 -353 932 0
-700 328 867 0
-849 -715 413 0
771 711 330 0
-682 -332 -546 0
-274 -276 343 0
-454 -564 956 0
-366 809 -818 0
289 -789 160 0
235 -812 206 0
-935 211 -981 0
133 714 741 0
-556 -243 -757 0
137 -56 -50 0
-223 -283 688 0
746 970 960 0
-961 -767 280 0
-906 448 527 0
-899 584 254 0
-360 -350 207 0
-821 529 -926 0
570 345 -94 0
950 -527 -794 0
-466 -344 51 0
-667 179 -504 0
814 75 105 0
-837 -405 -904 0
635 -656 -844 0
-220 245 763 0
-921 92 -2 0
-44 -274 487 0
-269 132 399 0
-472 705 -651 0
-121 965 814 0
635 723 -660 0
292 -243 763 0
-458 141 -267 0
954 421 -621 0
-440 -976 -594 0
-765 -362 51 0
334 -87 735 0
853 812 -15 0
-275 432 472 0
-488 -335 -752 0
388 -490 -362 0
740 -203 -219 0
-17 -133 843 0
-997 488 858 0
-841 -551 -569 0
484 -136 -746 0
467 130 47 0
-199 -221 -237 0
6 -258 -2 0
562 -305 -198 0
-316 -153 -562 0
721 771 102 0
-706 133 103 0
902 -237 276 0
-746 788 -689 0
-409 461 -383 0
-309 -709 488 0
296 522 -675 0
454 334 -486 0
-478 239 298 0
54 664 -351 0
548 75 505 0
-655 -902 458 0
-551 -641 510 0
937 -503 -753 0
-859 -579 685 0
-694 -369 -629 0
-951 -612 -255 0
716 489 -89 0
-231 950 789 0
645 -985 -696 0
607 -92 422 0
220 885 -245 0
-550 826 -83 0
432 -566 -948 0
469 477 -132 0
-889 -572 732 0
949 30 839 0
434 -347 439 0
-589 933 -484 0
-139 185 -218 0
-871 -546 -570 0
698 908 -86 0
357 94 -323 0
-882 79 555 0
99 849 -992 0
-309 -775 -937 0
345 725 593 0
-233 260 -351 0
836 612 43 0
20 -166 -890 0
44 491 -348 0
388 -78 -995 0
-39 -271 -190 0
217 546 -630 0
113 -88 -805 0
469 -688 977 0
-321 -218 258 0
-255 -557 -47 0
654 -179 -34 0
947 334 806 0
710 -907 -112 0
889 -809 -982 0
101 999 -636 0
-131 -981 747 0
-338 -751 -456 0
-479 -82 554 0
-488 933 -16 0
525 959 -980 0
-656 492 965 0
432 598 42 0
566 956 290 0
604 -228 398 0
478 866 274 0
-616 -236 -63 0
-965 350 255 0
344 -104 282 0
51 -699 355 0
-963 487 -562 0
-578 -96 -696 0
782 -844 429 0
-294 761 -638 0
474 -740 415 0
-435 781 -136 0
856 -539 669 0
-892 -200 3 0
-697 -141 -82 0
271 881 -795 0
672 73 384 0
90 156 -798 0
432 8 304 0
871 -327 774 0
-612 543 -799 0
-278 -991 -673 0
-82 -467 809 0
921 769 -51 0
-195 -530 858 0
707 -339 -744 0
317 -84 -858 0
-417 -609 684 0
-796 885 489 0
-707 -963 142 0
-391 827 877 0
-368 716 -30 0
-703 -158 241 0
-982 -685 86 0
599 -332 355 0
-879 528 569 0
-368 194 -824 0
518 383 951 0
-511 -300 198 0
-727 -106 723 0
-232 355 862 0
705 -71 676 0
-896 830 -608 0
445 960 603 0
-733 525 511 0
-199 864 -813 0
-175 730 198 0
-870 -701 -637 0
-164 -999 474 0
-659 -773 -491 0
574 901 -657 0
-317 311 -833 0
978 431 414 0
-345 -314 -933 0
923 638 957 0
-175 818 908 0
45 42 -796 0
397 -64 346 0
-686 685 -53 0
-419 -811 -162 0
358 -468 -102 0
549 38 -689 0
-893 -794 -769 0
971 416 48 0
-748 930 578 0
-239 422 -90 0
-107 -611 -620 0
-288 -565 771 0
894 495 623 0
-42 -914 -702 0
714 827 366 0
417 -704 881 0
-938 509 133 0
-880 730 685 0
686 -113 -283 0
-272 335 246 0
-141 399 308 0
628 -57 -641 0
-725 228 119 0
-216 954 -319 0
604 -843 987 0
-691 -92 501 0
-975 619 -805 0
-653 -177 -991 0
-714 -156 709 0
-331 -635 747 0
607 -157 -558 0
-914 -536 453 0
-829 -987 559 0
48 -38 -581 0
623 -77 -283 0
-530 -416 940 0
-791 267 94 0
582 180 -635 0
-320 -931 61 0
-35 103 28 0
774 177 902 0
338 280 596 0
-488 -852 -68 0
-342 973 810 0
478 2 -821 0
-807 213 676 0
-126 358 453 0
-601 -496 -122 0
-544 -148 513 0
-437 -962 632 0
-598 -763 536 0
-375 791 -740 0
-789 392 -255 0
-861 225 841 0
-786 462 706 0
-440 -831 -39 0
-346 913 697 0
163 455 -895 0
321 937 -200 0
917 858 -254 0
82 557 -529 0
665 -442 -540 0
-14 242 -894 0
-25 -623 441 0
-217 -898 -969 0
146 -134 -773 0
-38 979 -17 0
342 967 -243 0
578 -73 189 0
367 -703 -243 0
-575 730 -88 0
787 91 103 0
410 -418 31 0
-451 -971 -938 0
790 416 -409 0
275 -662 769 0
-809 472 -875 0
791 -53 -226 0
-144 -374 527 0
-781 -716 777 0
-150 677 173 0
961 -380 -288 0
66 -770 414 0
163 915 -835 0
-40 816 742 0
-626 -920 812 0
-374 429 611 0
226 -959 -640 0
764 59 -787 0
-271 -882 -542 0
694 -166 -866 0
213 629 -885 0
-232 -714 667 0
-49 242 976 0
749 -134 -554 0
-657 -963 887 0
-596 283 -574 0
-504 -927 912 0
691 731 -182 0
-883 764 -222 0
-840 -61 542 0
6 50 -173 0
74 578 506 0
-417 903 561 0
-967 272 37 0
192 246 490 0
-203 821 66 0
739 693 792 0
980 -459 947 0
-746 630 170 0
304 -214 770 0
238 494 12 0
-205 -102 -173 0
662 -876 -249 0
-295 -913 63 0
-861 431 -627 0
452 -761 -771 0
-641 -894 184 0
-318 -657 -825 0
-984 -627 -849 0
766 -768 -552 0
228 664 385 0
-390 -901 -992 0
-778 503 292 0
-302 77 -653 0
699 -196 -198 0
869 480 -498 0
-638 -222 -919 0
-703 -846 -957 0
-485 688 201 0
209 47 10 0
-663 448 971 0
-379 423 -635 0
-726 -884 800 0
491 -128 202 0
-470 11 -7 0
-315 -134 491 0
-603 153 -168 0
76 773 -392 0
-97 -634 60 0
724 -513 980 0
-467 55 -540 0
956 -586 310 0
569 -44 936 0
-793 148 -713 0
-435 -374 -649 0
200 -784 492 0
563 -804 921 0
348 -930 149 0
-571 -653 -479 0
-773 -304 -171 0
787 -878 278 0
395 829 -71 0
-767 748 542 0
-868 152 486 0
-106 -590 990 0
-52 525 608 0
521 807 436 0
-521 -299 -928 0
473 11 832 0
-376 906 -99 0
-244 -858 320 0
703 -738 867 0
-410 58 -172 0
-855 809 -746 0
-779 917 -324 0
574 -759 330 0
-11 -294 709 0
29 624 -510 0
325 -294 333 0
641 476 -876 0
466 910 -426 0
675 -283 41 0
270 -205 -39 0
453 -729 -925 0
-48 -31 124 0
192 -278 383 0
-681 687 622 0
-123 428 -174 0
-118 416 -708 0
-360 -745 239 0
-879 297 62 0
399 -489 426 0
-843 819 -634 0
283 737 -182 0
341 439 -590 0
-968 687 531 0
-386 -107 521 0
986 -129 -267 0
250 -317 -322 0
-84 -237 -101 0
-154 -179 -533 0
-524 442 -446 0
-361 321 783 0
304 756 -740 0
-945 -43 979 0
-91 -725 1 0
-522 83 482 0
-947 533 226 0
-169 -235 -12 0
-107 68 53 0
509 901 547 0
122 651 598 0
376 -890 831 0
563 -871 600 0
-632 736 748 0
36 -280 -217 0
2 209 585 0
577 769 458 0
-152 863 -919 0
694 -411 -397 0
848 545 -874 0
-802 -517 96 0
-963 -602 -431 0
-220 -436 1 0
109 76 628 0
293 167 -423 0
-592 836 -627 0
-550 930 -205 0
186 -800 730 0
-156 -872 351 0
324 -794 530 0
-633 -368 -519 0
-164 -800 -385 0
-423 -139 801 0
49 -593 -707 0
-592 694 362 0
24 -684 -382 0
48 759 -607 0
-280 -43 -289 0
-801 -22 -389 0
947 -609 453 0
139 -569 6 0
-924 -370 -587 0
-896 -774 885 0
224 -69 888 0
390 -619 155 0
596 -358 518 0
-156 259 -435 0
905 -308 -612 0
-602 661 181 0
584 -526 -385 0
-661 114 51 0
-629 879 -834 0
159 -513 -51 0
443 -501 -74 0
283 -780 495 0
307 160 -1 0
-678 -315 350 0
639 -743 702 0
-830 -898 -330 0
-590 958 944 0
-412 667 -918 0
-196 -185 927 0
988 -342 598 0
-572 -627 -582 0
-161 288 314 0
399 190 353 0
784 884 425 0
-547 904 -346 0
-549 822 104 0
262 -434 -761 0
-370 359 609 0
374 640 -892 0
486 978 -768 0
-251 -641 -373 0
-775 556 919 0
-277 228 320 0
663 101 -735 0
179 -754 101 0
687 320 -245 0
668 859 132 0
270 -192 -198 0
250 -652 266 0
-857 885 -810 0
-107 98 318 0
-886 654 -262 0
-59 -951 -776 0
985 765 -15 0
-982 -723 486 0
57 171 558 0
-400 -519 789 0
-247 865 71 0
901 -884 -956 0
893 68 361 0
-393 297 534 0
-343 -247 -639 0
-112 206 -145 0
-94 -54 242 0
600 -740 61 0
-641 453 -75 0
-972 -819 928 0
298 -333 351 0
761 -949 77 0
653 -524 353 0
452 522 -408 0
-765 342 561 0
-322 -337 -756 0
9 172 -945 0
744 -702 -582 0
-419 -407 364 0
-970 -202 -219 0
-341 973 -128 0
-921 720 -149 0
-693 -146 861 0
458 -222 717 0
675 -929 387 0
-497 -69 409 0
112 -563 -59 0
-9 -494 985 0
-16 -477 310 0
-7 -606 -919 0
-520 -922 -236 0
846 -29 258 0
-659 -19 -807 0
747 -459 -529 0
281 -951 -640 0
-258 -152 -861 0
961 690 -105 0
446 -198 581 0
376 -46 617 0
-804 915 586 0
582 953 -274 0
-771 150 -448 0
129 -19 878 0
300 -158 592 0
491 23 -676 0
-286 -320 -308 0
376 -54 900 0
93 -861 157 0
-316 405 -812 0
-226 -299 916 0
430 717 -457 0
-816 20 -171 0
-442 -1 -974 0
755 637 26 0
-508 810 -519 0
-335 372 321 0
-580 -166 -324 0
-588 -803 -933 0
-665 -685 462 0
-607 887 403 0
-959 131 -598 0
-504 -708 66 0
818 944 -339 0
913 -493 -638 0
-617 389 -822 0
-2 -660 595 0
11 851 107 0
-510 453 318 0
-173 -863 548 0
-578 -84 -502 0
397 -704 662 0
-653 253 -332 0
-880 -284 435 0
-14 490 800 0
317 788 -401 0
-669 -821 -404 0
152 -681 -673 0
-381 -949 271 0
817 939 206 0
459 778 -432 0
-4 -46 -124 0
829 -113 -489 0
-814 937 549 0
744 -31 -195 0
-291 -445 971 0
214 260 995 0
901 -748 -406 0
413 -826 -306 0
-103 -345 -635 0
-346 -312 874 0
-612 348 -377 0
812 -6 706 0
-39 -440 -401 0
628 -486 373 0
-508 -50 153 0
-353 -211 363 0
-283 173 816 0
-27 -392 449 0
139 -771 -371 0
-386 122 33 0
-982 792 293 0
-312 -818 585 0
-753 -735 -925 0
-951 750 840 0
383 -735 -8 0
845 -235 -743 0
-745 278 168 0
55 960 71 0
-91 -57 -607 0
-653 -754 682 0
507 976 -515 0
812 -275 -530 0
-152 363 -71 0
-413 173 506 0
99 56 -363 0
-94 324 169 0
-742 -354 -638 0
389 624 -109 0
-862 966 -22 0
348 -723 237 0
-761 -700 -173 0
-651 -147 -621 0
-907 -257 334 0
704 -380 269 0
504 -178 246 0
592 -300 -985 0
698 900 894 0
432 453 -465 0
-530 -136 -48 0
768 900 505 0
-538 991 899 0
-160 -681 910 0
478 -616 692 0
913 -899 748 0
-425 740 168 0
-449 926 424 0
844 166 237 0
861 -291 -660 0
859 395 -970 0
142 -891 -263 0
-453 733 -508 0
959 -804 -619 0
945 -80 -578 0
-960 380 553 0
689 418 487 0
-345 744 -599 0
-207 -274 427 0
903 -648 -667 0
514 189 -253 0
-930 -305 -4 0
-973 -326 -539 0
-693 590 -976 0
-798 882 -410 0
552 949 -4 0
782 327 825 0
649 -286 -831 0
888 -231 294 0
300 197 120 0
-51 -141 -159 0
19 132 45 0
-501 -893 -637 0
-728 112 -40 0
-584 399 229 0
-885 -170 368 0
691 768 473 0
-649 -500 432 0
437 327 -310 0
-466 194 557 0
305 207 -527 0
833 936 267 0
589 -252 794 0
-330 378 -257 0
887 166 506 0
-62 80 530 0
-905 -84 -431 0
140 -108 128 0
648 -78 230 0
714 847 -810 0
-718 756 989 0
-849 -506 -803 0
-827 774 449 0
-916 -28 -480 0
24 -214 405 0
-244 516 309 0
-352 -89 164 0
-927 -225 530 0
458 -565 -950 0
-987 -731 -33 0
-748 -246 -940 0
-606 -52 272 0
-600 -3 -445 0
223 -1000 -671 0
-958 298 -758 0
942 123 716 0
-734 -898 924 0
488 -284 -170 0
2 -458 606 0
-164 -965 -388 0
866 269 -178 0
-54 38 512 0
-195 388 -349 0
-382 784 -759 0
787 521 499 0
927 310 -809 0
-38 -636 360 0
-816 -320 -796 0
-744 -90 632 0
903 -917 943 0
-537 361 -514 0
-604 210 -97 0
26 705 929 0
606 713 -238 0
668 -643 -443 0
367 -141 -381 0
-400 -845 928 0
874 623 937 0
694 -340 762 0
594 -14 951 0
-651 927 -366 0
832 -206 -620 0
-570 834 -673 0
-24 214 -264 0
942 -770 52 0
734 -432 -894 0
366 -412 229 0
82 -988 356 0
617 99 57 0
256 -917 530 0
277 -581 -785 0
288 801 878 0
-709 -495 -918 0
-634 -577 -306 0
-515 -176 109 0
968 -216 749 0
682 -902 -351 0
166 224 834 0
377 700 -663 0
-609 854 563 0
-490 335 547 0
944 -608 18 0
-965 170 -70 0
-476 -699 -886 0
182 557 963 0
-869 327 -321 0
-727 -614 -718 0
-441 -804 386 0
305 296 -778 0
-848 664 -477 0
448 13 -517 0
-65 -677 517 0
897 -581 -362 0
142 462 -513 0
402 -605 56 0
-343 -922 652 0
-132 529 780 0
-602 -17 593 0
23 29 -873 0
608 -750 299 0
-452 739 -945 0
873 2 736 0
-920 -849 507 0
95 -517 988 0
-735 -355 675 0
-854 -309 -684 0
561 633 538 0
648 292 -250 0
30 378 -191 0
405 -313 -692 0
637 140 -723 0
974 -163 899 0
396 -720 569 0
-699 -134 -89 0
-800 338 -875 0
-629 397 -526 0
820 -229 -479 0
677 -431 705 0
336 -387 302 0
-813 274 -300 0
373 552 681 0
-468 392 882 0
-17 -911 -862 0
756 3 859 0
-328 -546 -194 0
594 -355 -770 0
-449 -185 296 0
840 437 -188 0
242 -710 -868 0
626 376 841 0
388 311 531 0
575 789 -376 0
-268 104 357 0
-798 -689 818 0
747 40 256 0
378 739 -797 0
-25 -28 -390 0
-232 -97 481 0
692 -474 967 0
-941 -182 -902 0
-49 -935 458 0
660 483 -816 0
48 -863 644 0
-336 257 -953 0
-371 -650 -630 0
-118 -437 381 0
228 -639 -935 0
-978 872 895 0
-970 -433 379 0
284 -458 -190 0
911 -788 117 0
-838 573 308 0
34 954 -180 0
109 -930 203 0
-910 -474 -670 0
-45 -262 292 0
535 -139 629 0
791 107 501 0
-975 886 -815 0
91 -738 -308 0
-985 -579 -257 0
697 -351 -974 0
815 944 382 0
-587 860 -985 0
-928 -296 611 0
577 738 -701 0
-941 -735 776 0
30 902 -670 0
-735 -934 489 0
913 -828 500 0
-988 99 785 0
-368 926 -153 0
492 -285 -678 0
592 -570 554 0
-12 -903 273 0
-750 951 -993 0
-709 672 -281 0
-844 35 -214 0
-552 725 -195 0
481 788 812 0
-937 514 -47 0
-177 43 881 0
3 178 760 0
-846 428 680 0
-645 -455 -288 0
-930 -739 951 0
-874 -748 667 0
-928 -748 -832 0
-312 159 719 0
-233 -442 465 0
852 98 682 0
-964 -992 150 0
-476 -67 13 0
-566 126 -637 0
852 -941 -434 0
-580 881 76 0
-860 -313 377 0
280 248 457 0
-120 -919 489 0
-982 277 -161 0
-618 813 -884 0
741 41 -714 0
-224 175 764 0
-114 423 -31 0
-502 929 773 0
132 -280 -791 0
486 -199 604 0
71 -488 693 0
559 187 338 0
722 -281 -94 0
-704 -544 -509 0
955 370 304 0
-967 821 -93 0
703 322 -755 0
661 197 82 0
-852 -402 -586 0
-224 -612 -779 0
35 -780 -528 0
233 393 762 0
637 -773 543 0
569 339 -113 0
-134 -885 -177 0
616 212 759 0
-118 638 772 0
-315 -24 282 0
-770 103 -52 0
563 -475 -734 0
922 -882 -471 0
865 -821 -184 0
-753 153 146 0
692 960 -227 0
-871 634 413 0
-282 120 -585 0
955 -672 140 0
27 62 423 0
-288 88 -128 0
-154 546 252 0
665 929 699 0
765 -746 -924 0
104 881 -352 0
-177 -824 -546 0
-416 -100 -566 0
-45 -376 264 0
81 376 292 0
-934 -988 -515 0
-323 -234 -711 0
503 942 194 0
779 -76 -368 0
-4 -261 -522 0
-113 897 -670 0
770 55 -366 0
117 -107 875 0
253 -222 -661 0
-654 103 -9 0
-3 932 229 0
-302 -133 -547 0
752 -281 -616 0
-816 -121 207 0
491 593 -137 0
-894 -585 -934 0
-195 -314 440 0
-246 -944 -991 0
245 -576 712 0
448 474 907 0
762 691 -293 0
-443 565 -864 0
488 631 -12 0
-841 39 -617 0
101 764 587 0
-269 139 -519 0
-367 -843 308 0
997 823 -904 0
-982 -151 266 0
-682 438 -364 0
-717 -456 -342 0
-193 715 948 0
-725 -158 -243 0
-111 -784 -995 0
-727 -455 680 0
107 481 246 0
-312 795 709 0
-897 871 498 0
410 520 804 0
969 318 197 0
828 -664 796 0
-861 -116 -687 0
-731 855 438 0
666 -316 96 0
-636 -418 -876 0
-761 -230 -147 0
769 -445 732 0
-887 525 714 0
-373 604 5 0
871 628 -891 0
-325 -503 -514 0
150 -653 -916 0
788 -18 -790 0
-621 923 205 0
485 -236 -384 0
-920 -483 -119 0
-927 260 -643 0
877 -658 -890 0
-460 213 -643 0
-827 671 732 0
709 741 -236 0
-796 -724 -661 0
-823 -999 463 0
-208 808 161 0
627 905 -556 0
-590 824 -678 0
-491 -941 -110 0
-895 -452 978 0
-899 22 684 0
345 -21 291 0
987 -918 496 0
215 -331 -507 0
-199 838 -292 0
792 864 -966 0
920 514 980 0
-207 -70 -38 0
186 649 -233 0
-143 -958 -645 0
366 516 -925 0
92 380 322 0
445 -85 44 0
152 639 182 0
923 -307 -983 0
-81 -998 -821 0
-282 124 -503 0
798 809 -862 0
-471 670 -611 0
361 842 -934 0
-163 389 815 0
-649 760 -424 0
803 -585 -695 0
-581 -281 240 0
669 895 -66 0
443 -445 141 0
630 816 -501 0
859 -373 -580 0
-908 -478 349 0
536 956 768 0
54 -801 568 0
711 120 644 0
-815 267 757 0
756 -748 357 0
-553 941 853 0
-542 -307 781 0
-770 814 639 0
237 -363 -641 0
646 -383 777 0
965 -419 -196 0
673 484 -379 0
874 -284 642 0
-391 215 376 0
707 825 -362 0
134 406 -808 0
-492 296 600 0
-708 -189 -877 0
-689 219 91 0
735 -280 -72 0
-547 -37 -36 0
301 259 144 0
-112 -532 -407 0
443 -366 -46 0
-186 -288 -851 0
933 -740 915 0
48 -566 -751 0
-510 921 -171 0
345 685 -549 0
447 -632 -569 0
624 -334 -371 0
948 -210 196 0
130 -522 795 0
-902 209 -883 0
466 -631 523 0
-808 992 -758 0
-829 -185 -613 0
218 -718 -22 0
-623 -690 374 0
-945 -417 771 0
43 330 921 0
784 472 947 0
694 67 -405 0
-165 502 361 0
637 -399 141 0
903 -20 238 0
395 196 -804 0
-684 -427 761 0
486 -892 481 0
-399 -811 11 0
969 -791 -597 0
-604 -619 730 0
-979 99 -436 0
913 876 -793 0
-805 901 540 0
-697 -7 -712 0
315 417 334 0
-880 611 -726 0
382 116 -869 0
-183 -697 -3 0
-796 152 338 0
-790 -261 -614 0
-397 756 -318 0
523 -97 578 0
-250 -689 222 0
445 -531 -734 0
-691 -908 167 0
489 194 106 0
14 159 -262 0
-851 228 -2 0
-760 710 -581 0
137 -664 138 0
30 339 -395 0
-679 -124 848 0
345 318 -718 0
-97 -568 -887 0
-404 849 -489 0
-853 -510 183 0
-418 -866 335 0
-652 -625 726 0
-571 -553 -665 0
414 -363 -729 0
516 974 506 0
359 558 156 0
866 844 126 0
-878 273 -551 0
386 -295 334 0
648 121 -315 0
377 485 184 0
-941 82 982 0
-735 -172 -663 0
-486 -658 840 0
422 -483 106 0
-440 -874 -54 0
-276 -601 -275 0
-937 170 536 0
570 -555 960 0
-779 964 -682 0
-370 564 -86 0
157 -846 896 0
-675 581 880 0
-396 38 -71 0
-713 -265 -788 0
908 -378 -580 0
-362 363 -60 0
206 394 -255 0
606 -978 -855 0
195 63 -754 0
-33 -72 -694 0
303 188 215 0
345 734 99 0
415 -313 54 0
-96 786 884 0
-195 330 573 0
-235 575 919 0
795 849 -918 0
-168 -546 -315 0
-209 -442 22 0
-740 78 -674 0
-358 339 -477 0
303 -702 375 0
840 -373 146 0
865 56 474 0
947 -856 -501 0
459 -792 881 0
-305 -275 411 0
124 210 316 0
-398 -214 -308 0
504 -103 -15 0
453 801 -421 0
-442 711 -501 0
-378 -569 -562 0
317 -140 540 0
591 -973 32 0
-859 -195 -239 0
-481 -403 7 0
-253 919 250 0
-394 -706 807 0
141 69 -269 0
167 -734 -822 0
654 -928 -551 0
-93 -419 -950 0
741 -204 -976 0
-466 44 -850 0
89 628 610 0
729 -56 -648 0
73 -411 410 0
-8 -484 -760 0
-327 -934 54 0
-647 -431 872 0
255 423 -214 0
-814 -558 -958 0
-719 978 -866 0
-747 -724 -212 0
684 -879 -510 0
-681 -682 -525 0
-243 -268 899 0
-103 -445 732 0
405 164 -268 0
-411 317 953 0
739 -944 -191 0
-647 859 145 0
697 891 98 0
960 838 -274 0
-772 -236 777 0
220 -535 -589 0
930 610 -649 0
-50 259 -209 0
-507 -33 159 0
-84 301 -199 0
-322 -252 152 0
31 968 -619 0
367 463 -193 0
940 -778 -83 0
184 -146 -155 0
-273 824 128 0
671 348 293 0
-158 273 -583 0
-640 218 704 0
-897 872 -632 0
939 484 374 0
-417 152 443 0
-54 -759 457 0
782 891 -565 0
-827 275 -722 0
254 997 769 0
-426 903 -932 0
750 472 -457 0
215 -873 69 0
-850 411 135 0
-486 -954 133 0
-406 -724 179 0
-87 32 216 0
213 705 28 0
469 164 230 0
100 894 998 0
933 283 516 0
612 307 -454 0
783 76 -940 0
626 -763 452 0
111 550 -386 0
-517 94 -239 0
-215 216 372 0
-125 818 -804 0
102 -301 -29 0
533 -346 146 0
-359 -272 360 0
-923 412 929 0
-428 802 -620 0
-739 271 -603 0
-319 473 -859 0
132 344 -736 0
-309 -675 690 0
756 -144 373 0
315 -226 85 0
-513 138 -751 0
651 -233 -659 0
-540 933 321 0
-337 -229 852 0
312 654 -609 0
-164 232 272 0
533 -232 687 0
337 -787 954 0
-959 720 -547 0
-871 -684 -755 0
950 78 -433 0
-431 708 813 0
287 764 -771 0
986 90 -967 0
-840 -640 -418 0
-410 595 519 0
-824 -465 702 0
-663 -32 468 0
-669 174 -703 0
205 -651 323 0
-16 -745 839 0
-471 -81 -563 0
709 -867 -279 0
46 472 -761 0
-809 -35 -696 0
-75 -395 -848 0
-78 411 717 0
978 -681 -70 0
480 -130 994 0
-22 219 398 0
-314 654 -625 0
-18 -534 571 0
192 -735 -652 0
-459 -525 -334 0
-123 120 -628 0
-825 899 -849 0
-483 -886 583 0
545 546 523 0
-871 810 619 0
706 361 900 0
996 808 842 0
270 788 32 0
375 -421 -843 0
843 785 668 0
-673 701 -177 0
-606 -622 -688 0
-653 867 -906 0
-10 125 -921 0
-515 -472 -855 0
769 -365 979 0
-194 680 -576 0
282 -477 -87 0
-805 -87 -981 0
-797 691 970 0
-188 -963 231 0
678 -624 -375 0
830 178 -823 0
-398 983 542 0
888 451 -142 0
816 830 -496 0
-873 434 -712 0
-540 -210 36 0
-336 161 306 0
226 333 504 0
531 -14 411 0
961 -987 894 0
-828 -503 -737 0
-447 168 -909 0
636 -446 769 0
-40 -49 -486 0
-939 148 928 0
-212 445 234 0
-791 514 864 0
-205 885 -527 0
-316 530 290 0
860 662 773 0
546 583 -178 0
859 83 513 0
-656 249 -306 0
899 572 -634 0
-617 -475 22 0
541 11 217 0
-120 913 716 0
660 -413 25 0
822 926 689 0
15 910 842 0
577 155 -5 0
-135 547 -203 0
-139 -221 211 0
373 -498 -564 0
-901 953 -354 0
232 309 185 0
223 -209 949 0
-194 418 368 0
468 6 -64 0
884 -348 836 0
434 -1 824 0
-555 948 472 0
-629 958 469 0
798 -160 80 0
-699 874 644 0
506 -194 -314 0
468 -874 -486 0
290 669 -169 0
589 894 -253 0
-650 -701 591 0
-426 -97 -71 0
159 740 692 0
104 445 216 0
303 -215 952 0
-101 -903 -467 0
635 897 -586 0
-828 -516 680 0
725 -497 -540 0
80 256 975 0
149 709 -61 0
765 297 391 0
-854 361 814 0
-104 917 -420 0
-809 -128 -943 0
393 570 -861 0
-59 -29 743 0
579 142 -332 0
175 -581 269 0
-117 170 -437 0
151 -979 -824 0
711 -735 1 0
852 194 727 0
277 123 -161 0
577 -610 -972 0
-937 319 850 0
909 -154 -910 0
957 914 782 0
-888 -938 261 0
-414 160 -445 0
-65 -510 -752 0
303 148 159 0
-651 484 630 0
-969 546 894 0
-633 106 -134 0
866 -863 549 0
-691 927 -738 0
-903 187 290 0
-731 852 -221 0
-27 -910 -643 0
-771 274 -311 0
-498 920 370 0
689 834 994 0
-747 -448 421 0
-786 748 -249 0
199 -203 86 0
726 369 -409 0
-540 6 -690 0
-836 -842 686 0
-612 -992 -489 0
690 -907 -934 0
-363 -771 -859 0
-375 892 -456 0
-774 -943 -224 0
-386 -44 712 0
-87 214 -412 0
-650 -631 720 0
466 461 -90 0
-722 -709 43 0
499 713 623 0
-262 -394 -485 0
-967 468 -534 0
-778 104 -19 0
451 -148 -228 0
870 -460 -968 0
-310 599 -211 0
-233 198 -126 0
-401 397 -536 0
11 -606 365 0
511 889 -210 0
-624 -568 -265 0
-578 876 347 0
-578 827 -788 0
-798 208 719 0
-859 930 997 0
-308 212 -700 0
-192 -863 540 0
531 359 -955 0
698 843 742 0
-838 160 -58 0
-912 -463 556 0
770 -132 974 0
538 -359 -61 0
-504 -830 746 0
727 86 -374 0
106 -501 -532 0
948 668 -482 0
623 -437 342 0
-402 21 -738 0
70 -797 95 0
-213 308 561 0
482 319 -480 0
333 -642 -666 0
-117 -531 537 0
975 -98 -38 0
-526 770 -563 0
461 -162 -739 0
761 -331 -713 0
451 -872 916 0
317 409 779 0
-169 -114 -311 0
1 -983 527 0
-377 282 -937 0
-235 464 -141 0
-673 230 -484 0
-704 -406 -606 0
-220 -762 449 0
-696 617 -169 0
925 -248 615 0
-678 -23 788 0
-615 381 -111 0
527 -246 -116 0
805 -590 -719 0
508 -430 -615 0
-274 -987 -143 0
-631 465 -792 0
791 555 -259 0
-283 -795 -350 0
75 -341 932 0
945 -718 72 0
-910 378 -885 0
-463 457 -329 0
-836 -518 -432 0
435 345 109 0
-552 476 829 0
933 657 358 0
919 -768 -293 0
-806 18 533 0
-917 605 -379 0
-136 -819 -884 0
-450 -97 575 0
-132 901 -244 0
-746 -106 -206 0
-6 97 -761 0
781 -434 -1000 0
-915 807 -336 0
-127 924 -291 0
-935 493 -279 0
492 -444 -679 0
-415 8 -512 0
-934 506 -255 0
316 -768 -533 0
-615 -474 143 0
391 -15 -385 0
736 522 -164 0
-240 -590 -417 0
-859 -9 -506 0
-734 965 48 0
549 692 163 0
535 -760 -401 0
893 -832 509 0
519 883 -509 0
174 -352 -903 0
688 445 909 0
-522 -683 -618 0
772 -368 461 0
-563 213 693 0
-195 326 35 0
559 -709 970 0
244 601 -562 0
-357 -550 -105 0
234 147 -556 0
3 -987 -343 0
-379 -618 248 0
-99 -520 -404 0
-73 79 474 0
157 738 -553 0
306 -691 -858 0
-258 -984 -823 0
-676 784 201 0
-290 79 284 0
-552 -686 211 0
-305 -399 25 0
-146 -413 997 0
-739 590 -571 0
-304 -892 884 0
501 47 761 0
594 625 -559 0
700 -535 825 0
703 26 895 0
631 826 -56 0
845 -195 -455 0
-771 155 -411 0
-737 780 558 0
-969 600 871 0
-140 -960 556 0
-780 -63 1000 0
-36 -649 -943 0
-175 58 -127 0
-856 951 -60 0
-14 664 733 0
-389 -964 485 0
-729 515 -611 0
-410 -927 632 0
-147 753 -628 0
370 -475 -374 0
-817 -654 31 0
-596 744 -561 0
-902 115 426 0
347 388 55 0
304 130 -154 0
360 259 345 0
189 -923 -109 0
-348 441 846 0
387 142 463 0
515 -208 -651 0
-686 -71 748 0
670 -488 -458 0
130 -787 -272 0
978 662 87 0
-344 -30 -635 0
847 -95 -212 0
-793 32 -848 0
-564 -128 769 0
128 -75 -693 0
309 950 420 0
-699 700 -464 0
-459 -221 -889 0
-267 -346 -791 0
643 -723 218 0
-23 -158 968 0
40 544 853 0
809 279 705 0
280 245 13 0
-41 926 271 0
491 803 -932 0
-267 -112 873 0
-32 -411 -676 0
624 -663 -529 0
238 -891 985 0
-978 -203 -82 0
28 -275 -192 0
-873 33 -847 0
-301 -671 -684 0
-872 368 70 0
-692 243 -412 0
54 25 600 0
814 668 -931 0
-341 304 -116 0
641 100 -771 0
616 -791 209 0
-465 -143 253 0
575 -220 -312 0
369 723 -458 0
-654 -294 -447 0
-524 101 -223 0
-33 -331 -274 0
-896 -643 826 0
-495 -929 -258 0
-293 182 -263 0
96 878 94 0
791 752 -829 0
-145 -56 624 0
510 -789 -182 0
-70 -656 -86 0
-612 -217 -226 0
107 -480 -106 0
790 60 -304 0
-284 809 654 0
429 420 -852 0
974 777 276 0
316 -528 631 0
540 -919 337 0
157 -60 924 0
-320 735 290 0
-115 -251 -354 0
-238 407 914 0
-244 -273 -455 0
-151 -399 580 0
-218 -564 223 0
443 -187 -67 0
-548 -371 -436 0
501 942 891 0
-656 483 -432 0
-573 -498 -369 0
944 -49 612 0
459 -165 922 0
604 189 993 0
859 631 -602 0
-704 -859 -222 0
-301 842 549 0
-582 -865 -750 0
421 932 708 0
-255 297 468 0
32 -980 -367 0
767 -151 -316 0
716 -120 304 0
827 609 -764 0
287 577 787 0
-774 369 -754 0
727 -623 929 0
-658 549 170 0
-597 293 -982 0
-915 281 -587 0
948 536 340 0
928 326 -140 0
631 767 910 0
197 830 -339 0
822 164 -645 0
374 -881 753 0
431 -10 -557 0
233 -219 475 0
321 790 728 0
182 -404 980 0
367 -410 775 0
-760 238 -598 0
-268 467 288 0
890 478 510 0
938 865 -593 0
-814 -110 707 0
-923 398 -867 0
627 362 -581 0
-495 -506 721 0
-542 786 -980 0
620 -574 -617 0
-593 977 -244 0
-75 -875 -742 0
187 -163 553 0
-371 368 -295 0
661 833 -860 0
-645 -912 34 0
-257 439 306 0
-61 835 938 0
-825 266 976 0
677 641 -818 0
-510 -535 -958 0
52 -237 144 0
-640 -42 -795 0
304 685 -433 0
596 -643 -951 0
886 287 -37 0
-256 20 150 0
492 -781 948 0
741 123 408 0
134 165 -35 0
-70 736 630 0
154 -478 343 0
-902 -4 922 0
693 -317 618 0
-553 -852 159 0
-99 219 -240 0
148 808 -254 0
685 537 766 0
834 -552 456 0
-855 248 -621 0
-129 943 -728 0
-989 -929 -274 0
-678 -979 -249 0
-945 385 376 0
647 631 480 0
-999 973 721 0
-560 219 -69 0
-40 -1000 652 0
583 190 503 0
-285 192 -375 0
-445 -664 -40 0
3 -639 882 0
189 -445 -339 0
-420 -645 921 0
-986 984 597 0
501 -906 953 0
-393 885 -418 0
880 768 -65 0
337 -917 -87 0
-180 637 -579 0
39 969 801 0
296 766 704 0
-615 76 766 0
-184 93 773 0
-684 -334 -700 0
52 -464 -624 0
835 221 -535 0
-411 841 -581 0
-282 43 684 0
-35 356 514 0
865 83 772 0
-119 -744 399 0
-152 -815 624 0
-315 758 -862 0
94 140 -657 0
-762 220 568 0
-372 -297 576 0
18 -367 -111 0
561 428 -481 0
766 771 11 0
-537 -956 -299 0
-335 613 122 0
7 723 -208 0
339 -48 798 0
-550 97 -93 0
555 -509 -986 0
-594 -259 -958 0
-610 220 -199 0
328 -531 530 0
-250 127 965 0
139 -368 -506 0
-736 -107 -100 0
306 962 136 0
-771 -436 785 0
-706 442 -79 0
-425 479 64 0
-697 605 -890 0
-758 988 -128 0
-352 106 -623 0
-815 652 662 0
122 857 519 0
-11 130 525 0
253 -126 -138 0
638 904 -693 0
-398 818 823 0
-44 -528 -75 0
-232 919 254 0
-966 562 629 0
-965 -312 -54 0
-863 -9 -758 0
-144 656 462 0
-904 55 762 0
-684 -145 -5 0
666 -349 370 0
144 -285 913 0
352 700 -137 0
348 -731 894 0
601 -770 -521 0
-724 -498 -333 0
-197 -264 490 0
-628 767 443 0
646 46 890 0
333 -797 498 0
-394 984 -576 0
-418 332 231 0
480 -701 -308 0
261 402 321 0
469 -321 499 0
-851 74 198 0
-396 -171 -972 0
600 63 801 0
802 159 195 0
698 -320 -38 0
-209 -276 609 0
53 -969 -202 0
949 -221 -715 0
-759 210 519 0
428 -203 598 0
106 553 -90 0
111 905 590 0
-527 737 380 0
827 287 -378 0
888 484 -237 0
61 -463 -815 0
317 710 746 0
996 -885 907 0
430 980 -85 0
-585 750 -88 0
755 -540 -234 0
919 42 451 0
-332 162 389 0
351 -110 -660 0
820 -570 -710 0
361 236 -108 0
-895 898 871 0
146 697 -900 0
161 -240 -559 0
-418 974 271 0
57 -192 733 0
-607 -155 928 0
-81 496 -598 0
-521 907 621 0
-622 -530 894 0
51 -382 350 0
-321 -902 -498 0
419 -588 -386 0
-661 -527 -230 0
389 -342 438 0
763 -570 915 0
50 -193 964 0
401 -602 795 0
504 796 -724 0
376 846 -875 0
445 -840 13 0
-207 -314 -552 0
27 760 -406 0
866 326 119 0
706 506 815 0
33 -92 3 0
-390 -78 739 0
-46 -287 -307 0
-852 235 258 0
-804 -799 415 0
116 -11 590 0
72 570 467 0
-533 -546 -808 0
732 422 -448 0
292 -504 -764 0
805 595 -623 0
564 55 -636 0
-842 993 238 0
385 647 -208 0
254 -545 415 0
-323 -254 589 0
412 -220 448 0
275 -304 -123 0
457 140 447 0
-596 57 -267 0
-160 647 496 0
-789 959 507 0
-297 884 68 0
685 633 622 0
271 -172 28 0
-398 -611 631 0
759 -502 294 0
912 -925 210 0
-640 -465 310 0
-79 883 -115 0
-310 -473 -131 0
-122 34 904 0
833 100 -133 0
-550 912 -320 0
-891 -548 -908 0
-776 126 -21 0
5 -206 -92 0
876 -468 -644 0
-457 -685 831 0
-152 866 -86 0
383 995 -826 0
-879 138 -437 0
-682 72 937 0
595 474 -872 0
217 598 218 0
-103 -114 -291 0
-615 -839 628 0
206 -31 -183 0
695 298 571 0
274 -409 -110 0
301 351 368 0
35 287 86 0
-479 -426 -483 0
561 314 -184 0
-72 -520 65 0
38 783 209 0
483 -962 -373 0
953 -791 -696 0
356 507 100 0
890 -965 196 0
122 454 -729 0
542 306 916 0
91 480 771 0
-208 880 -282 0
335 -342 -74 0
581 820 375 0
-734 197 114 0
-969 -883 497 0
530 920 191 0
779 -270 745 0
668 -587 569 0
-872 947 284 0
-13 -79 -585 0
24 131 724 0
168 629 -123 0
865 340 1000 0
454 -945 -417 0
-421 35 -721 0
143 -271 14 0
-433 216 988 0
-597 525 -241 0
-4 318 -414 0
-525 951 199 0
-328 352 588 0
-28 -19 731 0
480 -401 -905 0
-144 760 768 0
-978 488 21 0
768 -440 -492 0
663 -735 -35 0
-121 309 196 0
-28 498 302 0
-910 -94 -862 0
-311 -100 -378 0
-593 -367 -277 0
-207 -261 -673 0
848 -245 -781 0
776 320 18 0
-55 861 994 0
993 596 -593 0
399 808 -177 0
-548 299 -235 0
-584 944 651 0
470 273 -457 0
-902 -914 -332 0
-895 -620 -595 0
890 -960 -132 0
-506 -545 541 0
-639 135 2 0
-882 200 -452 0
-169 712 86 0
557 924 -37 0
104 -99 -669 0
809 432 -638 0
-446 -826 468 0
576 -476 888 0
775 -919 84 0
935 -517 954 0
-72 966 951 0
-76 -498 443 0
485 787 -352 0
-837 454 -556 0
-554 682 -896 0
496 -598 227 0
839 559 -262 0
287 -687 505 0
222 929 -744 0
71 -754 -659 0
668 -706 779 0
-713 -262 -390 0
400 -653 -443 0
932 -56 952 0
999 -625 511 0
-97 931 45 0
463 615 367 0
-583 -922 -283 0
60 -133 -572 0
-408 -182 -99 0
-3 -826 347 0
677 -694 -687 0
265 -599 -764 0
492 996 -569 0
-470 856 466 0
-97 281 -977 0
-36 -271 -746 0
-895 -48 549 0
-972 -200 280 0
-448 -483 602 0
-332 -154 -829 0
-178 -916 -123 0
936 -218 -538 0
-54 -110 -981 0
-429 -297 -265 0
-835 858 -205 0
646 -734 -400 0
-950 -157 -700 0
985 439 -337 0
-538 -131 447 0
876 -346 -69 0
-612 514 98 0
-102 368 -717 0
569 830 -950 0
-810 -467 550 0
-134 484 277 0
-216 -152 -983 0
-662 761 380 0
283 -671 346 0
-997 -651 -536 0
-380 591 -62 0
581 189 480 0
-715 810 -166 0
366 365 -687 0
684 -678 -380 0
388 -176 -17 0
-197 -472 -838 0
623 -533 -264 0
-13 603 -552 0
950 198 938 0
-48 -219 -622 0
-856 -150 71 0
606 236 303 0
-685 -277 -639 0
177 -226 615 0
-738 575 123 0
-377 -843 830 0
-131 -611 -979 0
-207 -193 964 0
-615 193 406 0
481 -634 -270 0
-473 897 571 0
-679 -580 203 0
-234 317 -265 0
-542 -472 -510 0
-671 -469 933 0
209 894 708 0
50 215 -442 0
-518 451 -360 0
-234 -896 263 0
410 859 187 0
131 -214 682 0
656 -13 749 0
731 -357 177 0
703 -765 -413 0
-393 -231 561 0
272 -488 -934 0
976 -735 -963 0
-710 630 -905 0
-493 -954 727 0
715 699 -129 0
498 -277 -273 0
-201 -634 694 0
500 -253 890 0
604 -909 794 0
-488 -438 -827 0
-258 228 -568 0
-736 90 20 0
-657 253 15 0
-68 699 363 0
292 119 -787 0
-461 -255 -715 0
-859 -317 882 0
-519 19 -486 0
223 -809 -235 0
800 680 801 0
601 -97 -222 0
208 966 -740 0
690 -26 157 0
-443 -147 972 0
32 741 522 0
-681 -172 -811 0
-363 -486 707 0
785 -257 461 0
216 -85 746 0
-92 -789 902 0
-685 96 850 0
799 275 -300 0
594 444 -752 0
836 954 821 0
-260 -530 687 0
924 198 -751 0
247 -154 -72 0
-449 835 -730 0
887 341 -431 0
982 -946 -433 0
968 -213 417 0
729 455 -479 0
683 -632 -621 0
-340 -943 710 0
-901 700 -907 0
-56 544 -132 0
-371 -819 -643 0
815 203 -675 0
-803 649 -54 0
-537 864 130 0
-777 87 717 0
107 -713 206 0
55 43 855 0
-935 193 113 0
-497 -132 -860 0
-728 -545 774 0
-197 -454 -189 0
635 408 -840 0
927 597 304 0
127 457 -66 0
458 992 -86 0
-302 789 -484 0
313 -537 691 0
274 714 398 0
166 -867 34 0
-440 -742 851 0
630 22 95 0
829 464 274 0
-874 159 -441 0
272 801 -517 0
939 728 60 0
-525 -676 414 0
-311 -622 -387 0
71 -165 -858 0
-525 -890 971 0
359 13 541 0
-892 -395 -383 0
-139 503 -19 0
-840 -545 833 0
-558 -994 -802 0
-868 -947 -124 0
-581 849 599 0
-924 -745 -603 0
-769 -1000 -638 0
-837 -441 186 0
494 14 -698 0
-495 105 -213 0
-469 -998 947 0
897 237 275 0
170 -99 -969 0
-914 446 -41 0
-583 799 -871 0
-149 -37 495 0
51 -819 618 0
943 973 186 0
-541 -93 431 0
480 500 716 0
-576 293 487 0
449 -137 -761 0
-773 445 -268 0
-206 530 170 0
922 842 181 0
-766 52 825 0
508 -752 -127 0
811 818 -503 0
-854 -646 -356 0
-255 433 -46 0
-403 799 -307 0
-366 -896 -168 0
-961 588 -228 0
653 -485 -413 0
401 -214 758 0
232 -553 406 0
213 -75 746 0
238 183 -982 0
-453 879 873 0
668 -762 229 0
29 813 -579 0
463 296 409 0
-380 687 198 0
-982 450 546 0
-474 -788 -811 0
-476 -812 429 0
456 -345 142 0
605 -53 -426 0
104 -494 513 0
-342 479 989 0
924 -784 -635 0
-666 -104 -401 0
-433 -586 -904 0
-729 -728 203 0
346 -29 308 0
626 291 -434 0
-584 631 -375 0
842 -916 -127 0
-886 783 228 0
586 117 -327 0
242 662 -259 0
-276 -215 307 0
-297 980 247 0
158 -31 994 0
-781 -166 -600 0
625 224 303 0
-611 -549 -101 0
-27 605 280 0
-41 949 -877 0
-96 434 -484 0
286 289 -759 0
792 -898 57 0
208 181 -681 0
979 -447 577 0
549 451 -79 0
-776 360 339 0
714 -357 -327 0
-127 636 522 0
-820 685 390 0
142 -187 955 0
385 302 279 0
52 61 -353 0
-471 -132 -88 0
917 130 603 0
974 -781 988 0
-34 -434 263 0
88 -512 -14 0
-856 -3 -190 0
-560 650 655 0
923 53 993 0
-334 236 -181 0
183 -961 -213 0
-219 -185 72 0
-429 866 -953 0
858 808 398 0
-993 -830 672 0
-363 486 48 0
-386 -218 159 0
-827 22 -795 0
391 405 -820 0
746 -278 418 0
-950 -849 815 0
313 -293 240 0
-851 -426 -439 0
-963 341 -521 0
-141 -323 -546 0
825 526 -463 0
733 -654 -463 0
790 297 597 0
131 794 604 0
378 -410 166 0
-420 -485 -503 0
-718 634 127 0
-918 319 661 0
-160 321 989 0
304 931 143 0
-803 337 742 0
-614 435 747 0
416 323 948 0
-90 400 179 0
811 -740 276 0
-392 610 112 0
356 -57 713 0
-828 -261 724 0
-787 -948 -876 0
310 410 -619 0
176 -473 -664 0
215 866 368 0
-554 -41 202 0
739 -212 787 0
-591 98 641 0
-218 486 -979 0
-470 -114 -513 0
931 784 -640 0
198 979 260 0
-238 -443 -578 0
-360 986 814 0
-589 -663 -420 0
-442 -171 87 0
-290 -335 -798 0
706 255 4 0
821 439 855 0
787 -498 336 0
902 522 56 0
10 -789 -925 0
-898 169 492 0
-206 -193 -911 0
-553 -848 -545 0
959 -701 -143 0
-348 406 -650 0
-771 -708 113 0
-945 960 -938 0
-969 -205 167 0
221 -770 973 0
876 584 -250 0
630 -299 504 0
792 381 -332 0
-621 552 273 0
365 693 -440 0
457 797 -562 0
393 219 510 0
-889 -660 -249 0
-932 107 -165 0
-366 270 156 0
769 -398 -857 0
633 681 927 0
567 -506 -100 0
-835 -767 366 0
12 390 802 0
131 -57 -326 0
-566 927 253 0
-531 -727 453 0
789 -350 649 0
960 -149 -823 0
-360 193 -749 0
774 -11 -635 0
28 600 -421 0
-854 593 -459 0
-191 -330 -571 0
572 -652 341 0
-101 604 -8 0
634 -116 924 0
-842 1000 920 0
905 -404 149 0
115 759 518 0
-640 -958 652 0
-443 382 916 0
-518 473 -990 0
-159 -304 -508 0
-467 982 527 0
-160 -581 -197 0
235 -143 412 0
165 96 -122 0
182 -144 -773 0
-750 617 -276 0
-270 641 -229 0
-987 -783 -545 0
-301 697 -485 0
307 -998 -985 0
359 -656 -577 0
602 65 337 0
-91 -325 -581 0
-916 -754 -85 0
-397 365 68 0
-76 -896 -519 0
531 -501 658 0
466 -534 -427 0
203 -711 324 0
-371 617 470 0
-835 207 238 0
242 120 -148 0
-369 -34 140 0
97 -740 -685 0
792 -24 -568 0
-251 805 -297 0
691 510 358 0
-382 685 816 0
-799 -252 182 0
-278 84 -430 0
-22 -976 -451 0
36 -792 -436 0
705 165 941 0
504 596 -566 0
-449 759 777 0
70 6 -311 0
194 -89 -495 0
601 2 390 0
-858 629 322 0
362 809 -53 0
581 -884 636 0
14 -36 673 0
-514 694 -427 0
-729 -805 -797 0
-973 164 -275 0
981 -457 -506 0
376 -892 708 0
-674 -106 -119 0
-201 91 -181 0
650 844 -461 0
383 127 219 0
186 -427 -87 0
509 854 -274 0
755 -470 -186 0
201 916 -519 0
113 158 -571 0
178 -164 262 0
-726 -934 -181 0
-362 -84 92 0
138 -446 -8 0
-931 -65 420 0
403 -731 905 0
-110 806 -103 0
572 748 -971 0
88 -683 153 0
120 -301 568 0
-153 -727 429 0
-251 332 -42 0
115 74 659 0
-442 -671 745 0
-583 373 981 0
-124 -898 626 0
272 108 733 0
-200 291 -525 0
-318 -353 -204 0
718 517 -225 0
-629 -1 753 0
1000 -293 -142 0
-387 -224 694 0
80 -124 785 0
-133 936 896 0
-627 -736 785 0
123 -638 -757 0
168 -519 -803 0
-993 -463 172 0
-862 -461 -101 0
311 52 309 0
483 -508 -991 0
371 448 669 0
-663 -78 -96 0
-576 -764 -758 0
-516 -967 -275 0
-143 591 20 0
-89 905 -208 0
326 762 905 0
-245 -971 -631 0
271 -960 749 0
-577 -409 62 0
-670 556 -513 0
-596 987 -463 0
526 -108 -86 0
53 -95 91 0
959 -719 619 0
-137 637 542 0
292 282 367 0
-297 972 -265 0
-85 -885 475 0
-257 345 256 0
533 252 134 0
-275 -102 -229 0
-875 188 -275 0
-952 757 -96 0
-732 -60 321 0
575 981 917 0
587 -583 264 0
-838 459 65 0
371 202 -220 0
806 807 3 0
810 134 162 0
240 618 -906 0
728 -905 632 0
646 357 986 0
369 -466 653 0
215 899 -183 0
-695 132 901 0
227 434 -994 0
-416 260 -876 0
-144 265 641 0
235 531 -632 0
705 -799 -808 0
-191 -428 -656 0
420 430 -13 0
-383 -188 -359 0
646 388 -63 0
160 -672 -682 0
-135 310 -577 0
506 -463 -681 0
-393 343 -902 0
-367 -387 492 0
-441 684 12 0
51 -166 459 0
-998 -475 -498 0
596 162 -508 0
-227 796 -308 0
-365 -663 -201 0
409 -24 380 0
723 707 343 0
92 877 -359 0
-350 125 937 0
-30 -213 480 0
-364 63 -677 0
-66 -947 641 0
-453 344 -359 0
1 -669 88 0
735 758 -39 0
708 547 534 0
832 -686 -539 0
-882 -277 -679 0
869 -993 26 0
556 885 -153 0
965 -522 -611 0
-549 -265 317 0
729 -17 -874 0
65 429 -470 0
-927 42 825 0
83 435 -2 0
71 823 -767 0
571 828 -542 0
-60 -120 919 0
-626 898 820 0
960 -512 559 0
417 463 -115 0
589 878 -755 0
-794 388 -345 0
426 -191 -486 0
590 247 520 0
-902 -740 -626 0
194 496 595 0
444 -292 98 0
-243 809 781 0
-195 462 -736 0
95 -801 -940 0
-180 831 -625 0
-574 594 -857 0
-590 -639 506 0
-574 -186 856 0
549 -623 -256 0
491 -731 633 0
-842 -978 -148 0
736 -358 83 0
284 786 705 0
525 136 -488 0
78 704 -327 0
304 1000 320 0
-241 953 -752 0
-65 -498 -592 0
615 491 770 0
484 32 -183 0
-409 952 693 0
450 392 -845 0
843 228 365 0
779 -613 -221 0
732 270 -318 0
640 214 499 0
-162 -704 623 0
142 -569 644 0
-642 595 -586 0
395 -965 -591 0
-243 -304 497 0
736 69 -962 0
-243 862 -864 0
139 885 161 0
631 -432 653 0
66 988 -667 0
-120 -88 974 0
110 659 -242 0
-383 -918 -540 0
-295 767 539 0
-210 -954 184 0
-757 -304 -331 0
692 737 166 0
720 175 -529 0
-969 -711 -326 0
232 -240 157 0
-219 356 -374 0
-438 -162 571 0
718 -808 -375 0
565 41 37 0
70 -88 239 0
-187 -799 45 0
212 616 -421 0
-118 14 -760 0
-456 565 -959 0
-509 -856 -410 0
-702 178 601 0
535 356 -838 0
349 -468 -838 0
-916 -263 -580 0
559 152 -310 0
-164 253 -224 0
-544 -334 967 0
-74 -59 951 0
90 501 804 0
-624 825 592 0
-270 -76 644 0
-894 515 316 0
870 -748 -972 0
-69 -995 47 0
832 -71 -329 0
-946 -816 396 0
-407 889 437 0
129 -159 756 0
-306 -619 827 0
-610 297 501 0
-430 263 -201 0
-646 539 111 0
143 644 66 0
930 284 -166 0
-931 -496 156 0
-63 -168 -681 0
692 628 -103 0
841 -807 -480 0
-999 -855 238 0
-979 830 -486 0
653 667 -674 0
-348 726 263 0
13 -586 266 0
-762 -461 992 0
-600 -26 -698 0
788 575 -468 0
187 -959 -447 0
-376 6 190 0
-342 -954 389 0
798 679 265 0
381 189 170 0
-371 -417 746 0
-220 865 258 0
-77 395 -485 0
-777 -960 455 0
439 -319 618 0
162 -466 -815 0
653 101 142 0
-783 695 -346 0
539 -103 -498 0
649 -856 -798 0
-347 -85 818 0
259 167 -431 0
-491 -816 275 0
711 837 -802 0
865 597 -105 0
-580 897 -569 0
657 575 -133 0
-261 910 483 0
-21 -602 497 0
670 528 -130 0
21 686 -895 0
-746 -227 -586 0
331 -522 -920 0
-477 -209 242 0
724 -393 594 0
-665 -800 -176 0
-241 -96 -952 0
836 534 -605 0
-178 -263 -482 0
-776 -678 491 0
-610 -444 -229 0
-683 -298 -751 0
-819 720 192 0
373 -307 -449 0
556 169 -704 0
-302 -362 -446 0
-902 -275 556 0
492 738 971 0
933 656 115 0
-680 900 -296 0
-855 -646 -862 0
-103 395 -429 0
-964 -546 768 0
-219 -873 196 0
-229 899 942 0
680 -434 -349 0
-565 -236 819 0
-420 -122 882 0
-478 -607 -987 0
778 478 507 0
-80 71 514 0
122 -780 154 0
48 583 -74 0
-525 -591 128 0
647 -770 77 0
129 62 237 0
-400 494 787 0
-331 771 -143 0
-333 -717 208 0
-798 336 -423 0
141 43 -286 0
-92 -711 389 0
670 -257 746 0
223 -89 823 0
48 -612 -53 0
166 -418 162 0
623 -83 616 0
781 775 -570 0
-662 -225 136 0
-299 -410 218 0
456 -251 -128 0
437 -129 86 0
703 -863 -521 0
-463 554 19 0
485 -664 -516 0
255 -551 -332 0
958 -236 889 0
461 484 -293 0
-324 60 750 0
-560 84 -432 0
539 -23 -896 0
-835 977 -596 0
800 804 -85 0
472 541 322 0
-820 604 -451 0
-625 -593 722 0
-921 -482 -439 0
335 -847 -312 0
-949 14 -384 0
-221 -739 -760 0
837 762 863 0
-114 -198 479 0
-548 827 768 0
921 -143 -977 0
-502 -963 -909 0
666 -881 4 0
394 -26 386 0
36 -559 -122 0
639 -607 608 0
-583 25 937 0
-846 -812 -995 0
-393 -947 -763 0
719 235 727 0
-789 -994 -752 0
189 380 836 0
-909 811 -425 0
335 941 -35 0
842 527 -815 0
-968 777 -804 0
-844 -734 -226 0
297 -985 744 0
-294 709 -643 0
714 361 163 0
239 928 -475 0
-654 -266 795 0
494 -453 -922 0
684 -44 895 0
71 668 915 0
450 -241 -957 0
651 -237 -791 0
556 -988 -774 0
-354 593 329 0
-266 -937 242 0
636 -968 -867 0
935 129 -961 0
-709 -63 -669 0
74 994 -432 0
-226 190 753 0
528 -658 -116 0
-707 188 930 0
-85 51 704 0
20 -372 723 0
68 -593 105 0
-316 -66 -131 0
-322 481 613 0
-70 947 -400 0
-290 54 480 0
934 -58 142 0
83 525 -699 0
652 254 -984 0
535 364 -856 0
-739 -161 456 0
542 578 353 0
429 2 -182 0
-803 293 -56 0
-812 -858 -392 0
441 -86 -67 0
-674 -758 18 0
-8 41 270 0
-288 -636 -802 0
-207 788 -848 0
868 -175 119 0
700 319 533 0
898 -275 -847 0
-715 362 -693 0
-207 -719 210 0
-520 -852 515 0
115 -475 -208 0
-549 -234 886 0
-549 525 434 0
-913 635 408 0
-609 -266 -831 0
-676 656 285 0
-259 650 -928 0
-693 416 -101 0
-727 544 -165 0
632 526 158 0
-382 877 202 0
-218 -203 375 0
-868 278 -837 0
272 253 569 0
-912 476 -76 0
-655 745 690 0
672 -741 87 0
-599 -571 293 0
-359 193 -502 0
917 -166 322 0
499 -904 304 0
952 -375 -703 0
28 -77 -918 0
-137 -942 757 0
-116 712 -769 0
-927 -344 -308 0
445 606 -981 0
-882 -460 -802 0
923 917 -738 0
718 -581 -80 0
-555 -91 -801 0
-116 -518 -75 0
-415 198 612 0
-335 328 -671 0
193 190 668 0
548 -201 -910 0
37 527 788 0
188 769 -162 0
801 -117 -121 0
-490 832 80 0
-995 -207 637 0
377 -590 454 0
629 683 -156 0
127 -526 161 0
-935 83 135 0
718 -398 989 0
838 105 777 0
-7 -500 -123 0
-988 110 504 0
651 439 -592 0
351 -447 810 0
95 833 362 0
775 -146 -169 0
-495 -339 362 0
-15 741 -196 0
341 -174 -77 0
477 774 -632 0
-443 789 -763 0
-20 353 -220 0
833 61 -743 0
177 -509 -271 0
686 178 597 0
909 266 -795 0
-958 49 885 0
-165 702 211 0
-858 -367 -585 0
331 -27 -116 0
667 -814 816 0
364 294 -127 0
979 156 61 0
-663 935 -823 0
993 747 -44 0
796 633 999 0
905 391 -12 0
969 -661 799 0
-245 892 -183 0
189 849 -965 0
704 821 -447 0
679 289 857 0
-243 -896 -438 0
275 552 24 0
-463 210 -309 0
5 -570 -754 0
913 -862 -525 0
418 496 309 0
164 540 273 0
578 -328 379 0
-789 -683 -858 0
967 457 573 0
524 -321 600 0
675 14 699 0
21 509 283 0
-938 186 -300 0
81 -124 -429 0
-767 -967 34 0
133 -915 -820 0
-203 699 -189 0
983 121 668 0
960 -418 -488 0
74 539 -707 0
-758 496 -78 0
-314 -666 400 0
395 179 483 0
798 -398 929 0
141 -230 -750 0
148 38 -416 0
560 852 630 0
-198 759 173 0
761 783 274 0
-314 981 870 0
-113 297 397 0
-365 -608 -510 0
-911 -515 -450 0
-275 -728 97 0
-400 523 -13 0
-899 539 -75 0
-667 -697 354 0
-151 730 -830 0
-585 13 870 0
1 133 -443 0
-448 638 767 0
723 -871 365 0
-225 -563 316 0
-817 62 75 0
-151 57 -219 0
308 790 -128 0
-786 -306 142 0
-819 -150 -181 0
