p cnf 500 1325
252 -277 -381 0
271 123 46 0
-450 452 429 0
-287 364 97 0
-281 93 453 0
102 428 -197 0
-22 186 437 0
-391 -84 78 0
-411 -332 73 0
-143 279 217 0
242 188 -102 0
-17 -303 -12 0
338 -6 -467 0
30 442 -53 0
-408 -340 -344 0
-73 -283 -368 0
-142 -463 62 0
61 319 -409 0
22 250 344 0
-245 -184 -465 0
-205 -486 -109 0
352 -350 156 0
-416 311 -205 0
-204 106 456 0
498 189 -56 0
67 294 -495 0
470 -333 155 0
47 146 193 0
-71 286 157 0
239 -196 -375 0
-61 -41 -96 0
-407 164 -24 0
367 -384 307 0
-204 77 460 0
-336 442 -102 0
-297 -434 233 0
-8 433 76 0
-394 -138 -294 0
-342 -73 12 0
416 -302 298 0
362 -162 439 0
402 39 -354 0
-45 -192 -304 0
18 176 51 0
340 -353 310 0
405 -282 -371 0
-144 256 -87 0
360 370 -457 0
-110 198 244 0
-397 -487 432 0
384 -82 -214 0
-291 -355 464 0
-209 -109 -80 0
338 299 -433 0
-177 106 490 0
-305 138 230 0
435 190 8 0
-19 175 -265 0
453 424 216 0
-48 53 164 0
-243 335 -297 0
378 -189 165 0
-198 235 -306 0
-153 314 -62 0
486 -114 46 0
343 19 -275 0
-461 415 -230 0
-370 -161 313 0
-440 -74 -213 0
198 280 -329 0
144 -482 48 0
105 -398 113 0
28 -439 37 0
57 -5 141 0
-48 -123 -217 0
395 254 -468 0
155 492 -282 0
-484 -229 70 0
72 -288 -277 0
-58 194 283 0
-65 -285 97 0
-204 23 -5 0
-96 25 5 0
-277 157 -202 0
41 -13 144 0
-22 26 -327 0
-418 239 -83 0
387 -78 278 0
-434 -346 -75 0
417 -163 234 0
-135 335 -276 0
-373 236 -49 0
253 494 -376 0
-144 105 314 0
347 -414 -471 0
-38 224 -44 0
-267 -160 435 0
77 399 426 0
-403 293 138 0
384 -469 -351 0
218 57 258 0
447 -42 -194 0
-296 -140 12 0
3 441 117 0
-151 157 426 0
458 -30 -35 0
115 -221 358 0
-485 -185 -20 0
-413 44 268 0
-360 413 147 0
94 -138 -367 0
446 -406 18 0
-119 167 -457 0
46 129 -128 0
488 134 388 0
-443 -391 -331 0
-193 -201 243 0
-271 393 -100 0
77 194 -115 0
-193 477 214 0
-50 85 -365 0
436 306 428 0
455 52 -249 0
33 156 -48 0
-395 249 458 0
-487 382 386 0
-490 -463 461 0
-375 -122 223 0
122 -149 59 0
452 418 163 0
-121 52 265 0
166 -490 -56 0
-44 -215 159 0
128 444 -391 0
24 -37 409 0
-320 425 -460 0
17 -56 311 0
-463 412 -445 0
-132 461 -368 0
131 293 -57 0
269 -20 -169 0
-215 284 469 0
174 115 -295 0
253 434 57 0
-160 99 -166 0
-448 -420 86 0
-478 52 300 0
68 -54 -87 0
395 -243 59 0
-408 336 255 0
47 200 66 0
-413 205 62 0
-385 -326 -32 0
-448 139 -417 0
-427 399 421 0
-416 54 44 0
351 196 -405 0
103 -287 9 0
-311 273 -326 0
-394 161 -32 0
489 -179 334 0
-376 109 60 0
-399 -64 -91 0
345 -351 168 0
6 -336 363 0
-301 125 -420 0
-447 215 -442 0
261 230 148 0
-290 403 -360 0
374 373 104 0
328 -116 -305 0
398 266 -338 0
-482 406 -16 0
274 458 476 0
-117 -110 -436 0
172 -341 -116 0
245 -477 458 0
459 134 337 0
462 285 -58 0
120 -320 -288 0
66 -442 289 0
-381 -264 83 0
-489 -80 -326 0
86 -12 -70 0
104 -240 112 0
7 -34 -283 0
56 -387 -417 0
316 308 32 0
244 -342 -179 0
109 81 -457 0
102 180 457 0
-228 -397 340 0
493 495 58 0
399 193 -428 0
-281 -470 -20 0
-342 53 -227 0
-7 -444 -371 0
-303 346 -36 0
-386 119 288 0
460 272 77 0
-29 322 -378 0
235 179 447 0
-425 230 83 0
232 -99 -261 0
-249 -374 223 0
-371 200 -441 0
383 -235 414 0
-404 -294 16 0
-440 -432 10 0
-6 131 338 0
-466 -492 -485 0
-8 426 -370 0
154 -124 30 0
123 -222 477 0
204 250 134 0
-266 -451 -165 0
89 298 -179 0
-62 382 313 0
221 -257 5 0
-437 217 -306 0
-368 -439 -233 0
-283 491 -70 0
169 -214 76 0
-302 -409 -308 0
-368 -389 73 0
353 245 -24 0
233 -465 133 0
214 -227 -351 0
349 -334 -319 0
-85 262 48 0
439 -192 356 0
97 186 -257 0
-372 -397 97 0
-274 -430 -236 0
417 172 -405 0
213 -214 20 0
374 -150 378 0
281 -172 -267 0
386 307 236 0
-74 -32 -39 0
-257 378 -139 0
-124 93 312 0
-435 413 96 0
-284 -328 -135 0
-337 -453 11 0
368 236 84 0
311 -108 -1 0
-361 -373 -489 0
149 -315 215 0
10 371 -203 0
468 -388 -404 0
490 -344 -301 0
332 179 -103 0
-28 -12 127 0
-28 159 430 0
-211 -154 -126 0
-241 -270 407 0
-69 429 287 0
2 -331 -341 0
-269 123 456 0
159 -29 221 0
-210 -179 -431 0
-355 121 357 0
309 200 -265 0
209 459 -311 0
446 -142 367 0
-226 -171 -79 0
247 -408 69 0
-104 -447 -304 0
455 -421 -317 0
-416 -390 489 0
-188 44 -401 0
188 249 134 0
-158 -316 -44 0
281 -134 -469 0
261 223 -65 0
206 24 -446 0
418 251 182 0
406 435 348 0
69 -147 -238 0
434 113 220 0
415 -285 239 0
190 -131 237 0
-267 -153 57 0
387 22 -391 0
-164 328 -443 0
350 -147 -60 0
188 256 -475 0
-241 -290 460 0
261 -277 -341 0
149 -86 -271 0
-355 301 -164 0
-295 -303 -101 0
443 221 -83 0
-446 -88 206 0
84 -430 -399 0
-453 320 286 0
93 -92 -182 0
174 68 -17 0
-318 160 -372 0
-271 293 -214 0
-13 -155 -335 0
371 323 -295 0
177 -210 33 0
415 3 88 0
-89 -84 256 0
-376 250 287 0
-112 498 -107 0
489 247 -282 0
-317 -263 -242 0
410 -438 -5 0
-446 321 316 0
187 418 313 0
-56 466 344 0
-163 -170 -254 0
-297 201 -407 0
-192 -476 317 0
316 201 88 0
216 -45 458 0
170 50 -108 0
-106 379 -310 0
-482 149 -216 0
337 -231 48 0
-177 34 108 0
111 127 -25 0
155 192 423 0
256 353 335 0
138 71 37 0
81 -471 -196 0
233 -33 79 0
176 -498 344 0
281 444 476 0
248 -88 -398 0
432 -235 -402 0
169 -1 -150 0
-302 -274 289 0
176 60 -36 0
200 417 442 0
25 133 -189 0
-80 -22 30 0
425 253 84 0
-382 -265 -90 0
370 -254 326 0
-233 -376 72 0
-203 -401 237 0
-499 -179 406 0
-373 297 -185 0
-60 256 -240 0
-193 158 -418 0
-399 -484 71 0
137 145 -40 0
-206 -437 -187 0
-38 292 281 0
-156 269 -5 0
189 -269 421 0
201 -364 500 0
-161 -452 2 0
-411 -383 186 0
-86 -57 269 0
-10 -360 -84 0
-334 -358 -208 0
41 494 -331 0
-73 -413 295 0
312 35 -89 0
-495 430 158 0
-232 275 429 0
-71 382 -117 0
-303 -264 214 0
309 353 -422 0
466 414 332 0
466 494 -228 0
-491 -6 127 0
95 -415 468 0
424 388 -357 0
326 441 -189 0
173 -241 253 0
-478 -383 189 0
307 -407 -31 0
-491 448 -92 0
-46 -497 347 0
30 253 344 0
323 -489 10 0
-71 274 191 0
-491 -102 354 0
179 109 94 0
318 -275 -432 0
-229 -314 -115 0
-35 -143 192 0
247 116 458 0
-216 200 152 0
-256 140 234 0
-157 -435 -187 0
483 -238 436 0
29 -192 454 0
132 -475 -308 0
226 195 435 0
117 307 473 0
271 400 -348 0
451 -211 -306 0
395 -326 23 0
115 182 -306 0
-317 246 437 0
340 -289 123 0
-316 -136 101 0
-99 490 315 0
-141 364 434 0
36 128 -94 0
-337 380 63 0
413 479 -217 0
442 -295 101 0
99 127 302 0
469 -211 40 0
361 108 -222 0
212 485 -273 0
85 450 -439 0
93 155 225 0
-234 -73 -16 0
-208 -282 -292 0
357 -315 -491 0
-65 231 30 0
-284 -26 192 0
-341 379 -232 0
-30 -2 221 0
-402 468 -87 0
-26 -202 -80 0
-217 417 343 0
-116 168 446 0
-68 357 7 0
11 -60 -272 0
46 -444 124 0
13 151 -437 0
-401 -223 461 0
200 155 484 0
-456 -13 -204 0
-43 -287 499 0
-309 422 431 0
-173 -223 378 0
443 -14 -170 0
483 23 112 0
43 -299 -118 0
-321 289 313 0
-73 472 187 0
297 16 2 0
313 -387 -269 0
-166 451 -458 0
65 -60 28 0
137 -289 293 0
-392 -440 297 0
-364 -336 484 0
-263 -490 -165 0
292 301 17 0
-460 -94 -32 0
170 11 -48 0
96 90 77 0
336 71 142 0
-344 -202 -272 0
-256 120 -84 0
175 -170 -394 0
291 -407 112 0
360 -94 -287 0
-413 198 -300 0
289 280 220 0
-278 -216 199 0
452 216 287 0
-39 -363 -238 0
-332 -219 274 0
170 -183 -102 0
230 -169 -393 0
-249 110 264 0
161 136 -53 0
-103 199 -102 0
-157 30 -475 0
80 171 -198 0
43 -370 470 0
6 -379 -443 0
48 -304 328 0
261 117 -333 0
-219 -445 229 0
-466 -86 -222 0
274 -462 -384 0
-171 357 268 0
-449 315 -113 0
196 -62 245 0
44 -63 42 0
114 50 345 0
310 -237 -422 0
458 389 -22 0
201 -217 -454 0
81 28 56 0
-320 264 390 0
490 -195 311 0
497 -443 -259 0
363 -238 345 0
379 -77 -1 0
-393 -313 -20 0
406 -178 -108 0
146 -224 -405 0
450 -119 -285 0
180 267 58 0
-491 -116 -28 0
90 -173 -174 0
-42 168 -402 0
-496 -439 -451 0
314 -272 218 0
17 -490 -447 0
-317 -96 230 0
-186 -284 53 0
-272 87 -83 0
-102 -119 101 0
486 -176 -268 0
260 185 -8 0
-183 -296 -440 0
-317 436 347 0
212 449 273 0
-314 -250 -185 0
-200 435 -423 0
-182 -46 171 0
233 -133 422 0
-154 87 182 0
-323 471 375 0
-207 -115 -103 0
145 -103 -259 0
244 -253 485 0
-126 321 483 0
-365 -387 323 0
-155 -418 395 0
58 304 -178 0
56 53 -179 0
-107 -297 -136 0
-289 362 301 0
-87 453 -282 0
303 111 132 0
260 -38 440 0
444 80 326 0
-154 -319 -499 0
60 -47 84 0
-163 -96 368 0
-192 -84 21 0
-334 304 -14 0
-197 64 -347 0
152 -62 -268 0
-305 221 -360 0
77 340 78 0
85 -396 -261 0
393 -344 83 0
-456 286 -247 0
-61 336 382 0
396 -78 -384 0
111 -26 325 0
-30 88 479 0
370 438 285 0
283 -498 154 0
-364 301 77 0
284 -1 -145 0
-177 267 -243 0
-355 -106 489 0
-74 -11 -469 0
-424 -486 83 0
-55 45 -412 0
168 -76 -353 0
264 -7 52 0
-63 -466 -371 0
-432 390 314 0
-387 146 -32 0
-25 -173 -236 0
8 383 122 0
-251 -402 -255 0
239 -47 -195 0
-75 98 416 0
339 456 -148 0
-211 -123 90 0
-95 -311 -118 0
-274 377 14 0
-115 390 -118 0
-83 453 -386 0
-478 414 -55 0
500 -446 16 0
-466 222 312 0
-34 -276 30 0
-439 -456 109 0
59 -349 -446 0
-23 -196 193 0
-466 -204 -406 0
348 60 -221 0
287 490 -234 0
-140 230 289 0
463 34 -56 0
462 19 403 0
271 -170 -207 0
435 -45 141 0
5 -361 363 0
61 55 271 0
-113 -249 131 0
81 493 457 0
402 124 426 0
-99 138 -345 0
92 371 -7 0
-478 111 -313 0
473 -103 355 0
-145 -339 442 0
253 94 154 0
-430 93 -179 0
470 498 -319 0
-228 398 430 0
253 -216 90 0
-89 -32 358 0
165 147 220 0
440 -399 -220 0
-466 -391 388 0
-198 -228 324 0
-377 116 -175 0
-232 244 -5 0
165 228 -300 0
-132 373 437 0
440 18 -372 0
359 404 187 0
-175 234 -76 0
-315 163 -116 0
-225 -132 38 0
420 -150 -152 0
-432 163 150 0
-431 -173 271 0
-118 470 -482 0
183 -328 428 0
-132 462 256 0
82 417 -33 0
-180 -277 -433 0
-261 -347 376 0
-77 -174 187 0
-81 391 388 0
258 -256 -389 0
354 43 -299 0
210 -439 -352 0
460 438 -286 0
-466 43 -298 0
-214 -342 -126 0
-401 115 -94 0
63 -436 332 0
100 134 -287 0
-446 -300 240 0
221 351 430 0
363 -450 382 0
34 412 9 0
-377 232 -18 0
293 176 203 0
-86 20 -362 0
420 -17 -250 0
337 381 144 0
-11 -394 -490 0
-383 451 -44 0
339 -441 193 0
285 -423 286 0
-431 -87 -324 0
285 -270 -28 0
-245 192 -36 0
-291 217 -202 0
198 -106 -20 0
-69 5 -250 0
166 -242 -273 0
-193 379 -469 0
-18 75 369 0
-204 -36 -107 0
-223 88 57 0
397 215 -13 0
-439 -16 123 0
3 396 -354 0
370 -275 356 0
56 53 172 0
-17 -362 315 0
445 248 -473 0
-431 97 -194 0
-72 338 -349 0
-458 -139 -57 0
218 -207 398 0
-203 -104 -238 0
-32 128 170 0
12 -105 -253 0
-416 -63 228 0
83 226 -160 0
-124 437 438 0
427 -310 -365 0
187 200 16 0
334 195 -230 0
-201 88 -469 0
-418 -76 -1 0
-111 339 457 0
143 -189 -208 0
-210 392 279 0
-412 169 351 0
-208 354 280 0
410 -111 -220 0
-231 -12 406 0
398 292 160 0
204 -324 35 0
-391 240 132 0
-119 -287 291 0
470 -307 493 0
196 361 -446 0
201 124 -200 0
-321 -385 345 0
-449 -260 153 0
142 -61 -146 0
-61 -332 307 0
-35 -342 -467 0
-253 124 163 0
-466 -362 194 0
19 -389 202 0
424 422 -444 0
-105 -165 -267 0
124 428 -152 0
319 -284 -236 0
-55 -467 -289 0
474 -240 61 0
491 26 -304 0
-14 -464 -456 0
-259 -291 -363 0
250 -429 138 0
160 -228 -217 0
474 470 -199 0
470 22 -212 0
169 453 480 0
445 -316 -67 0
165 465 14 0
171 72 -464 0
-19 -306 -396 0
473 -167 -4 0
-130 -392 -163 0
-44 181 -166 0
290 239 224 0
184 342 85 0
-211 -322 429 0
399 -167 130 0
43 -317 295 0
266 231 -461 0
12 413 95 0
461 55 -451 0
-162 -295 60 0
-16 -110 -31 0
-80 -19 -150 0
166 -465 -245 0
-171 267 -250 0
58 113 353 0
-99 -35 7 0
-488 -319 -323 0
-165 -260 301 0
62 89 393 0
236 -106 87 0
-443 431 -126 0
-432 -224 52 0
146 22 -251 0
446 -167 -100 0
249 76 -283 0
-128 -334 -310 0
293 186 18 0
322 262 -93 0
70 436 333 0
-190 311 -346 0
39 390 466 0
-417 211 130 0
45 -184 -382 0
-221 388 -43 0
-224 -496 192 0
244 -389 -129 0
-19 403 -166 0
-442 -432 212 0
430 -363 -285 0
-198 98 -429 0
-116 349 160 0
471 -322 153 0
-80 36 43 0
-214 60 -67 0
216 -86 -275 0
-26 -362 -484 0
419 367 -151 0
-61 330 410 0
498 251 -287 0
-100 8 365 0
490 179 96 0
181 -433 268 0
3 -408 121 0
-142 -135 321 0
-44 193 350 0
182 282 -441 0
192 -373 -498 0
-64 -67 111 0
-147 98 375 0
313 36 -325 0
466 488 -314 0
-48 -500 -133 0
-380 -392 229 0
351 -418 404 0
280 -484 11 0
424 97 -500 0
-211 -184 -288 0
-268 -192 -24 0
362 60 -473 0
-66 -261 63 0
371 457 302 0
-299 -167 -477 0
-46 142 -365 0
15 -196 -164 0
-53 -179 -2 0
-453 -364 -215 0
337 -2 -402 0
240 95 -467 0
-434 481 68 0
74 226 331 0
-57 -250 444 0
-83 341 225 0
320 -189 -4 0
-353 349 -495 0
277 -208 -10 0
-85 204 305 0
466 272 193 0
-488 -34 -363 0
251 239 -100 0
-316 334 298 0
307 -345 -6 0
-73 -91 -238 0
-243 -132 -80 0
-165 203 -63 0
-471 465 224 0
-125 -87 -339 0
-103 17 -146 0
381 -186 69 0
-385 374 131 0
259 156 264 0
302 -413 -4 0
331 490 21 0
76 -159 495 0
6 -117 403 0
-483 -495 -423 0
390 247 463 0
349 403 204 0
385 69 -261 0
-322 -20 -384 0
66 138 -116 0
-69 499 -140 0
-406 87 -92 0
36 -429 340 0
262 -303 330 0
411 455 77 0
316 -382 224 0
210 -128 -410 0
-128 499 287 0
-26 89 -209 0
204 109 -116 0
276 -74 -414 0
489 7 -399 0
-298 248 7 0
-430 -197 -297 0
1 -483 -493 0
91 -153 299 0
420 8 -438 0
-389 432 37 0
-321 -472 327 0
-331 455 384 0
149 -414 417 0
-299 413 191 0
-89 -364 261 0
-370 210 -3 0
8 216 425 0
76 -262 -442 0
85 157 263 0
-462 -233 481 0
-174 170 116 0
-370 -48 -444 0
-202 50 436 0
-214 159 358 0
317 175 -401 0
230 366 78 0
-204 483 231 0
456 269 -123 0
-405 262 -129 0
189 -416 -484 0
480 234 109 0
315 302 121 0
255 441 -363 0
-55 -475 -397 0
-406 -199 -292 0
320 147 -256 0
-208 -498 -275 0
244 379 -37 0
-79 484 82 0
-139 -94 417 0
-93 6 470 0
75 -122 165 0
-39 -273 228 0
252 204 -227 0
-485 463 362 0
-452 74 -367 0
131 -86 410 0
-150 467 -267 0
-317 -28 259 0
393 -467 -351 0
114 191 40 0
163 -290 -389 0
-466 -496 -71 0
-402 -388 -154 0
463 -78 13 0
8 183 196 0
-391 65 32 0
39 -451 -128 0
239 -308 185 0
-76 1 189 0
46 341 -40 0
-407 11 199 0
-25 -320 368 0
106 -186 -475 0
-487 49 208 0
494 -453 -50 0
240 -395 287 0
485 -58 181 0
198 450 80 0
262 -372 362 0
-216 -400 325 0
460 -242 -372 0
-430 13 -237 0
-271 -435 108 0
-183 -489 -404 0
-35 -371 472 0
312 -340 -463 0
-29 -382 356 0
442 -489 -373 0
316 -326 370 0
5 -452 -235 0
-297 62 90 0
-455 -491 89 0
-356 -292 -210 0
-29 171 456 0
-419 229 -276 0
206 -378 78 0
-89 -407 382 0
104 -162 145 0
-414 127 -168 0
-179 -347 -365 0
305 -68 243 0
461 -436 -27 0
76 238 -334 0
-254 -430 422 0
497 -447 26 0
317 276 -277 0
285 -320 53 0
-421 37 434 0
29 163 -70 0
285 -468 64 0
-381 353 371 0
373 496 -245 0
361 -157 -104 0
388 391 198 0
-234 430 -178 0
345 -209 -365 0
-346 175 -155 0
-279 -374 190 0
-385 -65 225 0
-125 3 438 0
-143 381 164 0
380 84 -350 0
-121 -135 41 0
415 -97 -207 0
197 373 351 0
139 -360 -483 0
483 -137 7 0
-100 345 32 0
39 -229 21 0
-314 -438 -89 0
100 62 -436 0
171 -318 -382 0
-395 -158 -26 0
-438 71 286 0
291 79 325 0
-174 156 -169 0
-294 453 323 0
-427 16 -361 0
-493 55 -342 0
142 -59 492 0
405 204 -111 0
-440 -267 488 0
-365 406 391 0
225 -242 -219 0
269 -268 -348 0
60 38 -328 0
399 209 348 0
193 -29 -81 0
-24 -480 327 0
-74 -326 126 0
159 -460 421 0
-259 388 -356 0
472 403 54 0
-75 -130 -322 0
356 -477 -458 0
394 -358 146 0
220 -28 404 0
-395 86 132 0
-33 229 359 0
-445 202 -262 0
-310 273 7 0
136 -143 -219 0
365 85 63 0
174 -375 260 0
-163 -278 254 0
305 -253 239 0
-439 -287 196 0
-418 -86 30 0
23 204 -295 0
299 -98 485 0
40 269 390 0
-184 320 -364 0
-234 69 -228 0
31 -325 -198 0
299 -339 210 0
130 123 -312 0
-20 -87 -133 0
-111 42 74 0
477 174 481 0
-323 318 411 0
304 -276 285 0
331 415 274 0
-405 229 -161 0
304 -178 359 0
491 -172 230 0
-286 483 71 0
467 -179 -78 0
400 415 135 0
-255 219 -104 0
-183 271 280 0
-108 325 -264 0
283 207 -289 0
103 -266 312 0
-417 1 461 0
364 253 -226 0
21 -396 -447 0
-437 50 -129 0
-15 396 267 0
-110 -367 206 0
-450 383 -7 0
-248 476 -95 0
-319 462 294 0
231 109 -156 0
-215 355 -154 0
-72 163 -266 0
-298 -110 -364 0
124 -411 143 0
-279 -242 101 0
351 -379 178 0
-106 -419 6 0
-369 -291 -318 0
-355 224 -121 0
-279 -367 -449 0
44 492 -90 0
-383 255 -358 0
-327 422 236 0
158 13 410 0
-361 411 170 0
254 -430 262 0
-372 75 -350 0
-44 355 -190 0
-71 -87 290 0
86 293 23 0
-462 -393 -390 0
157 322 495 0
-125 56 42 0
396 346 189 0
-312 -63 443 0
413 -484 66 0
-275 38 -117 0
-54 -227 -182 0
391 -403 -198 0
-404 -415 -239 0
16 395 -389 0
206 20 68 0
304 -273 -310 0
66 -267 92 0
114 410 76 0
411 -129 346 0
-72 -140 485 0
-244 -238 248 0
-232 415 -499 0
-101 -316 -479 0
388 -442 -331 0
-258 -192 -337 0
224 198 111 0
63 357 327 0
-30 -37 221 0
262 -470 350 0
-208 -196 130 0
274 7 -474 0
-479 -144 469 0
-423 -328 359 0
375 372 90 0
-434 500 450 0
-240 321 -32 0
376 442 252 0
-111 309 126 0
-188 -460 -420 0
227 433 444 0
421 -303 -204 0
-235 178 288 0
254 486 -364 0
-219 314 -382 0
42 484 344 0
-30 10 -352 0
-425 -188 410 0
356 -250 -126 0
214 -424 -275 0
46 -235 16 0
-137 184 93 0
-72 -418 186 0
-149 105 190 0
381 386 -51 0
-198 428 319 0
-220 -87 -496 0
-141 216 187 0
-436 195 483 0
-268 -77 -364 0
-43 -227 -130 0
379 281 339 0
-477 413 278 0
-84 -156 401 0
-238 -218 -460 0
307 -167 -436 0
425 88 -213 0
500 255 337 0
-316 376 -108 0
-85 -129 -195 0
84 271 -316 0
-262 264 -412 0
267 -397 -465 0
-88 -227 61 0
230 -496 263 0
-188 -358 -313 0
-235 -325 326 0
-283 -436 -160 0
54 -420 -467 0
457 -198 127 0
14 378 -198 0
-419 -350 -293 0
168 -357 -473 0
-168 -62 230 0
54 321 -169 0
-181 -414 -397 0
-452 -189 43 0
-430 -355 -332 0
-104 283 -318 0
-47 -264 -356 0
222 170 67 0
-334 -336 388 0
-9 -165 -260 0
227 -403 124 0
382 219 499 0
-168 238 90 0
492 -476 -199 0
177 152 434 0
171 252 -307 0
281 143 430 0
292 360 471 0
6 79 -163 0
50 369 238 0
87 -240 264 0
-381 329 288 0
-239 -316 -345 0
-384 -222 -429 0
481 65 -302 0
26 480 184 0
-254 -116 -58 0
-194 479 279 0
-341 -136 378 0
71 -105 345 0
460 262 -111 0
-284 365 -280 0
-72 -75 -480 0
-484 346 277 0
354 -103 -99 0
105 -381 1 0
-444 -75 206 0
467 -492 400 0
-356 -115 -184 0
58 214 -255 0
108 -444 -114 0
-498 -283 417 0
253 165 -241 0
-190 -83 -258 0
238 491 -148 0
-246 -478 174 0
-86 -437 -135 0
96 -23 240 0
381 356 -351 0
269 470 -355 0
-89 -497 -411 0
187 -433 15 0
93 30 -55 0
174 -368 287 0
198 -83 -95 0
-236 495 215 0
287 314 -337 0
-7 14 208 0
-128 -93 -324 0
-448 399 -406 0
-6 419 -193 0
97 -207 174 0
340 38 -304 0
-116 112 -438 0
-74 243 173 0
-432 -317 38 0
197 39 -174 0
-211 15 -42 0
297 -215 -327 0
408 -143 105 0
267 346 -430 0
-112 12 -300 0
345 494 268 0
-135 -2 -390 0
121 -327 -91 0
338 492 74 0
-75 -235 155 0
-222 -493 133 0
-80 -50 89 0
-292 392 -472 0
17 157 316 0
111 -41 140 0
-189 -313 207 0
-397 81 85 0
-311 8 58 0
169 -161 -218 0
-423 415 209 0
-467 5 -323 0
99 143 -57 0
-250 -64 165 0
379 -70 61 0
363 119 267 0
142 308 -336 0
-296 246 381 0
56 -396 97 0
70 278 462 0
-180 -419 -320 0
-219 -165 -335 0
418 265 388 0
9 -36 446 0
45 -55 -190 0
-472 -69 -104 0
-174 282 330 0
-128 -442 428 0
-479 34 158 0
-187 431 191 0
406 -459 172 0
106 -114 424 0
210 -297 -160 0
-416 -46 -359 0
-225 -212 217 0
329 488 125 0
243 127 -134 0
-297 -382 -93 0
-342 -111 -255 0
426 95 -274 0
14 -380 -320 0
406 266 -203 0
-106 454 351 0
48 -198 -477 0
-180 -3 -37 0
-67 133 -366 0
-353 -434 -107 0
-19 233 99 0
-5 -167 -432 0
486 -296 100 0
105 -183 86 0
418 -423 -44 0
55 -226 -477 0
-7 420 -498 0
362 117 -354 0
-301 375 -212 0
231 469 -303 0
-480 134 -273 0
437 12 216 0
-451 -251 186 0
317 361 -450 0
-373 -335 -325 0
-479 -91 172 0
436 -238 -8 0
-149 106 73 0
-451 -196 413 0
181 87 493 0
88 435 289 0
370 -55 -435 0
-170 154 190 0
-465 -206 94 0
361 -423 75 0
110 -29 105 0
-470 28 429 0
-103 -434 209 0
-362 307 493 0
-452 -28 -436 0
312 337 479 0
-207 55 277 0
156 231 -2 0
359 -199 311 0
-354 -306 390 0
-216 -105 473 0
190 -52 268 0
-25 -343 -423 0
218 180 -53 0
158 -456 141 0
84 3 -179 0
-369 -440 -23 0
-225 196 -298 0
-139 -19 136 0
191 -322 -174 0
-306 178 229 0
214 167 99 0
352 -341 136 0
-437 190 435 0
258 -128 -388 0
-6 134 -185 0
-403 58 -338 0
-125 363 458 0
-405 202 216 0
-198 -181 -452 0
468 -21 466 0
125 334 288 0
-6 426 381 0
337 -314 -432 0
-23 -459 -230 0
-289 -362 438 0
242 391 -58 0
-191 212 365 0
-21 141 271 0
