p cnf 200 590
138 14 -84 0
-54 -47 -195 0
-34 -31 -122 0
199 85 -124 0
23 -199 197 0
47 -140 -121 0
-154 198 111 0
150 -78 110 0
91 51 164 0
-30 -103 111 0
45 115 -19 0
32 -21 -174 0
183 -22 102 0
-87 91 69 0
49 157 27 0
-6 43 78 0
67 122 45 0
27 128 -11 0
120 136 -96 0
79 -67 5 0
170 63 153 0
-70 -172 -170 0
3 175 162 0
-36 188 -101 0
86 -151 -169 0
-9 -189 69 0
23 -30 16 0
199 11 -68 0
-179 -95 191 0
83 99 173 0
-161 167 100 0
-72 162 47 0
-59 107 -62 0
36 175 -96 0
190 -14 3 0
18 -182 -195 0
-143 -193 85 0
35 -15 136 0
-82 101 116 0
89 -32 87 0
-84 90 -64 0
187 -119 86 0
-49 -126 138 0
-67 -95 90 0
36 -31 -93 0
-193 -51 107 0
-31 -125 153 0
99 -136 195 0
67 -192 188 0
-124 106 -146 0
-40 194 -182 0
167 -20 118 0
200 -185 66 0
150 -41 -40 0
24 101 11 0
-112 -100 -134 0
-3 -122 114 0
-63 -14 160 0
85 -168 128 0
-76 -4 -28 0
-153 151 -175 0
34 58 54 0
-158 -112 42 0
155 123 -121 0
-88 123 180 0
-67 -173 147 0
-190 -31 116 0
129 183 43 0
29 -106 104 0
49 62 74 0
9 104 140 0
81 -185 164 0
17 188 -165 0
-21 186 167 0
137 -70 42 0
-194 123 -67 0
155 -42 69 0
40 -48 64 0
54 -1 -55 0
97 -134 58 0
-157 114 -170 0
67 -7 -90 0
-126 -135 -115 0
78 -55 -147 0
-183 -36 -145 0
24 78 99 0
128 156 198 0
-2 15 151 0
86 119 146 0
-48 109 56 0
39 -150 -140 0
-80 174 -128 0
-51 75 12 0
-19 97 173 0
-102 22 -60 0
172 127 -15 0
83 -91 70 0
38 -82 -145 0
140 19 -91 0
-127 6 -4 0
-174 12 -59 0
-130 -136 -45 0
59 77 154 0
-99 -141 -191 0
-37 144 103 0
-104 8 44 0
-179 74 95 0
-2 149 156 0
150 88 24 0
-181 -155 -107 0
168 -166 -161 0
-123 -13 32 0
186 -45 -118 0
24 -123 -65 0
-137 -172 -191 0
82 -5 110 0
-35 -34 129 0
178 33 64 0
32 -120 -95 0
169 82 -102 0
25 30 -39 0
-102 -175 68 0
-131 -182 -151 0
-10 100 -179 0
179 56 27 0
-192 1 -12 0
-193 2 25 0
113 162 38 0
-128 -8 122 0
180 42 12 0
-21 81 24 0
68 -160 139 0
103 170 41 0
33 155 -145 0
21 81 191 0
165 -96 90 0
167 94 8 0
-198 1 42 0
-46 8 192 0
-25 -46 -54 0
-154 24 167 0
153 73 130 0
-8 -71 41 0
142 172 -165 0
-5 58 12 0
127 41 193 0
74 -35 -145 0
-4 78 147 0
140 110 111 0
-153 -114 53 0
-78 -188 -45 0
139 143 184 0
63 66 79 0
-126 -165 141 0
-53 66 -65 0
-7 95 -48 0
-192 161 20 0
-110 105 45 0
-19 60 -46 0
-76 41 47 0
-118 74 -129 0
-194 -94 -183 0
-159 -136 -102 0
-45 -145 169 0
180 168 -146 0
-92 -195 -76 0
-52 149 98 0
-177 42 164 0
16 -94 -113 0
-93 -157 131 0
-186 24 161 0
-62 15 -181 0
75 -120 -41 0
-155 -20 166 0
-48 2 166 0
-41 32 110 0
-173 -192 -191 0
65 -101 -153 0
-10 172 112 0
108 -157 58 0
147 188 125 0
76 118 154 0
-148 -115 -195 0
-83 154 -114 0
157 -32 -22 0
56 -24 71 0
130 -115 69 0
-158 -116 -75 0
-130 157 108 0
3 -65 57 0
-17 12 -137 0
6 -164 189 0
-163 154 -87 0
106 86 -153 0
70 -100 67 0
-52 198 162 0
-76 -108 144 0
123 -143 126 0
121 -23 -133 0
-174 -130 12 0
128 24 -172 0
57 -186 -116 0
-63 -155 -113 0
-189 -32 -112 0
-41 -13 -189 0
-123 -143 76 0
-148 -62 -121 0
-113 106 21 0
185 -43 49 0
-83 165 -150 0
-167 -184 88 0
156 -139 149 0
3 -142 -47 0
-152 -131 -155 0
-138 -50 189 0
187 37 64 0
16 -54 111 0
-141 48 91 0
-12 -81 61 0
149 72 47 0
-75 -162 89 0
96 152 60 0
-156 119 52 0
-171 94 -44 0
-97 -114 -184 0
-142 -182 -103 0
39 149 -133 0
70 -57 113 0
-62 -70 -78 0
158 89 -38 0
115 -179 -145 0
118 29 -163 0
169 75 91 0
-149 179 162 0
-27 -33 -63 0
73 -141 -52 0
-140 50 56 0
85 -119 109 0
-138 86 -115 0
185 92 1 0
143 -100 190 0
184 105 -17 0
-145 -7 192 0
146 193 8 0
-138 -13 152 0
143 119 -162 0
89 127 -143 0
119 26 -173 0
-165 -31 171 0
-102 6 169 0
155 80 94 0
73 -154 50 0
-92 -182 163 0
162 -84 -49 0
158 102 161 0
-29 112 197 0
-143 106 14 0
-41 -71 -170 0
5 -113 86 0
-91 -44 164 0
-45 172 16 0
-136 139 77 0
-193 -12 -120 0
-108 -147 198 0
93 -18 81 0
-101 61 -20 0
146 109 166 0
170 -65 70 0
80 -109 -150 0
-89 121 -56 0
141 166 91 0
9 -46 -108 0
75 123 -190 0
45 37 44 0
102 -31 107 0
119 87 88 0
-21 3 -181 0
-104 16 -124 0
100 9 30 0
54 138 104 0
172 -164 92 0
101 -6 191 0
64 -192 78 0
-75 -80 107 0
198 17 -60 0
-121 -149 -28 0
32 16 169 0
123 -125 68 0
100 192 -70 0
-136 -120 -29 0
-56 79 12 0
-183 -110 120 0
-78 67 128 0
22 77 -163 0
79 122 -70 0
-87 24 113 0
105 70 -187 0
115 -44 -70 0
176 -156 -71 0
-34 -96 7 0
69 -198 23 0
-125 140 -197 0
-59 -136 26 0
-155 -40 -56 0
7 178 167 0
-167 -44 153 0
66 -19 133 0
68 -185 -125 0
113 194 -4 0
87 166 59 0
155 11 58 0
-40 25 -168 0
-118 -146 -47 0
86 56 144 0
-59 98 46 0
6 48 -9 0
8 68 -23 0
-13 -57 148 0
-140 -10 105 0
162 -178 -54 0
65 -113 -71 0
-50 -149 -131 0
81 -166 -119 0
-65 142 -22 0
6 -31 -14 0
-68 95 140 0
-157 51 -14 0
-169 114 -89 0
-100 197 126 0
183 85 132 0
-32 -18 15 0
-58 74 108 0
-139 56 -182 0
185 94 99 0
53 158 -47 0
-154 -142 -135 0
166 150 -22 0
-167 -118 -3 0
-59 -36 195 0
-121 185 -10 0
-74 -104 -56 0
98 67 161 0
66 -8 -25 0
-134 132 54 0
63 -51 -59 0
41 128 1 0
54 94 144 0
-40 55 -54 0
146 -18 -37 0
-142 132 -14 0
-7 -79 -180 0
49 107 -185 0
-78 19 166 0
-139 -46 -186 0
13 -17 -193 0
46 -10 101 0
51 -200 191 0
196 -43 -5 0
89 59 77 0
-81 22 71 0
134 -32 110 0
-180 98 -67 0
174 -188 -165 0
-35 -183 54 0
189 -47 52 0
93 -123 -56 0
-72 -159 193 0
110 70 -14 0
56 -3 165 0
-34 -89 193 0
70 -12 -154 0
-79 -94 -200 0
58 176 -31 0
-2 -15 -22 0
-18 120 135 0
57 -25 -132 0
-97 -126 132 0
54 -129 -145 0
-161 136 8 0
-181 -6 -58 0
6 57 -112 0
-132 189 188 0
-104 25 40 0
-66 -34 38 0
-144 186 -97 0
-179 -183 -130 0
-22 -126 -118 0
194 111 107 0
-137 -172 -194 0
97 -200 -192 0
-38 -161 -17 0
-137 79 78 0
-66 -183 -198 0
-150 -80 110 0
165 37 77 0
-168 44 -157 0
-40 145 -88 0
-57 -92 186 0
112 191 165 0
-5 153 32 0
183 -2 -127 0
153 -180 161 0
25 -160 -192 0
-98 -124 -147 0
81 -123 -182 0
1 -84 -141 0
-55 188 -56 0
-197 -168 -42 0
-80 -11 34 0
-52 158 139 0
-80 -163 -196 0
102 -34 49 0
198 -37 -166 0
-107 89 86 0
-8 -188 -189 0
-121 93 171 0
142 -1 10 0
-59 13 -92 0
185 137 160 0
3 -124 39 0
-103 -108 173 0
153 95 35 0
189 135 132 0
-73 56 -116 0
-166 -162 -188 0
-159 52 -69 0
108 5 149 0
11 -83 135 0
144 25 -65 0
89 159 92 0
-167 133 186 0
171 -170 -133 0
-77 -130 158 0
-117 155 119 0
-196 -180 -144 0
145 -152 -52 0
130 87 17 0
-158 14 140 0
-25 9 -121 0
194 -81 -149 0
64 58 -179 0
-1 -163 98 0
18 -10 166 0
36 -148 -196 0
-142 55 -19 0
-108 99 114 0
-122 -44 -103 0
114 -6 193 0
-199 -98 -160 0
170 51 157 0
50 -135 106 0
-171 -47 -42 0
-86 67 171 0
-113 109 -173 0
-188 135 18 0
100 -101 -133 0
-140 21 -2 0
-200 -163 194 0
-121 -156 -187 0
130 57 -24 0
116 -108 63 0
-25 -89 181 0
33 -4 -99 0
110 -177 -70 0
39 -94 -138 0
-86 -38 -187 0
-137 5 -38 0
103 155 -138 0
186 -42 174 0
-111 -143 -113 0
115 195 -165 0
55 145 -127 0
-146 109 -76 0
-170 74 144 0
111 -3 -58 0
94 107 131 0
157 -195 -142 0
143 -80 -195 0
74 -99 -2 0
63 96 -98 0
-162 81 -89 0
-19 129 -138 0
-124 -77 -127 0
133 -3 116 0
-186 157 162 0
136 76 49 0
-165 48 -155 0
-200 58 -21 0
-76 -100 64 0
187 133 10 0
82 32 20 0
-24 -146 -32 0
-137 -56 -119 0
33 42 -49 0
62 82 187 0
-184 -25 -26 0
109 -90 -176 0
138 -45 -52 0
-26 -61 92 0
-15 -53 -136 0
39 -142 -152 0
-168 -59 -166 0
15 3 194 0
154 -119 75 0
21 -161 56 0
-179 -104 140 0
67 -22 128 0
6 147 148 0
-197 63 26 0
-8 -15 -137 0
-70 164 72 0
185 -186 23 0
189 150 -38 0
142 -34 -128 0
-95 -55 154 0
-54 105 -110 0
-57 -163 157 0
-200 163 183 0
102 -41 74 0
-14 -63 159 0
-190 -41 56 0
-72 144 10 0
-142 181 -58 0
-26 8 133 0
-85 200 163 0
-170 23 -69 0
42 -73 -84 0
-78 193 -100 0
-114 31 -196 0
-172 -60 162 0
-10 -167 -75 0
-31 -171 -182 0
-127 -170 -104 0
-63 132 195 0
-138 140 77 0
48 -133 -103 0
-103 -108 -27 0
27 162 142 0
154 80 29 0
155 -95 171 0
89 -40 42 0
133 64 110 0
170 42 -68 0
176 -186 -178 0
24 52 130 0
105 72 179 0
-184 -42 195 0
121 193 -131 0
-111 -145 -93 0
-125 -111 109 0
162 -139 164 0
11 -31 -68 0
23 54 92 0
-180 -149 -165 0
-138 -122 -117 0
44 12 86 0
-161 -131 197 0
136 110 -52 0
-144 -198 14 0
-150 -154 -85 0
-119 25 -114 0
-69 -67 -51 0
99 -39 -120 0
-200 -90 -189 0
-111 188 20 0
-133 76 -130 0
-178 113 -94 0
80 108 -171 0
113 44 -170 0
19 -187 -97 0
50 98 127 0
-4 -182 -93 0
-31 -10 -34 0
144 139 98 0
-24 -30 -174 0
163 61 117 0
-74 152 96 0
-135 -146 -59 0
-72 198 140 0
50 109 -188 0
163 -191 -11 0
-129 -125 -5 0
122 2 188 0
-73 -71 -51 0
146 134 20 0
150 -4 -17 0
-107 -124 -27 0
-50 181 -160 0
-40 52 -91 0
-91 116 120 0
