p cnf 200 500
8 151 -71 0
8 -140 152 0
38 -88 -33 0
194 5 55 0
162 -82 -180 0
83 113 -148 0
-118 52 -102 0
188 96 -43 0
-89 -146 56 0
-116 -93 -105 0
64 55 -144 0
-145 129 -26 0
5 19 -28 0
16 95 132 0
83 106 -96 0
-9 86 -95 0
-174 -154 -70 0
-172 -188 -62 0
40 -79 129 0
-179 144 -93 0
85 -4 -95 0
-169 91 -19 0
94 91 95 0
-86 129 4 0
-99 -79 -199 0
-18 -64 25 0
-176 144 27 0
-184 93 -5 0
71 119 139 0
-123 181 81 0
-136 151 -177 0
-12 -158 -134 0
-181 157 -6 0
-70 -181 152 0
-51 59 194 0
-176 -100 -142 0
86 -48 137 0
53 8 175 0
155 117 -53 0
-169 35 86 0
-154 62 -47 0
-57 199 28 0
8 -108 143 0
189 -105 -113 0
71 -91 95 0
-197 -61 146 0
188 167 -4 0
120 88 -55 0
-156 -100 -155 0
-106 -146 137 0
-6 -118 -78 0
168 186 104 0
-32 193 151 0
-43 158 -177 0
-95 -34 168 0
104 -62 137 0
2 182 17 0
62 68 63 0
-98 120 106 0
-50 185 61 0
150 -23 197 0
192 4 -37 0
108 98 -119 0
-60 -62 3 0
36 -93 -15 0
-89 -96 -186 0
122 -85 9 0
147 -167 81 0
36 55 -112 0
-41 -94 -31 0
110 -198 75 0
-126 -54 158 0
-134 -122 -32 0
8 120 155 0
-12 158 82 0
-67 131 89 0
-188 -150 -4 0
172 -80 49 0
162 -28 25 0
-140 92 38 0
126 141 -74 0
-54 164 -197 0
-70 168 -2 0
59 14 -38 0
-111 8 -32 0
-125 47 41 0
29 178 23 0
131 41 59 0
75 19 160 0
-64 -137 166 0
-80 -32 158 0
-116 -84 164 0
142 173 -115 0
192 -65 34 0
-1 137 92 0
-32 -60 -81 0
-117 130 -32 0
186 128 109 0
-11 -117 -185 0
68 -7 -15 0
59 3 -168 0
-168 -93 -138 0
-117 -7 -6 0
96 127 184 0
-134 -76 -124 0
183 -28 -159 0
179 173 44 0
95 18 -98 0
-12 64 178 0
98 -144 50 0
-79 -70 155 0
-50 104 158 0
-40 -1 -79 0
-10 -97 133 0
-164 1 42 0
185 -101 -27 0
94 28 162 0
7 166 131 0
-86 16 38 0
-140 76 -68 0
93 115 -126 0
-7 29 -74 0
104 -61 161 0
-20 -78 -77 0
109 187 -103 0
64 -7 182 0
117 178 84 0
-32 -77 -188 0
-61 -114 184 0
59 7 -119 0
-148 -27 93 0
163 176 86 0
-193 -28 94 0
-33 -79 5 0
-94 -142 -71 0
167 70 180 0
-46 -181 -182 0
-108 190 197 0
-86 150 -100 0
-42 22 68 0
20 160 -105 0
49 -25 93 0
-81 94 -160 0
69 -145 171 0
177 -74 -99 0
180 -164 -23 0
-133 13 -104 0
132 -145 -147 0
74 9 -7 0
-122 -194 25 0
50 113 -133 0
92 142 -152 0
-142 -62 -112 0
-119 161 -26 0
-169 -133 112 0
-16 -159 -174 0
109 -13 133 0
79 197 -191 0
-130 -179 -71 0
164 1 195 0
-84 -40 -161 0
-119 -69 -172 0
45 193 49 0
-176 200 85 0
-100 -107 -54 0
137 -55 -108 0
-23 58 -19 0
-180 53 -38 0
-21 -146 -87 0
-80 -177 -188 0
-191 -168 -195 0
-37 27 156 0
-152 -189 -10 0
128 178 -191 0
-146 -64 117 0
-55 198 -7 0
26 60 -172 0
-65 9 -134 0
149 34 75 0
37 -89 196 0
-129 97 52 0
36 -96 -70 0
-74 115 -177 0
168 -159 -142 0
-105 63 -161 0
199 94 140 0
61 -60 131 0
92 132 8 0
-195 -179 -160 0
-169 -125 149 0
12 -71 37 0
-43 -92 -115 0
85 -120 -101 0
180 -6 -112 0
76 191 184 0
-144 -41 157 0
-78 172 -127 0
5 194 88 0
1 139 28 0
-46 113 27 0
-102 90 185 0
-194 -149 14 0
50 96 47 0
-79 196 163 0
33 66 -68 0
33 -63 -126 0
27 -80 41 0
-150 4 166 0
104 -112 53 0
196 -42 -178 0
-131 -110 58 0
-84 -83 -46 0
-80 -76 -96 0
95 -182 -12 0
-51 -166 -136 0
-21 135 9 0
124 -65 -98 0
8 48 -67 0
73 -58 186 0
-36 198 -5 0
178 189 48 0
-13 -183 -3 0
187 157 -109 0
-41 173 -111 0
-159 16 -166 0
-102 133 -98 0
-92 -42 -9 0
143 55 -36 0
174 94 -51 0
-198 -67 -132 0
129 -84 -5 0
-21 -187 -64 0
33 175 113 0
158 -62 -88 0
-134 -100 -56 0
36 72 146 0
121 -36 32 0
156 -196 193 0
68 60 6 0
59 -54 -187 0
31 -84 155 0
125 30 36 0
-20 146 151 0
161 -199 -150 0
182 59 110 0
-180 58 158 0
87 19 -74 0
33 1 -188 0
192 -144 -167 0
-157 56 -8 0
28 187 98 0
4 116 -111 0
4 113 100 0
108 27 70 0
131 22 -136 0
-126 -131 -23 0
-177 14 198 0
12 -140 18 0
75 122 -163 0
-61 9 -87 0
112 12 -84 0
-200 91 -80 0
-135 -112 170 0
27 -173 -103 0
-7 148 -87 0
-57 71 -17 0
108 6 -12 0
-156 56 65 0
-29 -185 128 0
48 7 -53 0
-96 58 -84 0
64 44 -192 0
-178 156 69 0
-136 -30 -19 0
44 68 119 0
44 137 149 0
-99 135 -175 0
-60 -6 171 0
103 23 -17 0
67 -128 71 0
-37 30 -56 0
198 -3 115 0
-99 -155 -49 0
-111 110 136 0
-90 105 199 0
-21 124 28 0
-13 -62 -67 0
-190 -193 28 0
74 -118 -160 0
194 175 193 0
-137 65 66 0
-175 -17 109 0
-140 1 -135 0
55 -154 -173 0
177 4 -99 0
22 -161 147 0
153 -57 74 0
-50 187 -126 0
85 21 44 0
47 -124 58 0
164 119 -114 0
-173 -6 -124 0
-30 -44 -175 0
74 35 121 0
64 -180 -86 0
-191 163 91 0
19 4 94 0
-119 140 -59 0
-109 92 108 0
106 -186 -132 0
115 184 176 0
-5 -169 33 0
-34 60 95 0
-59 -191 3 0
1 178 -30 0
118 188 57 0
-192 17 8 0
145 -170 -30 0
132 8 -78 0
134 -83 -23 0
-168 19 166 0
-159 -36 27 0
128 85 -178 0
100 -127 60 0
102 46 45 0
32 -94 148 0
99 55 -1 0
44 118 -93 0
-19 -171 154 0
140 145 78 0
-159 -4 34 0
185 147 177 0
140 37 -158 0
-146 -86 -109 0
103 -40 174 0
57 163 122 0
-161 144 194 0
66 -150 55 0
122 1 -170 0
178 -45 -102 0
-159 71 8 0
13 133 157 0
173 14 -3 0
83 -51 -135 0
117 -124 -44 0
-166 -6 156 0
41 183 -158 0
-30 -159 -185 0
61 23 77 0
174 99 -74 0
-99 60 -134 0
-162 192 -59 0
191 -99 2 0
171 150 187 0
-77 182 166 0
-78 16 -77 0
-103 -23 24 0
4 -131 -5 0
73 -113 122 0
-177 -39 20 0
28 -33 29 0
80 131 -168 0
-180 50 -57 0
-71 -140 -172 0
-149 195 24 0
117 45 40 0
-27 -30 -140 0
107 -102 127 0
66 -51 -179 0
-162 -19 200 0
-110 105 54 0
159 -18 -170 0
17 81 -176 0
-71 -154 -69 0
116 -38 134 0
-172 -193 189 0
-171 -161 -63 0
-69 89 86 0
82 87 3 0
144 -138 -14 0
187 124 -2 0
40 52 -93 0
195 173 57 0
-12 -158 -103 0
-97 -30 -139 0
-136 142 102 0
122 -79 -36 0
19 185 -155 0
-176 87 -70 0
-170 -55 -71 0
23 69 -51 0
-122 82 144 0
-83 76 -49 0
-23 174 152 0
114 56 -68 0
-6 8 -194 0
-142 -200 120 0
-92 183 -106 0
-60 67 100 0
-33 83 110 0
-164 -199 -19 0
-87 36 -35 0
-194 -187 -29 0
-146 -56 104 0
-148 -163 151 0
99 48 -55 0
-78 199 47 0
-81 176 -199 0
21 -117 -69 0
118 115 101 0
-129 -75 -153 0
45 47 181 0
103 -124 -172 0
170 66 28 0
62 61 94 0
-138 -139 -134 0
-45 -180 53 0
-6 59 -2 0
159 -111 30 0
-54 174 192 0
-95 77 -57 0
-98 -135 80 0
126 -93 178 0
-89 28 13 0
-44 -133 152 0
-35 84 -26 0
15 -34 -176 0
-71 -150 -99 0
-17 -8 -72 0
-77 -170 171 0
45 22 -63 0
143 -141 -185 0
94 80 125 0
-7 171 190 0
19 -197 -183 0
158 -33 -108 0
165 84 -196 0
184 138 -87 0
-34 -59 172 0
92 -164 -163 0
-29 -115 -161 0
-181 -188 18 0
-14 -198 71 0
-18 50 138 0
30 -6 -80 0
197 -140 -145 0
150 -144 123 0
49 -5 -191 0
161 11 -177 0
-93 -144 131 0
5 -160 25 0
70 159 -137 0
-146 -182 113 0
115 49 -23 0
-77 -134 186 0
81 -60 -178 0
98 -117 30 0
-112 150 -178 0
-10 90 -186 0
136 30 -155 0
199 -187 21 0
134 93 171 0
85 -196 30 0
144 -175 61 0
-74 -127 -189 0
130 -181 -56 0
41 -6 110 0
71 -43 35 0
70 58 130 0
-114 -96 -30 0
-67 71 -116 0
-107 -199 -31 0
-115 194 -138 0
-76 -48 -164 0
42 77 -31 0
-199 168 96 0
39 -56 63 0
154 71 132 0
-31 -91 61 0
90 -41 27 0
42 -169 87 0
60 1 -154 0
3 -163 188 0
-23 -200 151 0
-69 -144 -34 0
109 110 84 0
10 -83 135 0
109 -104 132 0
115 15 130 0
142 193 22 0
197 -45 136 0
32 -83 -50 0
13 70 -174 0
-112 -12 177 0
-12 -54 -164 0
-145 170 -183 0
187 58 -49 0
71 120 -79 0
72 -53 -55 0
-31 -193 -189 0
