p cnf 200 500
22 -187 188 0
89 -124 -114 0
-52 171 -117 0
-5 64 100 0
13 -97 -6 0
93 82 -100 0
69 -197 -44 0
-127 98 167 0
119 -187 -109 0
-12 153 -179 0
-102 -105 -171 0
-138 199 12 0
160 -172 92 0
156 128 122 0
-5 103 -172 0
-160 72 188 0
27 190 1 0
41 9 170 0
-161 95 -187 0
200 -43 123 0
-115 -191 -137 0
-191 96 37 0
-97 -62 -164 0
-84 -110 -82 0
170 108 2 0
65 149 -55 0
-27 -198 105 0
100 32 17 0
176 3 154 0
-110 28 -125 0
49 -190 -62 0
-174 -157 -77 0
-5 77 -183 0
113 12 171 0
-128 134 122 0
152 65 49 0
-71 86 -154 0
140 -86 159 0
9 19 187 0
153 -156 -70 0
54 -137 64 0
4 41 131 0
88 -170 146 0
-42 -114 9 0
-10 5 -50 0
27 -179 -120 0
-195 19 -145 0
-115 104 -157 0
-38 -35 -105 0
52 41 -32 0
-133 -145 -77 0
-81 187 135 0
150 72 179 0
-6 -157 -61 0
96 102 93 0
33 -142 84 0
24 -40 -42 0
39 124 -76 0
118 -113 -162 0
18 -81 132 0
188 145 40 0
29 151 -57 0
42 128 -43 0
-177 -55 -10 0
-54 180 88 0
127 -120 155 0
-152 7 -29 0
-76 -102 -122 0
-11 -40 162 0
174 -77 -87 0
-177 -42 -116 0
111 58 -108 0
79 -128 157 0
180 -1 166 0
-16 112 38 0
138 -76 48 0
-186 -109 -134 0
110 144 27 0
-111 -191 64 0
181 -101 39 0
-6 -125 81 0
-69 16 23 0
27 -150 -153 0
17 122 56 0
-145 24 -64 0
-107 -43 -147 0
-146 -15 158 0
-38 -150 160 0
3 152 -158 0
-71 -181 -191 0
-187 -136 16 0
-191 181 134 0
108 80 24 0
18 192 131 0
-46 -28 108 0
189 -154 68 0
-143 86 184 0
-6 109 153 0
92 -127 -67 0
-158 -75 -181 0
-189 -156 150 0
-111 72 -30 0
-146 -132 178 0
174 -119 -42 0
-123 50 -43 0
-197 92 29 0
21 24 -14 0
144 169 190 0
31 40 -87 0
27 163 -47 0
-20 70 190 0
-176 64 129 0
-154 151 148 0
166 -18 -164 0
17 125 94 0
166 7 -185 0
129 190 -6 0
66 -174 63 0
84 -160 -50 0
171 -20 -87 0
-182 -126 -59 0
96 164 -159 0
171 27 -101 0
-164 179 105 0
68 152 190 0
197 -51 160 0
67 40 -191 0
189 42 -38 0
-47 -17 24 0
14 145 -166 0
58 172 32 0
-42 194 13 0
189 -122 -129 0
92 -65 130 0
57 134 102 0
50 -188 118 0
-140 95 123 0
63 -79 -182 0
196 69 157 0
16 -170 -68 0
55 -137 -138 0
-153 31 98 0
58 175 2 0
-36 160 -95 0
-154 196 146 0
-108 -126 56 0
-184 -15 -94 0
-129 142 65 0
-37 -35 -88 0
90 -185 -29 0
155 139 40 0
44 -97 115 0
-145 46 -67 0
63 15 94 0
38 168 -5 0
53 134 164 0
55 -123 185 0
183 5 -10 0
185 186 -196 0
189 -68 136 0
-153 -65 91 0
55 -137 -199 0
-179 -184 -128 0
148 109 -198 0
138 -108 141 0
-62 -63 152 0
19 -2 -108 0
145 -30 -109 0
140 -69 -28 0
117 -85 -138 0
-129 90 12 0
111 -71 -57 0
163 -3 97 0
-169 -1 -139 0
29 -4 -71 0
-186 -97 -109 0
-134 -54 -142 0
94 103 -79 0
-140 -67 -63 0
-48 -46 -141 0
13 179 -190 0
199 -182 149 0
-146 -141 -61 0
-179 104 -114 0
22 152 47 0
-197 -86 78 0
92 -125 62 0
-52 135 125 0
28 68 -10 0
-159 156 55 0
-38 -35 196 0
140 151 39 0
52 -54 -38 0
-98 59 -16 0
-176 162 14 0
151 -182 174 0
13 -195 -136 0
97 73 -70 0
-118 87 115 0
-105 -161 -135 0
-104 -55 157 0
11 -128 -121 0
136 157 -146 0
-115 26 102 0
-122 -82 177 0
-69 -125 66 0
190 113 15 0
118 -115 -7 0
123 -133 183 0
-132 -55 167 0
-180 195 -141 0
49 112 77 0
-128 -141 -181 0
-140 177 144 0
84 136 -25 0
-23 198 149 0
-135 -181 31 0
-190 -86 -191 0
-152 83 15 0
-172 88 -173 0
-64 94 -114 0
-44 -166 177 0
-130 64 12 0
-52 114 31 0
76 -14 -91 0
19 22 -165 0
-78 -96 111 0
130 31 -32 0
132 7 -85 0
164 -131 -51 0
154 119 122 0
85 -73 3 0
-74 47 -154 0
-31 124 -18 0
-31 -78 -109 0
-23 -189 -11 0
-75 -154 -95 0
-33 -156 168 0
-28 -111 16 0
127 -117 -71 0
119 55 -145 0
130 -40 -4 0
-139 20 -29 0
-100 15 -113 0
-123 -175 31 0
59 87 -52 0
7 194 -35 0
21 192 33 0
-39 -12 -164 0
-137 -145 191 0
-90 70 28 0
-141 -89 -45 0
-196 -13 -189 0
111 136 -91 0
125 -174 -98 0
-180 -184 -196 0
69 -70 -59 0
14 192 -119 0
-118 -28 -199 0
-67 -138 -170 0
-5 -1 189 0
96 11 135 0
29 80 -152 0
33 137 148 0
-182 -9 69 0
51 181 89 0
133 -13 -193 0
199 -192 -24 0
-187 51 77 0
14 128 -105 0
23 -110 173 0
-174 39 -193 0
-119 -126 160 0
18 168 -8 0
-24 -35 -149 0
-179 -191 15 0
-131 -140 -31 0
61 -50 -93 0
-110 186 -47 0
-11 -96 -80 0
-8 176 -54 0
-56 -58 105 0
-147 -146 65 0
-118 -49 -37 0
-29 -88 -32 0
-125 -59 135 0
33 137 15 0
151 193 69 0
-23 113 156 0
-3 -129 -155 0
33 -111 188 0
132 -123 127 0
186 31 80 0
28 -142 -155 0
112 -163 -32 0
-49 153 -18 0
-38 -143 -150 0
49 101 -153 0
147 40 170 0
-34 149 11 0
-31 69 129 0
-42 182 -53 0
-74 -137 106 0
122 -26 -107 0
-8 -5 1 0
158 24 -149 0
90 -136 35 0
196 43 -144 0
-196 -15 -57 0
-123 -39 -132 0
72 -35 57 0
-126 -5 -40 0
-135 51 -157 0
145 -169 -47 0
90 123 93 0
-130 194 50 0
-85 -114 -93 0
94 3 134 0
-68 -87 33 0
49 100 140 0
160 193 44 0
57 -155 89 0
-60 -102 -177 0
-42 83 162 0
58 144 92 0
103 -45 -122 0
-94 20 -148 0
-36 153 168 0
196 83 -98 0
-148 107 15 0
-146 -92 -40 0
-30 171 -38 0
97 160 -197 0
27 -123 -159 0
101 -49 -46 0
-136 3 -158 0
-16 -73 194 0
-44 6 -105 0
-44 -71 61 0
19 177 15 0
-125 -195 -27 0
-128 -113 52 0
-129 -136 -6 0
112 -17 -132 0
-74 59 -156 0
14 -182 79 0
176 10 83 0
131 -10 141 0
26 47 88 0
158 79 144 0
-70 116 -44 0
143 96 121 0
-90 48 -77 0
92 -96 -196 0
54 117 113 0
150 129 80 0
171 121 39 0
18 -86 196 0
83 -47 -152 0
85 19 141 0
198 -146 43 0
-111 -184 104 0
-128 -191 102 0
106 107 122 0
105 197 -179 0
83 181 -79 0
-100 -16 167 0
198 -171 -51 0
169 104 72 0
-1 -121 27 0
100 89 43 0
194 93 5 0
19 77 105 0
199 -86 -21 0
-44 -33 -64 0
-139 -102 86 0
84 -195 -126 0
5 -200 31 0
-135 -173 -110 0
-22 119 -186 0
-136 -63 36 0
38 -27 77 0
104 -33 46 0
-161 162 194 0
32 -130 -170 0
19 -75 7 0
8 -190 69 0
120 3 -160 0
146 -83 -126 0
93 -145 -40 0
8 -102 114 0
26 -6 162 0
-150 69 152 0
139 -164 -41 0
112 -56 23 0
64 -18 21 0
-34 65 6 0
-38 102 75 0
-55 -180 -46 0
-94 -29 -82 0
1 -100 -128 0
46 -184 -99 0
-95 -80 160 0
102 35 -80 0
-169 -161 -58 0
19 -21 105 0
74 115 192 0
-56 -14 -110 0
-187 -24 33 0
181 -127 114 0
-4 69 53 0
-127 -78 39 0
-190 -161 -194 0
74 168 -88 0
-125 3 -161 0
113 68 -58 0
-67 -199 -58 0
-43 41 115 0
-109 -127 135 0
6 127 -14 0
-112 -128 131 0
-11 3 170 0
-170 65 -8 0
54 57 111 0
86 -134 200 0
135 163 -142 0
-28 -198 -124 0
18 -118 -53 0
3 -180 156 0
81 141 -68 0
195 167 16 0
-121 11 172 0
-176 -137 -85 0
-79 -17 20 0
70 -82 60 0
-92 -153 -149 0
61 -89 -71 0
40 193 166 0
-127 97 -84 0
-57 -166 -182 0
174 106 -128 0
-31 43 -133 0
77 160 -6 0
-139 44 81 0
182 -71 138 0
-122 -18 -53 0
65 141 12 0
130 -189 -178 0
-90 151 26 0
75 162 -43 0
-65 -48 -166 0
42 -142 -140 0
131 176 153 0
-14 197 -154 0
-37 -113 -94 0
180 -178 -123 0
64 -78 19 0
83 -13 -179 0
96 160 -171 0
-89 156 -173 0
-48 123 -10 0
8 -108 -7 0
81 154 10 0
144 162 123 0
-130 133 -34 0
105 132 96 0
-175 70 120 0
54 88 -121 0
-7 -120 -177 0
-178 158 -130 0
-142 -19 -196 0
-27 50 126 0
122 107 149 0
161 172 9 0
-192 -169 -41 0
-166 -48 66 0
-161 182 -88 0
194 -94 133 0
-44 -56 -33 0
-134 43 -81 0
26 11 110 0
-111 146 -184 0
-20 -106 -63 0
-162 -27 -69 0
2 23 -191 0
188 -197 81 0
92 66 91 0
138 64 132 0
97 40 -183 0
96 -39 114 0
170 -141 -168 0
32 43 -72 0
-48 -82 24 0
-190 -177 -101 0
103 81 154 0
12 81 -144 0
-135 -71 21 0
-15 -25 -160 0
7 28 -139 0
74 120 198 0
