p cnf 200 500
-31 80 156 0
-172 38 123 0
-18 1 -14 0
59 -4 -100 0
-167 -169 -53 0
55 1 -82 0
149 -40 191 0
172 -61 8 0
-156 72 176 0
25 41 129 0
-122 -73 20 0
-105 -2 85 0
150 -62 8 0
42 -151 114 0
-38 140 63 0
-152 -42 189 0
-186 -154 -79 0
-40 14 25 0
-138 26 -106 0
-101 -84 -38 0
69 -7 105 0
-129 -23 47 0
-30 -29 -126 0
120 -50 -93 0
-40 -43 6 0
-31 30 141 0
71 -180 24 0
48 -28 50 0
25 98 6 0
152 92 86 0
24 99 60 0
64 -200 198 0
-22 -164 -180 0
163 37 128 0
-193 -119 -101 0
131 140 198 0
-19 185 5 0
179 -190 81 0
51 -103 121 0
-124 -138 156 0
116 -145 137 0
99 189 121 0
134 -20 -14 0
134 81 -6 0
126 -8 -117 0
-195 -54 108 0
179 -107 -184 0
-170 8 145 0
67 -44 -64 0
158 -33 -200 0
-143 -26 -49 0
98 96 -67 0
80 151 -174 0
143 95 -131 0
76 186 13 0
-64 -34 -114 0
22 17 -66 0
2 17 187 0
-81 132 164 0
132 188 -61 0
-194 -85 163 0
-22 73 186 0
153 166 -196 0
-170 5 161 0
-85 13 65 0
97 190 -114 0
-27 158 -173 0
-109 -127 -65 0
-119 -26 -12 0
134 -168 92 0
113 -116 90 0
70 -126 -109 0
-105 183 -7 0
-188 -113 -112 0
188 26 -136 0
-180 143 58 0
61 -107 -74 0
96 156 -119 0
-14 -96 36 0
194 -138 94 0
36 147 -117 0
-124 -182 59 0
54 47 183 0
114 -82 -181 0
176 131 124 0
143 -64 114 0
-157 37 -72 0
58 -21 -26 0
-60 -97 -113 0
-81 -191 -16 0
159 113 -5 0
-174 195 187 0
85 136 77 0
-3 114 160 0
-62 96 -137 0
186 153 -23 0
124 -85 -156 0
-176 161 48 0
63 183 -192 0
29 -103 -101 0
-42 116 34 0
148 158 -188 0
99 -166 -89 0
-102 -183 61 0
-176 -181 177 0
-73 186 -80 0
-49 30 -26 0
121 88 110 0
31 -135 -32 0
40 -195 -25 0
-70 -8 48 0
-153 25 186 0
47 -21 132 0
61 184 92 0
-200 114 66 0
198 113 184 0
-34 -55 200 0
-94 -20 111 0
-91 176 -154 0
169 -47 188 0
-195 -8 178 0
154 -116 128 0
147 135 -189 0
-70 -175 87 0
89 -174 51 0
46 175 -112 0
45 126 105 0
128 173 -151 0
185 112 -93 0
-1 59 88 0
99 130 59 0
-116 -8 100 0
-167 -41 55 0
-66 63 -177 0
145 -88 -56 0
-135 -40 136 0
-200 41 21 0
-43 -57 -160 0
112 -98 72 0
-142 110 172 0
-84 112 -56 0
119 -152 -129 0
182 -143 -54 0
-74 -64 -134 0
148 -87 -114 0
-134 169 172 0
39 -123 92 0
51 -112 -156 0
-131 84 101 0
114 -158 59 0
-23 8 166 0
106 -113 -11 0
26 -66 169 0
-176 -56 72 0
135 15 57 0
59 119 183 0
-188 -102 67 0
44 28 -62 0
-21 98 62 0
127 -75 -26 0
41 9 69 0
186 -18 17 0
128 -73 -147 0
-130 -185 89 0
-69 112 189 0
3 162 128 0
68 17 192 0
-50 -19 52 0
-177 128 -77 0
-82 191 -182 0
-33 86 -100 0
96 -122 147 0
25 97 166 0
174 -145 124 0
103 -77 31 0
-95 73 61 0
-5 -81 -132 0
-32 20 29 0
15 139 47 0
127 19 -123 0
170 91 -175 0
-45 21 40 0
199 159 76 0
-21 -73 121 0
9 -17 -115 0
-140 -19 147 0
-61 138 -195 0
1 -135 -153 0
-96 146 -79 0
-71 25 -126 0
-12 123 -45 0
48 167 -27 0
49 29 -50 0
187 -156 117 0
-98 -50 139 0
12 69 -121 0
-54 -144 145 0
-160 -23 124 0
32 149 -90 0
23 139 -200 0
-87 -160 55 0
-33 -167 -41 0
-27 9 13 0
119 -76 56 0
-7 154 157 0
29 58 35 0
198 35 192 0
176 32 149 0
-109 -64 -68 0
-171 -23 -6 0
169 -6 82 0
-133 160 -12 0
-110 122 158 0
-184 -111 -174 0
157 23 -98 0
-7 114 -119 0
-74 21 -126 0
196 30 136 0
-185 -10 148 0
-150 -177 173 0
-121 -182 169 0
-136 -132 94 0
132 -81 -22 0
167 109 3 0
97 -21 120 0
196 109 28 0
-197 -82 -154 0
-85 -6 194 0
190 25 173 0
164 105 -10 0
-62 -61 151 0
-76 -121 181 0
135 -167 25 0
-126 25 -196 0
-134 -165 -200 0
-181 125 -39 0
164 -30 157 0
-119 71 36 0
160 134 -139 0
117 -49 107 0
-133 -122 106 0
-7 -80 61 0
-120 16 23 0
-143 138 140 0
179 -55 -35 0
41 -29 -9 0
14 -154 113 0
13 -30 -63 0
-10 -83 79 0
-14 120 -193 0
-61 195 -66 0
-183 186 -32 0
-11 -189 -96 0
31 -106 86 0
-95 80 -17 0
83 -173 91 0
-89 -146 -145 0
-119 -87 175 0
-139 -166 168 0
-184 142 116 0
-71 52 180 0
111 166 -197 0
46 82 148 0
-147 38 182 0
17 118 57 0
60 103 -149 0
120 -50 58 0
43 -163 147 0
52 169 117 0
73 181 -18 0
-155 128 143 0
-42 -61 -184 0
-97 -197 58 0
178 7 -152 0
-158 -152 -110 0
160 -121 -21 0
143 47 8 0
-147 -107 40 0
188 -31 110 0
-63 32 110 0
-174 -100 -145 0
67 145 -123 0
-167 122 -44 0
108 186 60 0
-52 -144 -91 0
169 157 74 0
-192 -129 -157 0
-58 98 -126 0
144 -118 125 0
137 -71 2 0
77 -154 -129 0
-147 17 191 0
-39 -15 183 0
-197 -142 -146 0
-19 100 -110 0
148 -118 109 0
94 196 -27 0
-121 115 122 0
4 -47 -139 0
95 -96 -130 0
-128 42 62 0
63 -73 65 0
-125 -76 93 0
-65 -189 -35 0
-192 -37 -176 0
-69 -2 -169 0
-66 -186 -82 0
29 -80 52 0
-81 -135 83 0
-179 137 -23 0
-126 -89 -93 0
67 -64 93 0
-125 -11 120 0
-151 -30 41 0
-60 57 157 0
47 198 -1 0
-74 57 -153 0
34 170 6 0
101 126 74 0
139 170 4 0
-146 105 64 0
-76 1 84 0
171 83 -39 0
-180 -103 67 0
93 -133 190 0
-85 116 109 0
167 -129 -21 0
86 183 -3 0
9 -170 -171 0
174 107 42 0
-53 9 -80 0
-72 37 -67 0
73 189 40 0
-167 -168 -128 0
88 13 -30 0
-196 145 -122 0
-163 63 10 0
-119 -53 -173 0
-162 -180 112 0
148 -131 -107 0
-128 -14 -12 0
108 152 -167 0
144 -45 -113 0
12 147 161 0
-48 116 -157 0
-24 -104 56 0
78 -172 -132 0
-74 -184 135 0
-132 -184 188 0
-25 163 105 0
26 -33 -196 0
-125 -161 34 0
157 22 28 0
-79 -147 -6 0
91 61 193 0
88 6 71 0
186 -116 90 0
192 -60 -107 0
124 182 32 0
134 -24 138 0
129 54 -87 0
-91 86 -166 0
168 -45 -189 0
-88 93 157 0
110 -79 63 0
-79 -127 -24 0
84 183 118 0
189 -113 -139 0
-200 -98 92 0
-41 -144 36 0
-8 157 158 0
56 -94 95 0
-172 -182 66 0
195 164 104 0
145 -152 -82 0
180 126 -41 0
-20 175 -62 0
159 -163 92 0
180 114 172 0
173 89 70 0
-20 122 39 0
-43 -141 194 0
175 -157 140 0
185 -80 181 0
72 121 26 0
9 -188 160 0
-115 -182 96 0
158 -168 149 0
-3 -4 -70 0
139 114 2 0
-55 111 -40 0
-87 190 -168 0
-109 -173 -122 0
110 116 -135 0
-122 -123 18 0
182 -195 170 0
-59 159 -19 0
-17 48 -104 0
-52 -120 84 0
-26 -38 141 0
148 -18 -177 0
179 -31 -111 0
140 -8 47 0
173 -68 -200 0
-166 -12 119 0
-158 155 189 0
123 -102 -11 0
114 -2 -60 0
130 191 -153 0
-93 -21 28 0
-11 -56 78 0
34 46 -69 0
182 111 168 0
-141 -172 147 0
-94 44 -183 0
100 -22 -13 0
61 -2 -33 0
39 -55 57 0
-88 84 27 0
-19 190 -54 0
-119 74 -197 0
-198 -115 23 0
-72 -125 -66 0
33 -110 132 0
-112 12 -16 0
-21 111 -7 0
171 164 70 0
-66 -108 -122 0
-70 -11 191 0
166 -170 101 0
-180 18 149 0
133 37 -138 0
27 184 86 0
186 33 -42 0
22 194 53 0
108 -153 33 0
-157 -197 90 0
-88 -154 122 0
-188 -19 -76 0
-100 116 114 0
165 85 116 0
54 121 -191 0
134 -20 -75 0
155 62 64 0
-64 5 -126 0
12 -157 -69 0
50 34 115 0
4 -113 -73 0
12 -194 -167 0
-123 58 -164 0
49 154 -19 0
-1 -189 -56 0
93 -136 -106 0
-59 105 -174 0
-36 99 -143 0
-16 -160 31 0
163 155 67 0
198 105 94 0
-137 194 -39 0
-50 -45 102 0
111 185 -28 0
176 56 96 0
107 -136 -152 0
-65 8 -7 0
87 104 -118 0
-171 -94 -9 0
-28 183 -20 0
-143 170 -182 0
73 -32 -43 0
-179 -103 -97 0
-26 -128 182 0
-51 -12 -48 0
-71 -40 23 0
-125 -44 -146 0
-148 -108 -49 0
-189 63 -72 0
-106 148 -35 0
130 -181 46 0
-140 134 197 0
194 169 179 0
103 161 45 0
192 -67 82 0
-85 57 36 0
20 118 -173 0
150 -122 72 0
-198 -146 75 0
-178 19 -17 0
-139 147 42 0
-129 38 81 0
9 23 -51 0
-22 5 121 0
-51 -50 36 0
71 -25 167 0
128 67 30 0
195 69 -134 0
-175 129 -45 0
-89 -2 149 0
88 -6 -182 0
-92 48 -170 0
-128 -80 -71 0
