p cnf 1000 3000
474 886 939 0
-273 800 695 0
-435 959 -897 0
626 -350 424 0
-762 -884 -148 0
-191 630 458 0
803 -347 522 0
651 -657 378 0
-596 -998 16 0
261 -364 678 0
-585 -492 -525 0
845 -574 -466 0
888 -762 98 0
520 -150 -312 0
-557 688 621 0
-851 -96 882 0
-728 -793 343 0
703 -528 -787 0
-381 57 242 0
166 125 -8 0
296 527 -848 0
-436 509 -568 0
842 68 607 0
-199 690 509 0
-503 461 -43 0
574 -303 -772 0
-98 -602 23 0
-735 -802 -32 0
-63 981 -385 0
250 -387 -751 0
-506 -433 247 0
-746 -404 -197 0
26 -619 -531 0
-328 499 741 0
49 806 -225 0
-998 580 716 0
431 -480 -456 0
961 374 -303 0
-475 -39 530 0
-483 669 -540 0
-761 960 62 0
700 300 -838 0
368 732 -957 0
8 -538 894 0
-256 -882 -890 0
255 163 490 0
-119 6 -118 0
-516 483 -464 0
97 -954 -491 0
-382 -270 46 0
-527 -517 -455 0
419 -591 -181 0
-671 -627 289 0
147 -109 366 0
-975 -611 858 0
684 575 -160 0
-889 -246 -148 0
-161 435 924 0
806 -238 413 0
-354 -903 929 0
-460 984 56 0
620 561 376 0
-529 -109 -841 0
-531 -677 -153 0
-277 -828 775 0
-586 -936 -59 0
-830 549 -372 0
-229 430 727 0
-660 -706 951 0
536 329 661 0
-148 300 945 0
-870 733 -700 0
-946 -30 757 0
415 97 -902 0
-493 301 197 0
355 -640 360 0
-293 847 -396 0
-432 -85 366 0
-316 -407 -948 0
353 884 -452 0
951 224 78 0
-134 32 -538 0
604 357 -115 0
-25 586 161 0
783 187 -954 0
860 517 -583 0
-139 176 517 0
-679 -617 -958 0
-698 509 89 0
941 397 567 0
681 -982 -474 0
665 -57 -366 0
-75 526 547 0
-52 370 596 0
567 275 -980 0
66 -982 579 0
-762 -861 -25 0
-721 -612 254 0
747 -824 -530 0
-341 379 -857 0
-867 152 498 0
904 304 473 0
-590 -849 -44 0
596 -58 -933 0
-295 814 -571 0
250 -90 -959 0
877 -443 3 0
951 819 968 0
-440 -684 -972 0
-317 293 266 0
-284 -750 811 0
217 573 -838 0
-682 -322 622 0
-933 870 -108 0
329 807 250 0
-668 -923 -689 0
824 169 -117 0
588 821 -357 0
510 -381 674 0
-286 -644 158 0
773 512 -963 0
533 -859 -823 0
232 385 578 0
930 -284 -634 0
-399 -577 662 0
-149 583 -960 0
706 -68 727 0
-507 -113 -222 0
790 310 -89 0
-698 -492 -95 0
-301 41 -133 0
-596 -149 -642 0
-618 811 426 0
-752 -629 -465 0
-573 -145 -442 0
-655 -306 948 0
-103 -478 549 0
871 855 -217 0
-407 -187 709 0
-877 -952 293 0
219 -936 -409 0
453 -872 -960 0
-350 -535 173 0
600 404 -506 0
341 581 182 0
30 -610 -969 0
-243 700 -835 0
-506 -673 -858 0
782 28 -441 0
-563 529 -711 0
429 979 -394 0
397 12 274 0
921 458 -818 0
901 -398 -420 0
-246 -870 195 0
-921 19 930 0
-231 -883 -628 0
284 -672 977 0
-689 754 -477 0
571 879 640 0
-146 -241 -131 0
-278 -100 -486 0
443 -697 -349 0
303 -766 -124 0
-20 139 -433 0
301 -221 -724 0
-100 821 442 0
295 -498 -936 0
-172 425 -433 0
-251 -369 858 0
225 257 -105 0
-310 385 717 0
850 596 183 0
-32 491 658 0
-90 -151 -872 0
-798 -117 408 0
708 193 -101 0
509 -103 -67 0
-240 -609 -127 0
-967 -59 100 0
672 -873 -274 0
-289 59 -383 0
-643 -994 -477 0
-100 -858 477 0
610 357 155 0
432 242 747 0
838 -403 -957 0
739 253 -589 0
-315 808 -653 0
494 195 -800 0
-440 -55 -402 0
-964 -705 919 0
862 -304 -34 0
561 -773 -472 0
-271 765 431 0
-186 -845 718 0
-769 -504 -72 0
-470 -763 12 0
-879 -998 528 0
11 -313 -881 0
-138 473 435 0
-52 -878 -920 0
-429 -942 356 0
462 780 -799 0
532 -766 556 0
889 722 -815 0
338 -92 -38 0
84 78 422 0
-157 384 -372 0
924 265 818 0
247 -269 -586 0
491 253 -969 0
-963 -961 -132 0
819 -822 -985 0
934 423 292 0
354 -56 -453 0
-525 -41 -666 0
312 253 666 0
609 -556 -274 0
-697 198 -795 0
511 484 -186 0
-788 -107 -84 0
-416 -998 -843 0
-748 -225 452 0
536 159 972 0
421 -272 -158 0
935 934 640 0
-409 321 51 0
-587 -761 318 0
-528 -454 -230 0
-213 -747 255 0
-983 -754 -968 0
-430 432 -282 0
187 -226 285 0
807 405 110 0
-386 969 905 0
648 -43 -401 0
-652 305 937 0
139 -236 370 0
-216 -348 337 0
841 155 376 0
697 677 767 0
825 -444 -716 0
501 274 296 0
-993 570 163 0
561 113 350 0
-217 981 -513 0
-130 -810 766 0
-40 -506 -480 0
792 59 716 0
82 751 504 0
-804 -387 396 0
112 -307 552 0
586 -364 -842 0
578 -182 -33 0
-949 200 267 0
841 -808 568 0
-802 -228 941 0
-214 280 -439 0
-197 225 294 0
392 -617 -771 0
713 -818 -665 0
-20 921 355 0
-45 -75 -511 0
213 944 540 0
175 882 757 0
-379 712 -692 0
-944 717 -405 0
835 -642 -844 0
711 152 -219 0
480 935 -358 0
-71 -90 634 0
-339 883 46 0
-307 -343 365 0
187 -381 793 0
557 -279 864 0
607 -895 -911 0
449 523 210 0
-757 352 -81 0
-313 418 96 0
110 174 -406 0
-165 -331 917 0
696 674 883 0
-713 -156 532 0
818 464 -38 0
-500 235 793 0
961 -384 823 0
222 730 344 0
60 943 -893 0
855 891 -57 0
-490 -763 -51 0
856 590 262 0
-66 -104 -665 0
645 107 62 0
-939 -466 -740 0
52 -940 468 0
-966 628 -53 0
-487 -471 835 0
316 277 965 0
-527 -42 -100 0
387 -921 845 0
277 -673 491 0
-552 -413 -302 0
-516 64 834 0
97 250 -276 0
499 -680 656 0
697 -706 114 0
-174 -959 803 0
569 479 3 0
-718 236 -374 0
-852 506 993 0
-151 -844 -651 0
462 -635 -638 0
285 276 -208 0
-412 612 909 0
960 -321 -963 0
-333 639 594 0
379 -688 -418 0
-535 -994 -283 0
-284 -547 -6 0
-88 371 -791 0
71 -819 -893 0
224 562 -883 0
733 -23 -376 0
653 -358 95 0
-386 -355 -335 0
524 -134 -163 0
296 967 -893 0
762 576 895 0
-777 -582 458 0
-900 454 -541 0
-4 -708 -802 0
-90 488 -171 0
-749 820 949 0
-303 17 -271 0
-39 -245 -999 0
-274 -40 163 0
742 960 -630 0
-282 -812 93 0
869 -158 -203 0
-987 -213 -784 0
936 -578 -778 0
-834 474 446 0
-170 909 56 0
527 -603 -211 0
-104 -235 839 0
-101 736 -623 0
923 -280 524 0
-232 672 -972 0
-391 -828 -319 0
-847 358 -425 0
397 150 542 0
297 -515 -503 0
906 207 -623 0
342 585 622 0
-766 -900 401 0
-540 753 -28 0
-862 -234 -713 0
464 121 -363 0
-102 273 -967 0
277 -700 -400 0
-395 237 -805 0
671 -282 432 0
-395 356 -128 0
646 -727 593 0
-490 925 604 0
738 21 636 0
-511 167 726 0
310 -758 880 0
123 -51 -211 0
642 419 -373 0
-810 21 844 0
211 -254 503 0
801 -1000 584 0
-165 -235 812 0
-216 -485 -105 0
542 719 -977 0
865 80 249 0
670 -24 -950 0
-743 827 528 0
136 904 -482 0
233 485 -346 0
454 -16 765 0
267 335 -884 0
807 -42 -153 0
358 886 -587 0
-389 -416 -730 0
-680 -850 972 0
-819 67 189 0
157 -444 -104 0
-550 -505 113 0
239 -677 -251 0
-151 397 -284 0
65 -583 -656 0
958 846 460 0
-276 919 633 0
-487 -952 -353 0
-662 834 624 0
-498 -101 -490 0
-21 -537 -961 0
-348 855 178 0
549 -314 -300 0
206 -680 -256 0
-656 -529 734 0
-949 975 72 0
-860 -197 457 0
-420 -69 138 0
360 -521 893 0
-831 671 869 0
620 -638 597 0
84 -955 -833 0
-142 650 684 0
160 406 231 0
498 -758 -845 0
438 -575 -17 0
432 -728 -303 0
-562 -543 868 0
-920 510 -18 0
425 631 22 0
95 601 -397 0
140 268 -431 0
237 943 629 0
442 -122 -200 0
-210 -893 66 0
-617 741 -102 0
107 -955 976 0
478 18 400 0
300 -775 -126 0
598 -147 400 0
746 806 -212 0
404 724 -707 0
-60 761 -374 0
118 -604 -888 0
733 -527 -110 0
-586 569 59 0
280 743 -959 0
-164 -227 678 0
-519 -487 -84 0
767 -878 -124 0
-434 996 401 0
-359 -732 445 0
-242 -980 -432 0
14 230 -971 0
-825 -689 614 0
-993 377 700 0
439 -744 958 0
-912 -886 540 0
204 469 -514 0
-694 -229 286 0
-680 -380 647 0
303 22 -984 0
837 937 -374 0
-953 -327 654 0
-607 549 -615 0
873 -490 -346 0
-387 -503 -924 0
400 -393 106 0
-295 905 -387 0
528 51 -740 0
423 -959 31 0
-314 -956 413 0
-908 359 -890 0
680 -606 -300 0
900 185 -755 0
-722 163 976 0
181 -589 -999 0
-395 -95 -821 0
-717 -159 -553 0
-89 -276 893 0
195 414 -152 0
-697 575 195 0
381 835 -955 0
-437 -813 -466 0
667 -636 192 0
254 780 412 0
709 223 -262 0
-540 -472 236 0
-80 -847 761 0
-674 -572 -340 0
-336 -43 -812 0
-965 618 -865 0
-257 348 -757 0
-127 -422 762 0
712 -625 -254 0
8 436 -340 0
-871 825 983 0
647 101 -140 0
-413 -388 -627 0
-590 -256 -237 0
-28 -66 460 0
587 -987 -637 0
-36 305 735 0
-178 306 -334 0
553 -906 -806 0
483 -738 164 0
-335 -555 833 0
-20 -226 -266 0
532 933 427 0
171 640 335 0
748 -540 -413 0
273 598 921 0
959 -220 706 0
-729 751 807 0
448 -989 950 0
137 938 725 0
-627 530 72 0
855 -670 776 0
759 -959 -68 0
506 437 -109 0
184 120 671 0
-661 328 125 0
498 -939 -880 0
156 212 470 0
-148 501 880 0
16 -829 605 0
-953 817 -44 0
86 154 -191 0
621 -281 -950 0
-347 -676 -731 0
862 789 256 0
-485 619 1000 0
-719 947 -560 0
-500 -638 82 0
704 198 -673 0
11 977 -611 0
-424 -512 171 0
-795 -331 303 0
-780 50 -309 0
108 381 -188 0
229 -70 -986 0
-909 -708 882 0
-956 -962 422 0
-394 -643 -57 0
994 419 -661 0
-989 -680 -366 0
-181 757 301 0
761 616 835 0
-759 -207 847 0
-833 -226 770 0
-947 -770 -814 0
931 23 -980 0
722 -541 -219 0
252 -623 216 0
407 216 760 0
-995 885 97 0
746 -308 -75 0
613 1 512 0
716 749 -963 0
166 -137 -602 0
-598 617 22 0
249 -311 -233 0
-539 806 -671 0
-887 732 456 0
990 -602 -590 0
-299 -312 -32 0
-804 -499 -252 0
274 -263 -700 0
488 993 307 0
-372 -362 -355 0
234 -281 -754 0
-569 -123 -702 0
825 501 -850 0
-489 305 819 0
-686 -616 389 0
-104 133 690 0
-475 -493 89 0
-810 -860 399 0
245 -181 -29 0
649 -955 -920 0
-844 -415 -748 0
80 -410 547 0
835 188 -278 0
-1 -189 -297 0
-493 816 -723 0
727 191 -562 0
110 716 836 0
-593 -584 48 0
-955 344 -939 0
919 -136 -424 0
-204 -706 836 0
587 414 300 0
455 -967 959 0
-184 -121 335 0
-172 283 -207 0
610 830 46 0
87 -498 840 0
-647 565 -651 0
-480 -682 824 0
241 562 -897 0
-957 541 -981 0
211 -814 -308 0
337 -9 805 0
673 -21 -521 0
411 906 -60 0
-755 -79 114 0
59 8 75 0
758 595 283 0
-625 698 903 0
-727 -825 -714 0
-144 -13 5 0
516 -128 922 0
375 825 -851 0
78 -448 854 0
807 95 -496 0
-287 -653 -982 0
-105 -959 -18 0
-699 -679 -800 0
-77 -541 -299 0
910 409 -147 0
-381 339 -234 0
775 150 -602 0
-169 -166 104 0
-527 820 309 0
-393 85 -471 0
-352 -816 704 0
835 -151 -793 0
607 924 -411 0
-243 952 742 0
77 -894 534 0
626 602 100 0
513 137 -475 0
307 -689 694 0
-568 863 465 0
910 -684 -316 0
-422 465 -333 0
915 -442 157 0
543 668 493 0
426 947 -310 0
773 641 -768 0
91 -250 -885 0
339 828 -908 0
-304 -144 978 0
-50 -793 -609 0
-881 -740 633 0
528 336 -877 0
-824 -564 371 0
-323 -302 -290 0
303 -101 -2 0
565 270 -304 0
931 -486 993 0
212 637 983 0
859 72 -557 0
-4 -315 -930 0
7 173 -862 0
-964 825 209 0
-510 -285 -475 0
-536 74 -688 0
420 913 12 0
-10 -815 785 0
-748 -247 -202 0
70 989 294 0
990 -488 657 0
-961 775 -236 0
546 308 336 0
603 -335 765 0
-473 201 174 0
-368 513 240 0
-927 377 -885 0
-923 810 -486 0
-516 -670 -599 0
909 242 -959 0
541 142 -52 0
-822 -929 886 0
-921 634 528 0
-472 336 400 0
586 -70 -521 0
886 -897 470 0
678 -713 579 0
355 -4 -344 0
-195 685 875 0
-386 216 8 0
-428 -396 265 0
-861 -421 798 0
-699 -150 71 0
647 334 683 0
512 306 -100 0
745 725 -385 0
244 -823 226 0
116 778 897 0
784 -313 364 0
-832 215 -104 0
735 -704 999 0
869 -820 -353 0
556 97 430 0
-151 806 416 0
-824 -511 987 0
783 -785 6 0
-495 478 -575 0
-538 -600 606 0
795 -430 269 0
-578 -610 556 0
344 995 -607 0
443 682 121 0
768 -782 332 0
-847 844 -486 0
560 -667 -79 0
762 -168 -382 0
-96 201 -999 0
-247 628 881 0
588 -554 825 0
-476 82 -565 0
449 925 605 0
524 -617 -197 0
740 -762 -825 0
-745 215 809 0
-752 862 914 0
231 -159 5 0
-97 -337 261 0
-540 504 -413 0
551 -959 -636 0
-945 505 -837 0
136 418 307 0
-943 584 -926 0
297 627 -571 0
-484 -49 -682 0
135 -459 -891 0
-398 -987 547 0
142 787 571 0
893 -506 -590 0
344 -347 -481 0
-484 -505 323 0
-140 370 -860 0
-666 -199 -760 0
-801 -255 702 0
-879 766 614 0
442 847 -9 0
17 -787 -551 0
394 -351 287 0
261 -85 144 0
915 -476 361 0
-588 -225 -714 0
853 -347 716 0
-889 286 -474 0
-300 -123 13 0
-275 216 248 0
-160 -409 -246 0
195 -787 675 0
-623 830 -37 0
-708 -653 -521 0
503 546 98 0
-588 226 -237 0
954 408 343 0
593 -81 -699 0
-386 209 -385 0
491 152 560 0
-990 -345 710 0
-163 743 20 0
786 962 806 0
365 168 -869 0
-266 -958 63 0
793 -150 869 0
94 -217 809 0
527 -532 260 0
-810 458 637 0
113 945 840 0
771 58 -952 0
-118 -580 513 0
-445 -528 -372 0
-973 248 669 0
234 246 909 0
833 114 603 0
-692 -830 -572 0
-782 598 -424 0
-906 569 -467 0
112 -736 784 0
186 -192 -701 0
381 627 770 0
-832 529 72 0
-896 -428 -494 0
122 -68 482 0
-874 -563 -76 0
138 744 -261 0
782 -710 84 0
-778 176 3 0
-640 276 936 0
601 227 275 0
647 -6 978 0
483 969 -422 0
178 267 864 0
-995 -733 -880 0
960 -156 952 0
508 -101 -715 0
511 -342 -218 0
-961 -551 376 0
687 -184 510 0
694 -784 824 0
823 -134 252 0
245 -187 -403 0
-350 888 558 0
-943 159 -641 0
593 -540 -500 0
-847 -22 -364 0
761 -206 142 0
196 -247 -170 0
-795 -126 -103 0
747 -778 -121 0
-278 -212 917 0
241 21 -467 0
-816 895 384 0
-382 259 -571 0
509 -860 -721 0
-914 -430 553 0
-403 723 -339 0
-374 -528 8 0
125 229 -635 0
-87 737 -747 0
21 -677 453 0
195 -533 -82 0
883 -260 943 0
-57 734 710 0
903 -131 520 0
-750 250 309 0
374 803 -810 0
-760 -534 772 0
-735 -458 -410 0
-463 -126 381 0
-53 -133 314 0
-936 -376 -688 0
-342 647 -220 0
-628 149 -317 0
-25 923 499 0
-344 -910 -634 0
-864 -963 -331 0
418 -416 219 0
-416 -579 18 0
-549 -402 821 0
-22 785 768 0
-310 169 -75 0
-374 717 478 0
750 -256 -92 0
-448 360 -232 0
847 104 -891 0
-493 579 85 0
737 -460 -396 0
54 -592 292 0
332 -542 -373 0
-595 -718 -910 0
788 -216 161 0
-972 516 -271 0
-103 -285 770 0
-353 -217 -173 0
-488 -899 929 0
708 388 203 0
-296 -755 -182 0
-955 36 391 0
811 -107 -304 0
642 892 863 0
-581 -469 -744 0
247 817 648 0
438 762 364 0
605 424 -877 0
-40 -27 55 0
495 -134 197 0
600 -113 -917 0
902 -840 -681 0
869 871 -278 0
475 943 -256 0
-30 63 887 0
-806 183 -515 0
-531 319 -23 0
966 794 -4 0
-475 -446 -690 0
-219 -807 -40 0
-739 146 -49 0
-219 987 -89 0
923 -694 -493 0
70 -485 -613 0
-639 739 -363 0
-703 557 789 0
-21 -265 -462 0
718 -315 16 0
-450 345 186 0
-283 852 -806 0
50 838 -108 0
232 -597 161 0
-571 -772 -13 0
989 464 -946 0
-103 -934 923 0
864 957 -692 0
-600 -609 759 0
721 756 -544 0
-361 934 -321 0
-629 -356 179 0
-64 -489 -914 0
540 -16 -362 0
35 564 670 0
327 -670 -723 0
822 406 992 0
-664 810 541 0
-216 419 503 0
700 -543 -995 0
-436 893 -739 0
-390 368 37 0
634 -338 -229 0
-764 986 540 0
-411 893 396 0
837 -331 -835 0
-996 224 802 0
789 -650 770 0
251 1000 755 0
339 -83 811 0
-309 -455 -424 0
944 -366 891 0
-733 -207 -297 0
534 -837 -238 0
-857 309 308 0
734 914 -815 0
-847 -413 850 0
-726 -7 439 0
964 987 78 0
-685 -753 163 0
640 993 734 0
-641 332 -710 0
-176 -631 -565 0
-766 -454 -65 0
588 -553 -149 0
269 -215 131 0
389 -816 -956 0
4 -643 -20 0
-99 69 -577 0
-245 149 -212 0
730 -871 -411 0
-929 325 -371 0
3 -571 -611 0
881 -799 450 0
-744 69 -150 0
-241 22 -210 0
-392 -857 617 0
805 251 308 0
-473 601 479 0
981 421 -541 0
-531 634 183 0
438 -867 647 0
51 -83 111 0
-871 384 655 0
-654 874 935 0
510 595 563 0
185 -91 -296 0
-62 448 -710 0
-691 -902 880 0
-712 937 -499 0
-799 -826 -523 0
365 113 -661 0
355 2 604 0
-325 771 278 0
381 521 959 0
-515 665 -787 0
316 618 -484 0
935 246 -898 0
901 274 264 0
417 -849 523 0
-690 -498 -156 0
476 -161 195 0
-871 -124 -193 0
306 592 323 0
-740 537 -388 0
174 -506 -678 0
-994 146 -229 0
249 679 86 0
-427 965 565 0
-157 977 138 0
863 -422 757 0
313 -287 -562 0
-385 664 326 0
959 385 -871 0
-680 271 -261 0
882 -259 735 0
319 -364 288 0
-344 -97 967 0
-162 820 508 0
996 551 288 0
18 634 356 0
389 890 829 0
676 -356 -292 0
-993 87 -16 0
619 908 -40 0
580 -589 778 0
718 250 793 0
26 -982 -683 0
177 821 -368 0
-982 916 884 0
-647 38 578 0
-630 754 -566 0
-33 -50 105 0
977 -150 645 0
-343 264 -905 0
953 614 -873 0
547 -527 -858 0
-512 750 -33 0
-120 -281 98 0
-295 849 -939 0
372 154 660 0
202 990 472 0
-9 -72 168 0
-386 -649 902 0
270 280 -189 0
380 895 -747 0
868 65 -942 0
-321 529 666 0
-290 -751 -78 0
-112 -85 -670 0
483 433 752 0
685 -737 -858 0
233 653 234 0
760 803 -427 0
829 954 850 0
-184 -668 -391 0
992 -424 -182 0
682 214 -504 0
797 -950 929 0
-848 93 982 0
-91 671 -114 0
-708 -327 -399 0
-564 831 71 0
767 560 71 0
-699 313 -260 0
253 -368 960 0
-456 635 -875 0
-1 748 858 0
220 823 656 0
-29 -757 -845 0
-650 345 666 0
472 245 -573 0
56 -916 -811 0
431 -300 682 0
402 -917 879 0
280 164 971 0
831 623 -128 0
858 807 173 0
478 -535 105 0
-672 -615 138 0
854 -803 384 0
642 739 819 0
-44 114 -874 0
-127 -288 -189 0
526 -275 -891 0
-218 -662 -147 0
798 847 -820 0
-867 -193 -763 0
243 -563 -298 0
474 -990 -649 0
-597 801 994 0
1000 -778 310 0
11 250 523 0
805 80 246 0
-249 -168 595 0
470 351 134 0
-53 674 -225 0
19 962 -303 0
658 882 -690 0
-272 859 642 0
-243 529 313 0
-569 595 773 0
559 929 623 0
-547 711 787 0
850 812 -561 0
-110 731 344 0
797 128 -1000 0
577 -623 -567 0
624 535 869 0
309 -262 574 0
542 72 -777 0
397 335 513 0
920 137 267 0
-804 766 681 0
-885 -976 -536 0
488 -345 -816 0
-353 -883 -334 0
968 865 -994 0
-996 -484 -648 0
681 831 809 0
130 -727 -647 0
-398 -155 493 0
-951 -634 795 0
-748 -670 605 0
795 333 852 0
49 442 153 0
-644 506 -504 0
-92 452 200 0
668 -616 -688 0
825 110 423 0
888 -814 387 0
-583 470 -144 0
576 870 -568 0
-233 -373 848 0
-685 -124 -991 0
2 -661 -403 0
946 -987 -558 0
-936 994 -432 0
787 404 239 0
-773 -492 501 0
516 928 -122 0
774 -557 -629 0
-217 -854 803 0
932 -381 862 0
-128 -374 111 0
441 -289 -812 0
-50 -676 172 0
589 -148 -452 0
-249 -999 708 0
-230 380 -145 0
-170 48 -943 0
-102 519 295 0
-100 -888 -318 0
-691 686 14 0
-680 96 855 0
-717 60 816 0
202 645 -383 0
309 -858 -715 0
690 -33 127 0
903 508 21 0
-661 845 140 0
950 25 -703 0
57 808 202 0
634 -750 -236 0
846 256 -379 0
488 -863 239 0
573 694 247 0
595 -493 -403 0
-76 -339 -928 0
234 -62 -903 0
-449 856 -2 0
995 -277 -929 0
258 -607 382 0
-739 -102 171 0
745 -452 257 0
19 -810 695 0
235 -624 -966 0
102 -517 -910 0
776 225 -479 0
-134 809 -404 0
662 57 -621 0
-745 273 589 0
689 544 326 0
770 -583 -479 0
806 320 -640 0
906 236 -602 0
-236 -770 191 0
230 -16 -971 0
-10 -281 -708 0
-839 -176 906 0
232 169 -280 0
918 -403 -697 0
267 -992 -648 0
-358 -668 -920 0
558 422 -251 0
-598 224 -59 0
-570 645 886 0
-541 248 243 0
709 256 163 0
440 453 551 0
-685 -548 602 0
-867 -129 -24 0
-741 976 322 0
707 -177 -172 0
272 489 412 0
136 856 541 0
392 -504 -109 0
-406 160 530 0
490 -655 -203 0
-266 -384 -830 0
-845 -557 391 0
787 438 399 0
197 -467 -199 0
-412 340 -482 0
-719 -239 -862 0
-660 708 919 0
879 559 191 0
186 664 -36 0
-127 -552 -527 0
496 -910 -55 0
820 -555 -848 0
267 391 305 0
-933 347 -3 0
-474 399 682 0
-792 959 79 0
-301 539 430 0
-24 377 648 0
-823 550 889 0
719 406 247 0
-562 196 -136 0
877 155 -881 0
111 -113 193 0
723 -96 290 0
835 804 -365 0
-529 667 856 0
-225 -154 -55 0
880 155 73 0
422 -803 -732 0
-71 -874 411 0
-482 805 -859 0
740 -767 835 0
838 -458 -961 0
-414 874 -672 0
719 -362 -636 0
-867 786 719 0
270 -352 -537 0
15 995 -108 0
622 -543 -354 0
-301 754 63 0
138 -422 368 0
808 -545 541 0
139 19 -409 0
-537 586 870 0
906 -632 29 0
-761 -557 -392 0
574 -588 889 0
-707 -396 -686 0
-192 -459 924 0
580 -943 -112 0
829 -70 233 0
-490 581 -591 0
-17 -216 -144 0
29 811 544 0
-566 -381 -959 0
367 886 522 0
-227 501 -368 0
-57 886 30 0
-937 -134 721 0
-15 -469 915 0
-256 -870 92 0
-890 -855 -946 0
-417 -939 -628 0
252 949 686 0
-876 410 598 0
788 619 -231 0
-966 -993 748 0
-301 -357 379 0
-604 976 -199 0
978 197 627 0
874 421 499 0
486 -917 -27 0
-544 233 -678 0
213 -84 -311 0
466 871 -597 0
619 785 -38 0
-156 -46 -17 0
-979 817 -106 0
-71 847 -37 0
-989 739 -376 0
506 -967 632 0
839 -473 -666 0
788 826 131 0
178 667 757 0
91 628 -268 0
828 -231 198 0
836 -604 -557 0
-249 14 -586 0
-189 63 -184 0
-912 626 118 0
-493 -877 202 0
269 68 -638 0
-812 -402 -78 0
472 -249 -28 0
-102 -840 -285 0
-340 -916 369 0
476 377 173 0
984 615 -296 0
919 684 622 0
-676 508 610 0
15 -336 -416 0
-362 -97 -881 0
-261 -730 917 0
162 -570 683 0
-116 -745 -854 0
912 -43 156 0
954 -773 -558 0
-183 -47 80 0
439 -848 -944 0
306 -382 892 0
865 27 336 0
-307 785 -890 0
-611 -742 -146 0
-690 -646 -330 0
-280 177 -756 0
-630 -822 -909 0
154 513 -53 0
-822 -677 -760 0
385 927 752 0
118 980 -966 0
-254 -121 -607 0
-408 864 -481 0
-83 328 -395 0
284 -224 -161 0
320 439 -477 0
580 625 276 0
-661 161 -885 0
-839 -806 101 0
-355 -568 -27 0
-539 -339 496 0
-408 -633 853 0
869 259 525 0
495 -672 -283 0
-937 77 -349 0
554 -891 596 0
242 300 126 0
413 130 -636 0
387 288 -73 0
-946 -284 372 0
-493 295 253 0
-873 -692 892 0
947 -965 -586 0
-246 -468 -327 0
915 687 -560 0
485 78 923 0
-435 -30 448 0
-990 -466 -499 0
-606 432 -928 0
828 -445 -537 0
890 -332 -123 0
972 -810 -406 0
469 954 -557 0
-609 -915 -221 0
-342 424 642 0
389 393 -99 0
111 766 -362 0
782 916 45 0
24 -125 950 0
-451 268 -571 0
241 -690 -50 0
952 58 -36 0
-466 -651 877 0
-214 -392 593 0
436 391 178 0
818 450 477 0
-690 769 -862 0
-864 439 -865 0
454 -881 -728 0
925 -812 652 0
-805 205 -667 0
-322 53 -673 0
122 -278 -107 0
307 -30 855 0
113 -136 -196 0
-133 -411 275 0
123 350 889 0
-719 755 -247 0
143 953 86 0
-887 -99 299 0
420 55 -527 0
-537 -235 990 0
502 -72 896 0
508 -824 478 0
202 792 80 0
708 635 247 0
981 133 -862 0
247 450 50 0
596 451 -676 0
-28 463 -456 0
-258 17 390 0
-381 -10 84 0
752 -697 -728 0
971 -898 -289 0
-409 449 338 0
-368 252 838 0
287 542 221 0
912 837 622 0
-538 51 -728 0
902 -747 -908 0
-552 -376 -107 0
-763 385 212 0
-641 -201 -613 0
-701 582 898 0
-923 432 374 0
-420 540 47 0
-209 -224 129 0
-966 -250 296 0
620 809 843 0
-588 -168 818 0
48 -119 -327 0
249 266 -446 0
429 -787 -906 0
696 572 218 0
-76 -713 484 0
-107 -222 239 0
410 -467 -88 0
225 -517 276 0
-149 427 -927 0
76 -352 -179 0
-352 921 302 0
861 853 470 0
2 -443 968 0
-629 -267 147 0
774 119 -678 0
-378 998 683 0
62 -655 848 0
-570 -277 801 0
222 -256 -820 0
464 147 -323 0
-586 294 -455 0
802 540 967 0
-291 -214 -911 0
-669 -276 112 0
689 -511 -915 0
-51 300 -635 0
575 -268 -172 0
-257 241 -593 0
-403 578 553 0
-3 -974 563 0
-922 -575 365 0
-511 306 81 0
167 -844 -649 0
479 -468 887 0
-128 816 393 0
-108 -566 546 0
840 157 673 0
-931 319 -820 0
372 -556 765 0
-490 449 442 0
583 -343 112 0
183 -897 679 0
850 504 883 0
543 276 525 0
243 732 235 0
-783 -67 1000 0
90 475 -315 0
64 696 -744 0
-329 117 -964 0
-342 -240 423 0
532 969 -602 0
-77 104 89 0
900 -114 -115 0
463 -496 -940 0
-946 -38 -957 0
-721 -940 186 0
-984 487 -937 0
-529 -831 378 0
28 608 -991 0
-953 -800 714 0
579 565 -217 0
162 516 -335 0
-577 -870 937 0
581 -509 729 0
-761 261 -135 0
124 -989 -612 0
672 -916 -870 0
740 -937 72 0
-293 -891 531 0
250 -990 -841 0
-144 742 -119 0
794 845 258 0
211 344 5 0
878 -811 -47 0
665 -200 -586 0
722 264 -475 0
374 -110 636 0
283 -391 605 0
-925 833 -973 0
-866 -646 -446 0
-951 969 438 0
-208 1000 710 0
621 -169 639 0
-943 83 -712 0
-825 -132 -780 0
-890 -748 -798 0
-472 -12 616 0
-978 387 765 0
-824 357 -645 0
-516 611 765 0
100 971 317 0
-767 -639 -923 0
659 -705 -621 0
772 -428 -841 0
914 590 -407 0
672 373 -26 0
-628 -179 -768 0
-922 128 -636 0
-144 288 -579 0
-525 -335 -271 0
-353 40 -881 0
829 431 -45 0
-543 -687 891 0
-934 880 -869 0
146 441 668 0
-161 -256 -826 0
-38 554 898 0
3 402 -498 0
-38 268 412 0
749 -358 777 0
62 -97 199 0
-783 -92 -887 0
-254 -52 -781 0
821 -4 -51 0
792 45 -430 0
963 976 -366 0
234 -424 -468 0
440 -240 365 0
738 -666 224 0
-15 37 -979 0
678 63 -370 0
791 -931 -256 0
-281 -470 831 0
290 -402 298 0
-364 -16 657 0
559 -103 939 0
62 -666 -38 0
-596 262 -830 0
-648 481 -137 0
-765 -870 685 0
619 -504 -514 0
-311 -53 414 0
-166 -366 189 0
120 -503 -32 0
-418 -606 759 0
222 294 443 0
217 956 -864 0
-126 -992 223 0
865 612 922 0
601 332 213 0
-57 193 455 0
-136 414 -712 0
-899 296 125 0
589 -535 -966 0
35 876 -961 0
-873 -408 626 0
516 -707 -441 0
-388 601 105 0
-836 115 756 0
537 91 999 0
-819 320 -872 0
-818 -349 -878 0
845 529 -989 0
-351 -356 531 0
55 -723 431 0
-523 -619 828 0
396 771 -132 0
425 410 37 0
757 -638 99 0
668 -754 525 0
-568 788 -403 0
-954 56 721 0
309 -572 33 0
331 -583 -600 0
957 663 764 0
478 -891 545 0
-389 183 10 0
-849 334 -654 0
-444 895 -886 0
-281 27 20 0
-555 -955 866 0
-178 -185 181 0
616 -91 887 0
-884 959 -551 0
-103 -458 -587 0
352 821 -564 0
709 -667 -311 0
-85 -304 486 0
862 773 439 0
889 -328 -484 0
578 448 72 0
96 611 757 0
701 432 -171 0
-733 -612 966 0
-684 -572 78 0
793 408 473 0
873 -721 464 0
681 -50 536 0
183 777 -167 0
-237 -425 419 0
-679 -721 254 0
-125 250 -427 0
731 676 934 0
-45 830 469 0
92 70 527 0
486 294 -957 0
-947 -314 66 0
630 147 182 0
745 -47 -156 0
-726 -817 89 0
-183 -102 -584 0
-44 518 -598 0
653 -317 -294 0
-788 571 -334 0
175 -723 -253 0
548 807 -817 0
-530 -86 345 0
25 210 639 0
-122 -988 505 0
342 751 -554 0
-177 624 -570 0
-685 651 -141 0
-85 983 352 0
998 935 -715 0
861 -203 -822 0
-959 508 366 0
934 718 636 0
84 532 -990 0
-406 -176 -601 0
-712 -611 225 0
59 404 941 0
206 -405 -254 0
603 -217 714 0
-624 570 -702 0
-571 -366 173 0
368 -640 418 0
-236 824 -159 0
366 132 864 0
501 -79 -31 0
11 20 737 0
183 235 -913 0
-689 688 -90 0
603 57 200 0
176 -373 969 0
-796 492 74 0
-535 -213 941 0
-156 461 324 0
-763 -459 704 0
204 -97 851 0
913 275 -611 0
979 -681 197 0
-864 288 514 0
930 -150 204 0
973 -334 -377 0
160 -268 863 0
209 -97 745 0
25 525 985 0
972 142 853 0
456 638 -698 0
-496 612 -534 0
-474 218 368 0
166 626 558 0
876 209 -624 0
667 722 -550 0
511 -554 146 0
-950 612 41 0
-81 649 -520 0
-905 945 918 0
160 320 -457 0
-68 284 -950 0
872 657 -821 0
572 -405 788 0
-216 403 891 0
959 338 456 0
500 -446 509 0
691 -5 769 0
926 -458 751 0
-982 729 56 0
220 -915 218 0
284 487 266 0
812 -273 930 0
-849 962 -801 0
500 858 397 0
996 323 -855 0
-448 650 672 0
804 862 -344 0
-916 -226 -24 0
961 -89 -515 0
-288 -70 -229 0
-679 -96 876 0
587 513 -610 0
-468 -642 556 0
404 -558 192 0
480 -985 -334 0
845 767 556 0
219 927 546 0
-321 525 546 0
573 253 -813 0
374 47 -750 0
-239 -386 -481 0
523 -17 783 0
-280 -36 -755 0
-922 -664 -894 0
677 -226 74 0
503 492 910 0
580 813 -749 0
554 912 -166 0
-309 -669 321 0
-768 -893 -641 0
-440 442 659 0
237 -935 884 0
-568 -944 475 0
-444 -769 -789 0
-244 -760 -827 0
-751 -898 -60 0
511 895 -30 0
-94 123 753 0
-233 -223 -961 0
758 311 -177 0
550 224 421 0
622 278 -893 0
-584 984 819 0
607 -91 -748 0
978 686 13 0
325 544 -6 0
-521 -819 -540 0
471 864 -410 0
-169 744 52 0
-507 -557 -182 0
-755 712 -110 0
265 -530 681 0
910 -60 462 0
-454 -86 -47 0
-349 -245 -703 0
301 999 189 0
168 -871 -273 0
-813 -413 396 0
-934 -274 372 0
-82 -197 405 0
838 -720 -478 0
-728 808 38 0
944 -645 -844 0
-804 623 539 0
-972 136 110 0
-594 603 463 0
518 378 651 0
608 -118 463 0
-606 -654 894 0
-300 956 -768 0
697 -821 14 0
912 921 357 0
-183 185 15 0
-841 -500 546 0
-430 -402 -291 0
-308 -67 845 0
-432 784 -681 0
-613 -476 -966 0
157 312 -663 0
78 -35 -370 0
978 -429 865 0
558 -74 -970 0
-858 651 -666 0
-719 874 188 0
-387 -931 156 0
-166 695 -975 0
474 -989 316 0
-523 369 728 0
867 884 -521 0
58 20 -231 0
76 877 -627 0
92 -230 478 0
803 -379 -801 0
-680 -637 -642 0
653 -53 64 0
-502 -375 -278 0
574 595 319 0
709 -432 -374 0
-446 -708 569 0
744 761 769 0
449 699 515 0
-203 341 -653 0
-413 -872 -565 0
-906 -937 -496 0
-631 212 653 0
640 917 287 0
-783 -998 265 0
-284 486 228 0
282 -370 -650 0
413 327 -412 0
301 201 -42 0
-482 -919 -321 0
-608 -403 268 0
322 770 219 0
-560 -353 -537 0
-952 628 -556 0
-521 -105 936 0
-370 897 898 0
-225 863 -263 0
-703 291 396 0
550 122 891 0
-865 439 940 0
-503 -965 176 0
-428 -672 78 0
-552 -804 359 0
-905 891 364 0
-60 882 -63 0
-556 345 -223 0
665 753 -1000 0
761 -662 -569 0
-566 -998 -368 0
865 -713 -491 0
757 954 586 0
-158 132 -560 0
-442 -787 313 0
-932 231 -4 0
-301 411 -788 0
971 -616 -994 0
-578 361 892 0
-168 913 572 0
-348 106 -977 0
682 538 -362 0
647 -985 320 0
263 -119 857 0
187 209 830 0
-276 -245 -55 0
-15 258 968 0
-162 -439 281 0
-557 -137 415 0
-443 635 -533 0
-994 -850 -170 0
-734 -951 486 0
311 -150 226 0
251 -761 217 0
-267 435 687 0
915 -603 -848 0
-315 103 -496 0
29 338 138 0
-847 664 -20 0
-151 403 -484 0
735 -9 -999 0
-120 635 -96 0
114 950 839 0
-328 -162 -401 0
-264 364 -496 0
904 609 -508 0
-589 264 -20 0
-713 -265 349 0
516 -997 -500 0
-570 765 403 0
71 741 -974 0
-59 24 -753 0
-272 -10 -683 0
443 776 539 0
-273 -285 -127 0
510 -584 -173 0
640 651 608 0
-96 -621 -860 0
578 947 -443 0
-201 -149 911 0
-188 967 964 0
168 -767 -576 0
147 -663 -128 0
421 216 835 0
-924 378 -226 0
-52 795 968 0
-673 151 -162 0
-8 360 216 0
-543 -915 579 0
134 425 818 0
864 -611 733 0
-155 31 569 0
105 306 -546 0
-367 -15 -40 0
581 -141 242 0
-803 278 93 0
-575 174 642 0
-618 793 -198 0
-585 872 43 0
-70 -813 324 0
-335 20 -690 0
-974 -173 -604 0
913 -326 233 0
-315 159 -766 0
738 432 -120 0
287 -140 954 0
623 433 602 0
-809 936 232 0
-899 384 -499 0
913 -419 -491 0
-950 645 483 0
987 842 -682 0
560 -551 283 0
195 321 476 0
-817 -831 843 0
223 -975 -828 0
-390 -779 47 0
47 -327 -698 0
-232 -206 372 0
801 -166 778 0
37 -56 -877 0
-16 -365 -654 0
927 471 24 0
-71 -12 -76 0
-565 694 -351 0
-260 -926 380 0
915 -151 247 0
23 -589 -208 0
90 -771 -730 0
964 754 77 0
-369 433 11 0
-44 -455 -101 0
25 896 -880 0
-169 477 634 0
381 -768 -484 0
-118 592 401 0
575 174 182 0
935 -218 908 0
128 -605 299 0
-182 358 585 0
846 -947 617 0
-67 449 717 0
-904 -927 -834 0
812 654 417 0
666 902 -260 0
-193 -367 139 0
-210 699 758 0
-487 989 -794 0
958 -62 28 0
553 -717 873 0
138 -501 -47 0
922 338 -497 0
-210 -756 -280 0
-279 201 572 0
354 495 -556 0
78 211 969 0
-134 443 287 0
947 -500 -568 0
269 -291 85 0
-414 -626 -19 0
-579 116 -642 0
769 -494 678 0
-955 378 -434 0
827 779 889 0
-743 -80 526 0
-850 160 -328 0
-810 818 266 0
199 542 468 0
-47 -80 390 0
111 -477 -184 0
80 786 -621 0
642 -686 345 0
-742 717 -2 0
-421 -632 -982 0
529 -605 -596 0
571 -687 -333 0
784 783 906 0
-861 -606 -740 0
39 -797 -431 0
468 -135 782 0
-215 113 169 0
-74 431 158 0
-444 573 351 0
943 882 -728 0
119 -960 -146 0
761 310 -748 0
863 -830 -45 0
-990 623 795 0
23 -385 393 0
-360 -336 965 0
861 838 725 0
832 700 887 0
-796 74 -87 0
-658 -635 48 0
-630 469 -132 0
-355 -259 690 0
867 859 51 0
685 552 364 0
-836 591 -919 0
105 649 46 0
-171 317 -555 0
861 -777 -635 0
48 -291 -781 0
-522 -510 500 0
-381 815 -872 0
759 -195 -338 0
793 120 542 0
479 512 601 0
513 -690 700 0
897 696 997 0
468 972 265 0
460 -640 -987 0
-243 598 154 0
-107 610 146 0
100 -120 812 0
653 813 89 0
-369 398 188 0
-396 597 -769 0
-712 -514 617 0
715 177 -863 0
986 423 -919 0
-715 423 764 0
-37 -582 -628 0
474 500 405 0
-411 -383 370 0
871 -584 -190 0
-26 635 95 0
-434 -856 -62 0
-942 532 -228 0
-409 -914 -167 0
-366 497 -712 0
-596 227 -965 0
637 -592 -270 0
94 767 -55 0
141 866 445 0
555 327 849 0
491 -160 -707 0
945 301 -124 0
251 710 49 0
219 260 591 0
150 493 70 0
488 -188 -531 0
-431 -710 -44 0
-266 33 298 0
305 -739 18 0
-654 391 -901 0
-182 912 606 0
-485 240 484 0
-11 767 -176 0
-715 -303 -699 0
-432 -882 -353 0
228 -28 -20 0
328 -610 -222 0
325 -217 -899 0
357 -589 -813 0
362 -437 -888 0
849 -791 226 0
-391 -866 203 0
-700 -943 209 0
563 -262 489 0
-903 -164 -118 0
870 -447 56 0
372 699 -417 0
199 -175 -825 0
-665 628 -941 0
444 -755 81 0
537 -484 -852 0
982 619 -990 0
78 328 946 0
646 675 -581 0
-993 -363 128 0
201 -989 357 0
265 -394 -400 0
609 -80 -837 0
94 -501 -722 0
-513 784 -439 0
-240 438 502 0
-710 -936 -981 0
492 -180 841 0
375 984 -743 0
813 -863 864 0
371 943 21 0
661 639 -20 0
811 193 560 0
-436 603 -460 0
-188 -264 348 0
-945 442 -716 0
-370 202 -63 0
-630 657 54 0
-116 -459 845 0
-93 289 -7 0
413 -200 -833 0
922 -205 -719 0
-574 -91 360 0
-105 512 864 0
-319 -913 -494 0
985 -718 -765 0
553 -521 -128 0
244 -852 -435 0
671 -434 -915 0
550 -603 -488 0
375 -913 -196 0
-130 -830 -573 0
252 -683 210 0
-530 -87 294 0
586 -136 585 0
435 859 983 0
-58 -4 -718 0
740 -50 -521 0
-306 -558 -280 0
-813 342 -520 0
897 -624 -141 0
-222 -456 -762 0
-665 -831 312 0
965 433 136 0
-351 -112 -489 0
-569 -586 -769 0
674 -844 929 0
-317 -270 268 0
-1 773 78 0
-536 251 -739 0
-345 -774 321 0
297 897 567 0
-427 138 -97 0
355 487 -16 0
128 -247 -431 0
-877 -435 929 0
-228 530 243 0
-40 -226 -139 0
459 122 633 0
755 65 -630 0
-579 -760 -823 0
316 -506 -412 0
33 292 -476 0
435 -968 898 0
-766 -643 -644 0
-158 -478 -386 0
-184 -565 35 0
-896 398 74 0
-942 708 741 0
506 710 430 0
-110 -608 -823 0
-745 284 -318 0
-294 -335 -972 0
-146 84 -72 0
612 -135 -321 0
50 -559 842 0
154 661 -651 0
-965 -133 -470 0
-53 -478 -187 0
738 859 -248 0
646 -60 -206 0
-782 114 -605 0
-191 -244 -780 0
108 167 890 0
-302 -486 460 0
-90 -750 972 0
-531 283 -406 0
-246 833 244 0
-710 -451 -792 0
716 552 42 0
254 -96 958 0
691 325 -591 0
-288 -311 817 0
82 89 236 0
-12 13 887 0
493 891 535 0
322 946 617 0
-249 525 414 0
140 -964 771 0
-492 538 949 0
-310 111 390 0
634 -572 -892 0
986 800 -342 0
829 244 601 0
-987 -267 872 0
401 811 -558 0
258 975 469 0
629 655 795 0
-803 602 4 0
216 862 911 0
-905 -342 -716 0
-860 -180 450 0
-688 -560 362 0
410 6 27 0
816 -985 -935 0
203 410 -610 0
-600 -624 -881 0
626 4 -95 0
-108 -173 -749 0
-69 -614 -5 0
231 -692 800 0
-621 -394 565 0
-240 -272 -294 0
552 243 910 0
-930 354 765 0
-44 353 458 0
659 -637 -404 0
724 -885 -675 0
-130 -217 -551 0
388 -441 938 0
646 -960 -139 0
-507 915 129 0
-667 554 -46 0
672 613 415 0
79 879 -414 0
781 606 -96 0
-322 -818 -497 0
245 771 606 0
735 -973 187 0
869 587 -894 0
795 -775 -424 0
222 185 -993 0
376 -15 217 0
-55 313 -545 0
133 851 825 0
-811 29 866 0
487 777 -170 0
-874 859 -654 0
574 316 593 0
-329 225 -36 0
-542 -369 -225 0
-530 -97 613 0
-361 -982 884 0
-251 590 -306 0
707 -488 -136 0
678 623 948 0
503 -938 465 0
-782 878 -528 0
415 -738 -589 0
250 -48 -702 0
819 807 -596 0
340 571 751 0
-526 -770 -296 0
772 676 -368 0
-633 -510 -787 0
664 -963 341 0
-330 878 -315 0
726 574 -889 0
-753 441 -536 0
210 -639 -706 0
749 45 -323 0
393 -103 -867 0
-575 569 -265 0
519 258 67 0
-8 -490 563 0
-81 698 -70 0
-987 -684 -379 0
305 794 767 0
834 440 98 0
530 -825 184 0
555 -340 -219 0
-428 -859 679 0
791 380 -805 0
-933 -470 693 0
-875 758 653 0
464 949 438 0
-504 720 -897 0
-783 -687 -204 0
355 -865 657 0
290 -373 -762 0
-820 -958 636 0
-857 -693 -381 0
-205 -182 -445 0
301 -666 -669 0
894 255 -177 0
-24 38 -803 0
820 326 873 0
-567 201 905 0
-687 504 -736 0
180 132 -547 0
-970 570 -705 0
-886 202 633 0
60 -531 985 0
289 410 903 0
-87 -576 -788 0
888 -837 -30 0
-245 300 -144 0
405 -842 948 0
759 -770 258 0
877 650 -336 0
450 -89 -509 0
-204 7 -739 0
-52 -901 305 0
551 332 -969 0
124 586 -419 0
-95 -59 389 0
-45 570 194 0
-570 -56 367 0
539 -257 -169 0
-434 164 141 0
-638 -289 -168 0
-745 387 -39 0
-200 -505 404 0
-672 -202 464 0
-889 -986 190 0
-117 898 -948 0
-303 -712 817 0
-93 -6 -470 0
-666 -312 91 0
189 4 380 0
-654 -370 83 0
-837 187 -297 0
-798 87 376 0
375 -118 -552 0
398 129 6 0
156 165 -118 0
-428 -284 625 0
-902 -79 365 0
405 -12 -463 0
67 917 -488 0
976 -154 -815 0
-706 -770 -954 0
321 350 626 0
-437 -7 -303 0
-665 871 -643 0
673 734 -746 0
423 -969 -669 0
-975 363 567 0
31 -256 -246 0
-665 962 826 0
510 -701 -881 0
26 115 690 0
-91 298 666 0
-912 -60 -843 0
939 -58 -994 0
-918 508 559 0
181 291 911 0
-687 -775 124 0
-835 220 675 0
-183 858 -777 0
-605 196 -579 0
-292 243 577 0
561 930 -77 0
422 158 645 0
892 -931 -561 0
-707 -211 -774 0
-962 -345 319 0
-29 -113 -671 0
-615 47 -97 0
812 -326 -917 0
364 -707 960 0
345 -649 -278 0
-935 -286 738 0
797 -858 -520 0
237 134 862 0
559 -202 -862 0
-185 -734 384 0
-841 -939 -391 0
279 797 -577 0
906 -165 -808 0
-567 -5 749 0
-164 -238 -397 0
621 680 -890 0
92 -671 -682 0
-375 -946 -174 0
-320 829 -625 0
323 -165 -607 0
-431 -891 -977 0
213 -510 -884 0
66 -836 532 0
180 382 974 0
-154 754 -403 0
-468 -565 998 0
-436 952 -572 0
-193 23 955 0
-707 -142 146 0
517 -336 65 0
760 197 652 0
450 454 -432 0
-726 -534 -201 0
981 242 207 0
-403 -530 -220 0
-829 -166 -933 0
-657 141 -912 0
-565 795 -18 0
257 -722 582 0
316 626 867 0
67 -738 78 0
-560 55 -823 0
-674 79 -910 0
-744 -166 470 0
913 -936 696 0
-337 -678 924 0
145 998 -719 0
-951 -921 -720 0
604 -749 -122 0
-800 -603 -432 0
800 -650 -895 0
-27 -19 -903 0
-865 566 500 0
143 340 -758 0
571 -555 574 0
-679 -75 677 0
-39 -345 720 0
-42 -844 15 0
171 84 968 0
-506 625 705 0
152 -637 -986 0
715 912 662 0
-406 -560 -905 0
-239 44 -742 0
607 485 4 0
24 -854 -958 0
-839 633 979 0
-22 -732 -771 0
245 -347 725 0
850 398 -301 0
480 -432 50 0
-392 719 838 0
500 182 -549 0
-734 859 273 0
-698 736 180 0
-247 337 -488 0
-935 -578 -879 0
-3 6 996 0
61 -231 959 0
-760 -677 -662 0
534 315 676 0
742 499 740 0
332 201 -613 0
-342 849 -922 0
-888 -395 -535 0
-689 -684 -265 0
763 901 -23 0
-76 -871 874 0
-794 -152 650 0
-733 493 611 0
-139 -846 322 0
254 971 98 0
-900 322 830 0
139 -583 -884 0
235 -943 -400 0
-84 -424 -98 0
-71 -998 171 0
770 -601 -190 0
-773 -90 -185 0
767 636 -478 0
643 29 485 0
473 -600 536 0
-653 -143 205 0
-77 -681 857 0
516 260 725 0
-809 -246 955 0
622 -918 465 0
-443 -906 866 0
-655 334 504 0
-572 407 -76 0
-988 974 -971 0
-895 -84 -192 0
-302 444 774 0
628 -182 -727 0
483 -657 -271 0
-746 783 -272 0
-995 -744 -60 0
277 -326 -195 0
675 783 442 0
51 655 -235 0
920 -923 -86 0
509 176 665 0
-212 -620 449 0
999 -703 14 0
-332 970 462 0
782 -943 -613 0
-267 921 -831 0
658 184 212 0
321 430 -464 0
568 -486 419 0
-330 -67 227 0
727 377 992 0
-699 -510 396 0
688 130 -891 0
-526 257 658 0
-561 463 -804 0
-849 550 679 0
-89 351 735 0
629 -400 -311 0
188 358 669 0
-258 -64 835 0
785 -448 708 0
659 -486 -832 0
-159 664 699 0
-257 883 4 0
840 970 379 0
-108 -797 -702 0
-982 769 1000 0
-102 363 302 0
896 -141 748 0
-172 371 336 0
4 -349 39 0
415 849 -336 0
38 208 -482 0
-870 599 448 0
-283 -259 78 0
810 6 -918 0
670 664 112 0
-775 801 320 0
178 992 903 0
645 670 -57 0
900 -57 -475 0
734 47 89 0
-823 -114 938 0
173 29 -803 0
206 -951 -774 0
-178 -626 970 0
315 -396 -832 0
529 -580 561 0
-87 275 -649 0
-909 23 542 0
-576 950 -554 0
-692 -947 -319 0
-574 -886 -194 0
576 326 387 0
880 -641 175 0
-176 -448 -781 0
-357 -392 -202 0
447 -370 297 0
59 -138 402 0
-186 143 29 0
-139 517 -978 0
-724 -943 79 0
-615 463 -757 0
-769 -156 -116 0
-836 -897 -4 0
663 -371 -393 0
-644 -574 494 0
-495 951 812 0
680 555 -121 0
-831 -200 -91 0
-370 343 788 0
-56 170 -955 0
186 -316 77 0
-670 -621 -589 0
-809 255 261 0
-518 -588 -904 0
321 -674 620 0
609 -166 503 0
-612 -557 970 0
95 -508 -257 0
175 -929 2 0
-617 -541 -504 0
-274 -240 830 0
-722 -596 460 0
22 -702 -884 0
996 236 -566 0
921 -413 -533 0
-697 -541 -717 0
-249 323 -437 0
875 -760 849 0
-592 142 108 0
-19 -557 -747 0
530 -981 954 0
607 -831 250 0
450 -492 243 0
-289 827 -41 0
-397 -889 262 0
941 901 -198 0
-658 -589 613 0
692 528 193 0
-793 948 -911 0
808 567 -341 0
288 672 -48 0
815 630 -181 0
664 568 518 0
-454 807 8 0
654 -685 -33 0
332 -373 -731 0
891 416 225 0
47 -237 992 0
-914 553 362 0
-800 -8 -314 0
419 19 14 0
-423 493 -350 0
-635 594 -949 0
-553 688 -153 0
361 364 -472 0
-634 330 -331 0
74 252 812 0
-640 461 502 0
677 367 976 0
-17 -52 -515 0
-499 -996 290 0
-25 859 282 0
-898 -278 410 0
-85 456 -18 0
-331 855 161 0
253 663 740 0
803 -138 717 0
-903 435 726 0
-284 -830 314 0
-187 -219 637 0
756 -656 -505 0
892 -553 889 0
181 -721 83 0
42 -343 688 0
-498 -747 -518 0
-336 944 941 0
-609 580 41 0
561 558 -642 0
-982 180 -755 0
-345 313 277 0
495 484 -456 0
125 -939 -713 0
749 769 -45 0
784 173 -621 0
820 -710 671 0
88 84 -153 0
991 929 -946 0
895 705 -655 0
875 -777 -35 0
87 230 -807 0
322 -612 8 0
145 -698 282 0
-362 -93 453 0
146 559 -691 0
837 804 461 0
-548 -794 -191 0
-684 730 213 0
850 199 -276 0
825 944 -613 0
738 -239 -573 0
456 985 131 0
686 -903 456 0
851 405 -885 0
795 109 -919 0
-653 252 -386 0
518 332 101 0
-757 406 314 0
913 -724 -470 0
-942 -980 -241 0
-870 582 -166 0
128 -769 -695 0
-690 -19 329 0
-122 -156 -828 0
-264 -324 -171 0
-807 -368 83 0
-690 730 -1 0
-467 128 756 0
-912 892 -445 0
-849 569 -526 0
939 -598 571 0
-80 -752 235 0
-839 -859 -552 0
-245 -916 -804 0
294 392 -555 0
-288 875 -321 0
-537 507 -151 0
-1000 198 801 0
903 -890 -970 0
-872 -763 732 0
477 487 -723 0
-944 770 -547 0
934 340 233 0
-773 -789 735 0
195 -568 -319 0
200 -945 -849 0
971 699 -112 0
590 -18 -935 0
739 -871 722 0
123 -490 590 0
-455 -856 -686 0
657 -842 903 0
-411 -681 -212 0
738 -75 708 0
837 -859 857 0
819 148 -859 0
-61 40 188 0
82 -491 -558 0
-523 -571 171 0
-106 33 -139 0
-438 937 227 0
428 497 434 0
642 -650 145 0
-295 -459 140 0
-252 485 383 0
-448 -946 -302 0
-921 -442 -553 0
258 197 671 0
470 -488 -78 0
78 -836 -112 0
-500 -456 -116 0
981 850 -355 0
-516 706 385 0
-295 866 958 0
-166 -707 364 0
537 763 694 0
-661 -942 -93 0
793 542 -72 0
-29 -557 915 0
977 636 382 0
-921 -914 3 0
830 -430 -413 0
-265 983 -76 0
-69 -871 -906 0
551 124 -405 0
665 938 -482 0
803 -610 -124 0
-598 20 -196 0
609 145 -579 0
-85 -725 835 0
201 -242 -190 0
235 -519 944 0
-185 212 -126 0
-282 -455 315 0
465 -399 -280 0
989 528 613 0
-572 897 -804 0
645 -953 -581 0
32 -974 -811 0
748 -534 370 0
-718 70 577 0
-601 382 801 0
807 -998 -916 0
-851 590 -700 0
903 -534 964 0
-323 431 -740 0
144 -953 636 0
227 -320 754 0
361 298 -472 0
-521 330 -119 0
-428 542 349 0
-702 -679 742 0
769 13 -843 0
-980 -934 -722 0
947 -2 671 0
-321 61 672 0
-708 -851 -37 0
-12 796 -471 0
765 258 84 0
-949 711 -133 0
-85 -352 65 0
-220 704 -260 0
-325 -685 -802 0
586 695 -814 0
-823 702 203 0
972 -470 434 0
-306 -757 -399 0
-411 165 772 0
-444 -794 -352 0
-922 -406 -853 0
-369 285 466 0
818 -562 284 0
-431 591 374 0
1 -386 31 0
331 -621 299 0
-120 -703 -302 0
553 550 -102 0
193 -642 -997 0
416 539 979 0
-152 -879 409 0
474 35 -519 0
12 -422 -813 0
94 171 -922 0
224 834 -83 0
413 -547 -714 0
-863 -192 370 0
-545 -262 -469 0
942 -80 -98 0
219 873 324 0
-261 -625 -295 0
637 640 325 0
-62 182 -18 0
-247 175 195 0
41 809 210 0
150 826 502 0
599 682 754 0
210 -386 192 0
-936 754 792 0
-58 1 -345 0
285 -865 351 0
-779 279 -488 0
-721 -826 139 0
-690 -654 -864 0
-741 513 417 0
682 -486 995 0
94 382 648 0
60 -482 -205 0
601 -516 -58 0
529 45 -217 0
-739 953 758 0
-263 -670 -408 0
-245 -912 39 0
438 -671 781 0
286 -680 498 0
288 -757 419 0
-304 -822 -102 0
290 -427 695 0
194 506 -712 0
898 -329 -481 0
46 -283 21 0
102 868 -439 0
-558 -699 -424 0
-54 874 -532 0
-167 294 774 0
-912 -615 -607 0
-971 590 -473 0
57 598 -781 0
870 -341 -950 0
-710 353 -733 0
-448 -80 -676 0
-457 381 -387 0
177 -538 -479 0
-715 -931 743 0
536 320 -442 0
769 -352 776 0
-333 641 133 0
-934 273 -697 0
-316 537 -847 0
-889 74 -111 0
-489 -316 570 0
19 221 -980 0
-726 -212 -263 0
889 -732 883 0
-774 164 762 0
451 -727 694 0
237 479 -807 0
107 407 596 0
981 -743 839 0
-748 445 162 0
-652 566 -374 0
639 213 -684 0
-733 374 577 0
-810 640 20 0
425 569 100 0
-590 62 801 0
-423 -959 -318 0
526 515 881 0
282 786 654 0
551 723 191 0
-854 764 427 0
-442 -38 -770 0
669 -534 -485 0
289 294 -195 0
-653 795 880 0
-587 -613 843 0
-986 441 -871 0
83 74 -968 0
969 -101 -612 0
-347 -382 -892 0
-473 973 -203 0
722 -557 -474 0
-492 -99 -366 0
578 -747 -384 0
139 435 -266 0
-691 483 -206 0
-988 242 783 0
703 -273 -332 0
535 754 -717 0
-789 -260 -181 0
-846 172 -934 0
315 613 605 0
699 -729 502 0
-118 -298 -599 0
-298 454 -26 0
471 253 25 0
-1 -709 247 0
849 -728 -645 0
304 -160 -633 0
-637 -60 518 0
796 460 903 0
831 -251 436 0
-289 -262 913 0
276 373 189 0
-189 -209 -97 0
-498 -558 15 0
582 337 979 0
-937 825 73 0
234 475 -874 0
-856 21 -663 0
583 358 -591 0
-156 -152 36 0
-136 -984 735 0
7 -66 -517 0
244 -597 783 0
-187 -503 -839 0
953 458 927 0
-412 -711 -995 0
-515 776 -511 0
-670 193 -170 0
-212 -433 -142 0
21 -225 998 0
93 726 326 0
878 -912 484 0
26 -759 -84 0
430 -963 394 0
-126 -206 -945 0
625 -993 913 0
784 504 856 0
92 708 -774 0
-9 -449 -611 0
447 -147 392 0
440 960 219 0
-108 138 -602 0
450 952 589 0
195 -88 798 0
-109 -874 999 0
-967 -771 -321 0
410 39 450 0
843 299 619 0
-744 -350 -606 0
-927 -874 647 0
155 -114 -110 0
707 -518 148 0
786 330 572 0
-505 280 -174 0
292 -776 437 0
724 -489 551 0
600 -861 -477 0
48 796 -194 0
99 -376 560 0
110 -664 203 0
-254 820 275 0
886 -654 302 0
328 916 938 0
686 435 524 0
-635 -363 96 0
367 432 -133 0
-780 656 -812 0
222 -950 -457 0
752 426 742 0
72 -21 172 0
299 -623 324 0
840 691 -866 0
-687 614 547 0
-937 110 -936 0
609 -573 92 0
-739 275 582 0
-722 -293 9 0
924 -149 771 0
746 -682 984 0
-191 -869 471 0
530 -323 388 0
624 -997 425 0
48 779 471 0
583 -24 400 0
907 147 830 0
987 -950 -806 0
-496 -252 817 0
-584 683 -188 0
802 -338 65 0
-60 49 -790 0
197 837 636 0
566 767 -222 0
254 623 815 0
466 29 361 0
378 2 897 0
-455 910 -253 0
-880 639 -974 0
308 -571 -556 0
518 -508 -774 0
867 586 -189 0
-971 951 365 0
903 -986 361 0
-909 555 -307 0
-131 -528 914 0
-205 206 287 0
254 163 383 0
665 -396 -642 0
-468 860 -616 0
-389 -705 641 0
406 330 563 0
-56 438 590 0
-815 -581 31 0
-61 19 -363 0
643 124 -420 0
-532 546 -925 0
494 108 -920 0
786 -639 717 0
587 887 -306 0
-446 -571 448 0
457 399 -52 0
-570 758 -271 0
-746 518 584 0
-601 -604 -207 0
-504 -756 -425 0
359 456 -620 0
-629 366 -409 0
-177 -75 -545 0
360 -196 764 0
830 -121 -434 0
-698 -623 -591 0
-687 -138 493 0
724 -940 -117 0
302 907 -735 0
-571 424 -854 0
-430 395 700 0
-650 -802 80 0
620 -340 -326 0
803 -53 -984 0
-411 279 -865 0
956 58 84 0
816 818 -603 0
313 444 -809 0
92 -592 -833 0
-675 957 -321 0
600 -194 -644 0
-53 225 -675 0
-295 254 -556 0
254 742 878 0
107 -781 -501 0
154 990 -132 0
541 -140 -437 0
999 911 -587 0
972 552 925 0
217 993 924 0
-506 974 -155 0
238 -950 -776 0
82 144 34 0
-794 -121 282 0
81 59 -470 0
-665 -325 903 0
601 -374 747 0
-810 -587 -565 0
558 76 -271 0
-344 911 861 0
507 140 -559 0
771 -838 352 0
478 18 -232 0
771 -658 736 0
-1 868 -885 0
823 -822 565 0
-720 -406 -977 0
247 76 -982 0
706 404 869 0
-656 995 -82 0
177 928 310 0
513 -899 752 0
-833 573 -155 0
284 196 -586 0
-613 930 -793 0
-576 -919 425 0
580 -579 -916 0
125 928 875 0
71 -241 912 0
630 29 -988 0
481 607 938 0
601 -16 -769 0
-467 -685 -495 0
88 924 -97 0
253 -312 487 0
226 883 77 0
729 -229 541 0
-963 832 144 0
-274 485 -306 0
-125 -502 -316 0
-66 -830 -45 0
418 195 -39 0
524 -777 -322 0
645 -362 -179 0
461 172 483 0
739 688 869 0
273 -903 88 0
-254 -814 -809 0
763 528 849 0
670 179 -803 0
-2 -35 985 0
-490 -778 243 0
785 -908 -258 0
-348 474 841 0
429 -813 964 0
-221 15 -248 0
921 885 944 0
