p cnf 1000 3000
-854 534 107 0
924 -529 -876 0
-346 -181 -572 0
-34 825 607 0
-246 -646 -792 0
605 572 -481 0
93 -591 -281 0
-1 -436 860 0
137 -630 58 0
319 526 331 0
328 -859 -488 0
427 703 -662 0
-216 875 -977 0
-659 399 -179 0
379 842 12 0
863 -9 -361 0
-388 752 -286 0
-927 -975 -497 0
863 49 -9 0
-740 -350 -202 0
787 142 -34 0
211 73 -347 0
-183 268 425 0
956 579 -716 0
-151 -878 -497 0
632 382 478 0
-488 888 594 0
-38 570 606 0
-690 961 -392 0
-461 -149 107 0
399 291 792 0
-799 579 111 0
-739 201 -378 0
-600 -496 -238 0
-54 844 786 0
-461 -522 314 0
-339 -68 900 0
661 112 -322 0
-674 296 779 0
-856 -392 -122 0
763 -498 -48 0
-963 -935 -456 0
-752 -209 -729 0
276 986 691 0
644 -649 465 0
-933 -63 -924 0
-676 997 698 0
-609 -992 981 0
-827 -715 -853 0
-543 -503 635 0
936 -49 -470 0
-993 -693 -369 0
826 -626 -44 0
633 489 -480 0
-90 14 -599 0
-875 -110 157 0
-335 -786 704 0
-442 -698 -864 0
-99 -662 -985 0
-842 -734 983 0
-241 121 736 0
696 -352 420 0
849 634 716 0
-219 129 -796 0
604 682 152 0
553 -538 -555 0
-280 511 649 0
-695 375 -328 0
-603 -192 789 0
-954 -512 425 0
290 748 668 0
321 609 703 0
809 -81 -9 0
585 582 409 0
897 855 -191 0
-307 270 128 0
292 521 -238 0
273 693 -999 0
962 -57 -331 0
488 192 230 0
823 153 -555 0
-85 834 360 0
395 -880 -319 0
-76 93 -839 0
861 -942 -319 0
245 415 248 0
274 -684 258 0
-398 788 871 0
-47 -805 972 0
146 737 -556 0
995 62 286 0
796 -648 258 0
771 -747 51 0
347 170 815 0
26 649 -733 0
-550 -412 -773 0
-693 860 707 0
23 432 -800 0
-717 -349 -194 0
41 645 -288 0
-219 -399 -67 0
753 -980 670 0
-663 -696 -802 0
-464 -803 -604 0
-923 18 102 0
677 -23 -347 0
-620 784 -717 0
-557 612 -124 0
-832 895 258 0
215 399 -28 0
745 -301 269 0
462 -344 431 0
473 -696 -276 0
760 944 76 0
183 563 537 0
908 -84 760 0
82 -133 -348 0
896 -299 -492 0
175 946 613 0
-203 147 -42 0
-436 796 409 0
561 940 100 0
689 383 537 0
508 -678 -412 0
-351 414 -418 0
475 341 -335 0
-371 -116 506 0
666 -648 -781 0
-851 -437 506 0
818 -778 670 0
-717 840 219 0
466 633 244 0
918 439 764 0
892 -628 -449 0
-711 -94 -648 0
346 -946 618 0
-949 843 -882 0
654 878 999 0
-187 -767 -203 0
-728 -516 -546 0
316 632 -592 0
542 -696 -592 0
113 -643 -893 0
-103 -591 337 0
635 54 -21 0
-963 -38 -198 0
-397 591 429 0
-684 191 97 0
619 535 -862 0
-246 970 625 0
-332 -144 -375 0
-639 593 -536 0
91 323 979 0
502 -192 -355 0
130 -117 -419 0
-22 -219 -206 0
143 902 -885 0
-954 367 -305 0
-476 759 -356 0
-857 -360 22 0
266 449 376 0
-450 -716 213 0
-690 -971 -265 0
575 708 17 0
-897 -924 -288 0
-591 -17 -452 0
-957 689 -790 0
-457 900 766 0
-725 -858 -442 0
118 171 -389 0
-656 -406 -706 0
991 -389 872 0
-79 -804 237 0
-699 -244 485 0
-34 -463 -968 0
902 363 527 0
482 559 -967 0
999 544 433 0
-782 -299 -8 0
305 -178 -597 0
113 434 40 0
406 -565 -59 0
919 -661 -829 0
914 -581 656 0
203 567 -908 0
685 298 -247 0
-321 -929 459 0
291 112 347 0
133 767 750 0
682 785 -581 0
-64 189 240 0
-661 -39 -129 0
171 -843 412 0
14 794 118 0
-666 -510 -126 0
179 582 816 0
538 282 608 0
-22 -337 -302 0
83 24 944 0
-3 430 -528 0
-333 512 79 0
-8 -327 -374 0
556 14 360 0
-100 -400 398 0
-681 -130 210 0
-255 14 121 0
-47 77 -663 0
-842 -783 686 0
-648 -394 562 0
-410 -940 17 0
-998 -982 -799 0
-567 -401 -993 0
64 -74 -361 0
21 -629 30 0
-662 -900 762 0
-891 -839 -51 0
-835 579 79 0
9 396 -75 0
733 -254 496 0
777 413 208 0
462 -459 6 0
305 -750 76 0
751 803 -367 0
-663 -284 660 0
-972 767 171 0
674 -833 -255 0
-333 274 -600 0
-965 -418 657 0
-834 -886 763 0
490 575 -140 0
370 -875 442 0
-276 -545 -219 0
-67 901 545 0
881 -292 241 0
881 -608 154 0
-388 -547 -937 0
341 65 -124 0
-35 -221 95 0
-308 -644 -607 0
422 -229 812 0
-312 -213 -574 0
-668 -243 207 0
-377 -375 589 0
-25 -789 -862 0
358 820 -518 0
-704 -668 -229 0
51 306 848 0
860 -826 834 0
-57 429 -232 0
-630 -518 -968 0
74 -15 943 0
-970 963 418 0
-733 336 848 0
-261 -589 944 0
-807 -41 934 0
-407 765 808 0
952 -661 197 0
-896 534 -899 0
-444 680 417 0
193 -917 243 0
989 675 214 0
-173 -290 -128 0
-259 51 -183 0
607 -664 -481 0
920 841 549 0
-778 -976 102 0
88 154 -297 0
-43 -275 581 0
627 316 -766 0
-45 -631 507 0
309 265 -129 0
534 -770 136 0
-305 -851 -274 0
97 142 -852 0
748 124 -320 0
-898 456 590 0
-520 889 -68 0
370 -288 -969 0
-249 543 -16 0
911 192 894 0
-711 885 64 0
-779 -786 -110 0
-140 716 -969 0
-683 -137 -756 0
-513 -726 682 0
453 -656 950 0
-849 632 -644 0
212 -837 376 0
-882 -347 -359 0
983 -846 -430 0
-479 134 898 0
-467 522 575 0
813 -249 762 0
343 -539 -577 0
-326 -432 -704 0
53 -199 477 0
415 155 321 0
572 792 145 0
-408 559 -697 0
-588 202 842 0
-292 -681 -957 0
963 -150 659 0
-443 474 -879 0
558 -885 -578 0
415 40 46 0
-709 732 289 0
429 -222 -519 0
-454 313 810 0
811 2 -614 0
336 -759 494 0
634 -835 -365 0
696 -376 -617 0
185 -821 640 0
464 449 161 0
869 965 148 0
160 116 308 0
-247 727 -474 0
713 -344 -542 0
-704 -297 -175 0
-406 -371 456 0
536 104 429 0
-564 -725 280 0
67 -753 -402 0
563 730 292 0
46 -212 438 0
-591 -167 -463 0
107 -643 113 0
-530 -658 -685 0
353 364 -689 0
-896 -5 625 0
-995 -796 -268 0
-31 651 -13 0
692 37 109 0
-610 -970 509 0
-548 -171 -894 0
846 -998 301 0
262 764 -500 0
-71 -975 -26 0
826 -175 -674 0
689 449 717 0
152 -375 -998 0
690 629 373 0
617 -642 -618 0
525 257 654 0
-860 962 240 0
625 8 143 0
-669 -501 238 0
543 806 -610 0
368 601 -508 0
-901 456 -451 0
-482 -875 -995 0
-721 244 94 0
-182 -594 -328 0
976 583 -886 0
-129 570 368 0
-407 -144 -659 0
-933 496 729 0
-849 -784 -334 0
974 222 -157 0
4 -12 290 0
-735 891 -732 0
-477 613 311 0
793 812 943 0
-695 741 48 0
405 371 -577 0
-701 -3 -654 0
-853 340 -712 0
-102 73 -756 0
539 226 885 0
-594 -166 -249 0
-244 978 -328 0
-560 73 -694 0
-995 145 -512 0
521 64 -935 0
-846 -850 739 0
83 418 -215 0
603 -704 71 0
204 -903 733 0
946 548 -334 0
734 -946 -166 0
-401 -405 -969 0
-923 501 394 0
938 -618 -751 0
-30 900 561 0
536 618 -284 0
-815 -802 85 0
-203 363 -523 0
-843 639 -816 0
308 85 481 0
-587 -226 -828 0
-261 -844 917 0
417 862 24 0
-456 -9 301 0
709 112 752 0
639 438 -297 0
79 296 -523 0
-593 -976 543 0
794 957 -870 0
-62 348 390 0
14 657 -652 0
-670 -817 881 0
-838 -844 -255 0
896 -276 340 0
-267 -842 990 0
62 470 551 0
514 -931 -269 0
-797 799 654 0
-822 -912 965 0
854 -727 -63 0
959 -209 -250 0
876 894 216 0
825 -328 -932 0
66 766 783 0
-997 273 214 0
59 442 -656 0
-379 -797 -299 0
-697 -988 150 0
134 -188 -833 0
677 243 730 0
-142 172 374 0
-897 -269 -23 0
-114 37 760 0
-598 958 -554 0
-694 -728 -846 0
-203 433 835 0
-418 -638 -15 0
555 -4 901 0
-856 -87 489 0
303 -744 459 0
584 -295 968 0
503 422 342 0
97 407 457 0
877 -213 -723 0
-299 -671 145 0
-794 372 655 0
765 -681 343 0
-190 85 -288 0
590 534 969 0
142 667 191 0
-429 686 -277 0
-677 376 -823 0
445 740 -578 0
-449 -868 567 0
266 548 698 0
-276 642 -928 0
137 -785 189 0
-142 -453 -791 0
-785 -68 -871 0
-332 962 711 0
-476 -543 632 0
-995 -662 -819 0
709 -130 -483 0
933 -673 -19 0
-768 -722 649 0
-821 -103 650 0
884 459 146 0
378 839 -668 0
-792 979 664 0
-125 101 333 0
261 823 579 0
-238 -650 -757 0
-163 182 -453 0
-344 -272 -702 0
704 -179 -28 0
278 -940 144 0
299 472 887 0
813 88 649 0
723 -867 12 0
29 125 -680 0
-1 -526 -112 0
-556 -638 946 0
-881 7 -250 0
-144 753 29 0
-523 253 133 0
690 -281 141 0
-751 -459 -554 0
174 -616 169 0
-610 374 737 0
-505 755 206 0
398 -222 463 0
885 -665 663 0
781 -438 -683 0
979 -735 711 0
-432 434 968 0
-111 161 939 0
-479 275 244 0
-995 856 971 0
-352 -756 -120 0
-629 -573 747 0
391 717 -112 0
690 354 -326 0
904 -812 197 0
-587 -394 -296 0
-718 401 -491 0
813 521 -154 0
800 -633 -742 0
-351 -67 -878 0
-353 -494 309 0
25 -259 557 0
-479 -233 620 0
-837 -270 -73 0
-801 184 -900 0
897 -326 -795 0
-852 884 -570 0
-672 160 -467 0
-39 945 393 0
-189 194 -675 0
-435 272 260 0
683 -85 -949 0
800 -748 -834 0
536 778 -268 0
-295 654 -126 0
-976 864 97 0
-360 -220 -316 0
204 908 -917 0
554 -724 -92 0
983 726 -53 0
402 -838 407 0
-401 -732 757 0
-752 -304 -509 0
-974 69 -788 0
805 253 709 0
-464 453 451 0
-728 806 570 0
525 990 -175 0
-930 549 -284 0
220 -496 -662 0
838 732 -256 0
169 833 890 0
-396 112 -461 0
-14 -130 434 0
904 -58 -463 0
-355 437 465 0
150 -841 746 0
-558 197 129 0
114 -909 360 0
587 565 -514 0
11 -622 -438 0
552 616 656 0
-205 937 -441 0
-409 -926 -397 0
939 61 449 0
904 578 400 0
818 -998 614 0
424 -888 -52 0
162 -465 -956 0
-741 -362 525 0
-74 727 824 0
-195 -811 -565 0
-640 709 -244 0
-63 798 -667 0
150 -347 363 0
143 -54 -78 0
766 -352 -488 0
6 384 959 0
-436 428 -659 0
393 -259 -893 0
-528 -415 -446 0
522 123 820 0
-661 -786 -993 0
143 -259 -135 0
168 750 -454 0
630 785 507 0
917 -839 61 0
599 -991 298 0
-986 834 -7 0
-655 -659 702 0
706 3 -352 0
269 826 -879 0
697 -44 643 0
-749 443 -252 0
-880 788 -29 0
-42 513 -871 0
321 191 -236 0
945 310 501 0
-384 -90 -708 0
648 -888 403 0
615 489 -768 0
-769 949 -32 0
-533 -263 895 0
-421 922 -252 0
381 -811 448 0
-761 -149 247 0
357 -331 -93 0
129 122 -628 0
1000 -11 -222 0
-345 592 494 0
595 -389 -340 0
470 984 322 0
-606 -72 -412 0
-635 508 113 0
775 -347 818 0
-908 553 -299 0
775 163 -502 0
350 -488 623 0
483 -386 490 0
-136 778 4 0
627 -893 -602 0
-127 -122 961 0
346 -372 496 0
543 902 -341 0
106 -305 825 0
435 409 600 0
546 -349 -635 0
-844 609 -190 0
474 -400 -921 0
-4 -967 -732 0
-537 -607 -118 0
313 -621 15 0
-898 -16 665 0
-852 -723 -412 0
747 486 184 0
-793 347 -662 0
449 364 429 0
780 429 -17 0
-951 656 43 0
612 -992 287 0
789 223 753 0
-729 -174 -895 0
203 -738 -421 0
691 134 -509 0
-396 902 -24 0
253 847 625 0
-99 -210 -269 0
-612 549 -286 0
-470 -657 -806 0
484 -64 323 0
326 869 -406 0
-969 -61 697 0
-291 -943 4 0
-136 155 100 0
174 533 -406 0
524 -464 -368 0
201 -889 436 0
3 -863 964 0
-689 -464 196 0
-977 343 756 0
433 65 -843 0
-842 386 506 0
-584 732 -552 0
-541 194 548 0
623 676 655 0
-435 -724 -396 0
-318 -251 809 0
-568 536 56 0
-574 370 626 0
664 954 -798 0
17 443 -414 0
419 -548 874 0
935 -7 -146 0
-51 -233 -171 0
-688 -179 -4 0
654 111 -249 0
-385 320 571 0
-392 -252 -19 0
913 982 -762 0
-90 154 -296 0
42 -115 213 0
1000 468 550 0
-264 577 -369 0
-326 -674 256 0
-97 579 665 0
-993 934 -839 0
-486 -472 529 0
-973 -16 81 0
198 604 -389 0
-173 756 323 0
773 322 108 0
547 416 352 0
-998 -807 -477 0
990 -614 832 0
755 -58 547 0
-408 316 299 0
561 684 -538 0
614 898 591 0
-98 -399 -318 0
-387 -18 -962 0
-143 -212 91 0
-95 -655 376 0
-147 491 -127 0
882 176 -960 0
-708 72 377 0
-830 915 -157 0
-159 100 -427 0
-315 92 -413 0
-869 387 996 0
191 441 616 0
20 974 229 0
-474 -231 15 0
-441 -576 754 0
354 47 399 0
-888 -366 965 0
-916 -894 -689 0
827 -943 955 0
-951 332 -344 0
856 -148 -325 0
-72 104 307 0
887 -430 456 0
-8 786 -937 0
-581 979 -670 0
-610 309 -772 0
199 -205 711 0
410 536 440 0
-264 -308 603 0
663 837 429 0
875 -447 248 0
-395 751 32 0
479 678 -231 0
803 843 372 0
380 -732 -365 0
954 314 625 0
643 -435 113 0
-998 678 627 0
-32 -747 -33 0
580 456 -569 0
128 -186 -206 0
1 -658 635 0
-976 -745 318 0
-226 890 -763 0
-492 827 -611 0
-721 266 -135 0
840 -900 391 0
332 -457 179 0
147 -312 133 0
832 843 694 0
908 366 -655 0
880 -728 -486 0
329 -212 853 0
-32 -499 29 0
-286 183 894 0
106 888 -736 0
-983 517 -786 0
944 -932 636 0
-842 92 -140 0
-823 -321 -180 0
-365 598 -920 0
-447 -673 275 0
-885 -764 -624 0
871 -243 -987 0
-581 -726 135 0
311 511 -450 0
667 -638 -447 0
950 -497 -957 0
70 66 -284 0
-431 425 755 0
-61 343 -514 0
572 406 -513 0
-838 -585 -584 0
-415 798 -673 0
313 410 112 0
-629 -61 14 0
765 206 112 0
317 981 -717 0
-36 604 17 0
-911 -133 -553 0
-442 733 -645 0
-750 -187 727 0
-440 -715 12 0
-594 442 770 0
296 -831 51 0
-740 452 349 0
792 395 152 0
84 133 -806 0
657 -563 -223 0
301 -569 651 0
852 -283 227 0
774 -792 -845 0
-26 -442 3 0
-418 -369 851 0
557 682 131 0
-4 -215 889 0
407 -389 358 0
219 -184 -245 0
-845 202 477 0
776 -363 396 0
163 267 -646 0
623 673 -507 0
68 -246 656 0
880 -777 298 0
-197 -830 949 0
-363 349 -433 0
-288 -320 -195 0
-46 1 -294 0
-65 76 317 0
-914 407 469 0
-999 871 104 0
688 809 -372 0
293 107 241 0
-545 -57 157 0
-57 195 740 0
-569 -682 -147 0
698 819 284 0
-691 214 709 0
62 -541 182 0
-316 197 -931 0
606 -647 -611 0
-839 -841 -378 0
-64 -59 -855 0
402 -908 69 0
993 319 62 0
-895 451 16 0
103 810 240 0
808 -319 621 0
-454 850 38 0
739 540 -934 0
-993 20 -213 0
895 -45 -244 0
-29 140 774 0
848 -366 -971 0
546 -625 -4 0
641 764 995 0
-988 -465 846 0
650 584 -894 0
-171 304 855 0
556 -149 305 0
359 -213 -404 0
215 -323 838 0
-281 -795 -867 0
169 -195 -931 0
282 -876 -19 0
-210 -288 -823 0
254 817 -289 0
950 -670 -798 0
830 -610 -984 0
817 -407 -721 0
427 158 -838 0
454 -351 279 0
59 -99 391 0
850 -216 25 0
53 -947 -42 0
-7 -425 923 0
-623 -291 -615 0
-477 -567 977 0
223 -551 263 0
-758 -988 -377 0
424 -873 -25 0
-945 976 -896 0
204 -109 357 0
967 -576 -396 0
641 -310 -56 0
-218 -278 930 0
993 97 57 0
-890 694 786 0
-960 511 -917 0
-441 -173 476 0
-885 -163 -698 0
629 -695 8 0
364 829 711 0
-706 -60 162 0
939 -996 -611 0
-357 -727 553 0
-279 889 708 0
399 687 -258 0
-726 -757 368 0
990 248 119 0
-847 -983 -801 0
664 -169 968 0
-53 -872 -720 0
454 -404 384 0
170 -854 -244 0
169 652 990 0
788 -486 85 0
519 736 -30 0
792 -768 -21 0
898 -245 -904 0
171 736 -217 0
-660 -816 -597 0
-166 389 918 0
473 -788 720 0
447 -412 253 0
-502 190 -845 0
160 -704 6 0
701 -36 202 0
-115 -968 942 0
-249 327 -331 0
815 -714 -204 0
492 -456 477 0
371 964 797 0
537 287 892 0
-597 -254 -400 0
150 954 -503 0
328 347 985 0
-278 927 723 0
988 -862 -115 0
-22 -596 375 0
341 -263 -726 0
826 806 -898 0
-89 -207 -565 0
-436 698 -873 0
750 603 288 0
171 816 939 0
-817 615 410 0
614 -196 -824 0
-704 -308 -681 0
-533 660 8 0
-402 -246 -229 0
136 72 704 0
371 896 766 0
-851 651 -639 0
250 742 890 0
-682 388 914 0
954 140 -591 0
-55 816 -192 0
-577 256 792 0
-802 309 -463 0
-50 -900 472 0
-841 23 685 0
-14 -756 -807 0
-621 802 -375 0
-984 -869 -288 0
-275 -709 -137 0
506 -411 -119 0
-313 -369 95 0
676 -136 -602 0
663 758 275 0
-29 878 762 0
-339 528 877 0
-938 -835 634 0
-345 97 -159 0
693 -383 516 0
-998 -105 -178 0
833 -605 20 0
360 -414 -949 0
-690 20 -15 0
-918 -203 -517 0
205 91 210 0
296 -977 127 0
-595 -41 -446 0
-453 -837 599 0
126 -563 -32 0
-623 37 -764 0
750 391 605 0
-347 -878 -407 0
317 856 343 0
-60 216 154 0
416 575 -205 0
-913 289 191 0
-601 235 -251 0
851 155 552 0
-145 -824 -515 0
488 -82 -107 0
64 127 433 0
804 -126 -495 0
-355 859 792 0
-496 94 983 0
-679 432 857 0
754 -285 -641 0
256 406 -651 0
797 -997 -720 0
835 -959 -57 0
988 353 840 0
-850 539 -511 0
366 -67 -648 0
902 -378 -628 0
138 74 797 0
-438 -9 -772 0
-714 -973 564 0
-877 895 717 0
-530 959 525 0
-363 -123 306 0
-139 349 12 0
250 -803 -707 0
-299 346 -679 0
-220 -43 375 0
-366 -386 -302 0
-257 -905 1000 0
-945 257 706 0
277 541 873 0
867 878 -362 0
-960 247 874 0
887 415 889 0
371 -744 -197 0
-190 527 -354 0
829 773 323 0
586 -847 829 0
317 8 -255 0
379 -566 -1000 0
119 -618 620 0
43 -921 -442 0
-875 -566 897 0
-852 597 -352 0
-438 -174 905 0
18 541 408 0
228 -504 265 0
-361 596 -754 0
-288 -469 -301 0
258 230 222 0
-740 352 804 0
106 -670 121 0
485 614 507 0
-706 -77 632 0
406 -539 532 0
-882 -41 824 0
-667 697 -757 0
-44 576 572 0
811 -220 -297 0
-304 -861 -984 0
549 607 230 0
359 616 -197 0
-42 -852 738 0
453 972 -930 0
527 227 94 0
-649 -551 -915 0
-522 -484 642 0
399 224 649 0
19 226 -282 0
673 -634 -344 0
16 -661 436 0
-377 698 578 0
538 699 -296 0
785 586 -318 0
-951 825 -388 0
7 -922 139 0
825 -886 595 0
755 -450 -571 0
220 295 -520 0
44 343 -287 0
-450 -267 -618 0
-707 -20 631 0
-114 471 30 0
488 712 920 0
-748 996 97 0
-275 -344 -73 0
721 875 859 0
-944 -596 703 0
93 600 475 0
-891 349 -909 0
-395 773 598 0
-207 311 -743 0
606 -295 127 0
664 672 46 0
872 738 972 0
-5 -460 -262 0
-118 777 818 0
581 -19 198 0
-466 -334 -132 0
-15 -611 441 0
877 499 72 0
427 565 660 0
826 -214 6 0
502 -886 -331 0
-950 784 511 0
221 -888 -706 0
-769 628 140 0
-309 854 -179 0
-261 970 378 0
-464 863 -858 0
-669 554 333 0
-181 859 451 0
-820 668 -256 0
-59 -431 405 0
60 827 -791 0
-505 678 -699 0
887 723 5 0
-465 466 836 0
-561 316 -305 0
92 -280 401 0
596 40 79 0
393 961 14 0
150 247 -888 0
-406 293 -977 0
145 -325 -531 0
-579 -58 -9 0
643 -606 -749 0
-654 70 615 0
445 -440 -920 0
932 624 660 0
-326 -795 631 0
-416 653 -1 0
247 28 213 0
336 -890 -825 0
388 245 512 0
-225 982 255 0
19 655 290 0
2 -648 -356 0
93 683 131 0
-160 -65 54 0
-33 190 79 0
134 308 -596 0
-252 494 -961 0
-726 330 -13 0
-107 578 -765 0
-210 -785 789 0
-868 -336 -59 0
544 -117 87 0
764 -409 -653 0
298 -861 -143 0
-391 654 678 0
480 565 -675 0
237 869 660 0
777 -274 356 0
-212 304 -30 0
-21 -136 -890 0
-273 504 -403 0
41 -858 -357 0
100 350 820 0
-260 795 -655 0
305 -447 297 0
-10 903 492 0
-183 -787 743 0
-842 -875 520 0
-574 464 -902 0
363 284 -430 0
74 -586 -354 0
902 -38 602 0
953 557 -189 0
-209 -831 -966 0
-776 760 155 0
978 791 954 0
927 -475 -49 0
-178 807 71 0
-292 -374 269 0
452 -172 657 0
-498 -494 -514 0
538 321 -155 0
-204 -343 869 0
-219 579 357 0
-10 -258 -954 0
-833 -458 -201 0
700 105 1 0
569 357 -332 0
-428 522 116 0
442 643 762 0
-907 37 -226 0
-848 71 411 0
-171 -797 -391 0
-323 -16 -139 0
-606 -190 229 0
-101 -409 -216 0
-185 -553 396 0
-718 -2 642 0
-368 90 -105 0
716 812 -697 0
142 -787 617 0
-241 857 -570 0
403 -135 704 0
663 854 59 0
-658 -685 -6 0
-20 896 -37 0
263 -857 -764 0
275 -605 91 0
611 -931 430 0
-576 -406 -201 0
223 -136 -260 0
-542 -589 851 0
882 738 647 0
-868 -440 826 0
-942 -786 -817 0
-491 748 947 0
394 390 108 0
-796 -589 -29 0
299 -345 716 0
686 -837 -649 0
747 -64 917 0
758 8 -700 0
299 290 405 0
703 -833 811 0
647 662 121 0
130 537 -986 0
-230 -973 784 0
-435 117 601 0
-795 -699 -324 0
-831 -957 150 0
-942 171 479 0
700 369 -458 0
723 71 -287 0
556 -45 127 0
971 -978 -179 0
656 520 207 0
68 935 338 0
-699 -435 -575 0
709 -603 -786 0
-846 -243 -36 0
371 -946 -183 0
898 215 -770 0
-86 -85 -414 0
635 220 -796 0
-139 612 -891 0
-666 3 723 0
664 641 -819 0
57 837 817 0
-357 -520 398 0
254 543 843 0
865 195 166 0
-478 55 465 0
-133 -335 -597 0
883 21 616 0
-448 599 214 0
-887 -895 -277 0
540 -939 502 0
542 829 805 0
-543 82 -494 0
432 -230 189 0
-424 -981 349 0
408 910 650 0
-702 93 -240 0
506 861 78 0
-213 173 -89 0
-935 -620 -211 0
-660 -323 -464 0
-882 -85 153 0
16 -967 24 0
-168 -197 -500 0
-747 512 -70 0
-190 280 -555 0
986 -881 587 0
310 92 -552 0
766 951 969 0
-311 -376 -826 0
712 -279 449 0
254 335 -248 0
486 197 -986 0
733 -20 689 0
-361 -121 -250 0
610 -999 434 0
49 -343 -519 0
-483 -880 891 0
-803 683 770 0
-566 240 346 0
-596 665 -433 0
-174 100 -864 0
-782 360 -7 0
-962 -676 107 0
-115 -257 69 0
698 -181 -135 0
-876 462 -67 0
-288 266 678 0
754 -715 960 0
-796 220 -636 0
-195 -7 -310 0
-977 506 910 0
-248 609 -122 0
287 -1 -796 0
820 -645 786 0
969 445 148 0
-727 571 166 0
-670 936 464 0
516 -708 -308 0
-637 -623 -393 0
-108 -538 849 0
371 206 -275 0
-951 -754 226 0
138 -793 279 0
-303 787 -109 0
204 -772 -137 0
538 209 653 0
342 653 922 0
-968 728 100 0
439 -379 605 0
45 -697 811 0
883 331 -285 0
1 262 -343 0
326 -359 -856 0
308 -887 -459 0
-109 -710 152 0
295 -603 -982 0
-12 -649 -713 0
605 -255 187 0
146 -50 445 0
94 464 634 0
-709 499 295 0
912 -594 -319 0
-77 -406 455 0
-200 167 936 0
-526 -248 375 0
-46 703 876 0
-953 962 -8 0
822 -582 -192 0
-534 600 423 0
-54 126 102 0
-335 -708 -563 0
803 601 621 0
578 904 954 0
-172 -364 97 0
406 -544 863 0
-79 -278 832 0
493 -2 -451 0
-980 -526 -219 0
-16 -321 -922 0
568 -457 -10 0
918 -142 -702 0
885 511 -495 0
115 771 157 0
679 -519 -662 0
867 -234 403 0
-391 -215 -903 0
829 779 -386 0
-416 163 720 0
-379 -684 747 0
-243 -806 218 0
-773 -302 478 0
-642 530 313 0
808 -356 527 0
-180 655 126 0
486 -194 713 0
18 -825 973 0
701 202 -613 0
204 -632 -856 0
-271 387 -68 0
511 -279 -30 0
25 -760 -839 0
-638 699 -876 0
81 714 -918 0
62 -229 973 0
-283 -868 944 0
-198 -571 -175 0
-139 -74 -346 0
-350 618 -870 0
469 -470 620 0
656 49 -418 0
-966 72 -652 0
330 341 -226 0
-301 619 -330 0
-465 -623 231 0
-36 248 -926 0
-655 319 533 0
737 961 295 0
-921 -992 906 0
487 -928 -469 0
907 806 -612 0
-889 379 791 0
-388 964 -501 0
-15 -505 573 0
292 -808 251 0
-106 244 -586 0
-70 -362 959 0
545 -470 433 0
-778 609 -489 0
337 465 632 0
222 553 -795 0
-252 190 -538 0
319 971 -707 0
-884 -558 -568 0
-810 -561 -901 0
-947 -700 473 0
-225 933 -501 0
46 -766 404 0
955 -583 -842 0
263 -293 -514 0
31 -70 -414 0
28 -670 -761 0
-718 891 -460 0
236 920 -499 0
-97 219 758 0
-584 306 -229 0
865 140 904 0
-953 574 -441 0
232 200 -617 0
-733 727 272 0
-498 24 -50 0
-796 593 -433 0
-193 -816 -915 0
701 -549 111 0
341 -87 396 0
-602 981 22 0
-955 -342 -273 0
-301 -786 -153 0
-759 -779 -908 0
-427 -152 406 0
-778 -107 -239 0
460 -216 -832 0
418 -844 605 0
-948 -513 -750 0
202 174 -866 0
909 -793 -499 0
142 -980 866 0
-561 -507 403 0
87 669 -920 0
-585 76 441 0
107 55 138 0
-526 247 796 0
-440 -379 933 0
100 -981 631 0
906 758 522 0
-8 -396 46 0
-890 800 951 0
122 278 519 0
-519 -10 -184 0
638 -637 413 0
170 531 976 0
292 -975 -240 0
-144 -710 -248 0
270 190 606 0
-570 283 521 0
418 -393 568 0
239 -926 -781 0
970 353 156 0
-560 41 98 0
946 -829 -454 0
767 42 -186 0
931 -363 453 0
427 -426 -47 0
-925 -482 655 0
-741 7 -928 0
666 -11 651 0
435 -651 231 0
222 404 951 0
-628 -386 -858 0
-523 -223 -197 0
957 -314 439 0
317 -124 959 0
384 524 214 0
-677 166 84 0
-878 -880 392 0
472 -958 637 0
-557 -110 541 0
-831 410 3 0
357 220 603 0
-652 -279 373 0
-901 366 -838 0
993 -402 304 0
-12 -745 675 0
-304 -901 849 0
992 -721 -904 0
-648 34 264 0
176 249 131 0
460 398 128 0
-697 739 -542 0
872 34 -583 0
-605 -596 952 0
199 -865 -15 0
-866 127 593 0
273 -549 -308 0
-808 404 170 0
-617 -109 194 0
-539 478 -306 0
476 739 994 0
564 986 -133 0
-281 -234 482 0
558 -543 39 0
515 473 -883 0
165 -222 960 0
-430 -109 537 0
-992 271 704 0
972 662 -751 0
-907 -904 847 0
-534 544 -479 0
174 745 -463 0
-75 -737 169 0
100 -286 -159 0
228 912 671 0
-450 436 -74 0
795 -406 13 0
-679 -194 988 0
988 -236 -275 0
699 -605 237 0
-148 -644 771 0
-885 938 -459 0
-379 -249 394 0
-218 179 -787 0
-452 -410 318 0
-598 280 -721 0
282 629 614 0
-445 -609 265 0
115 -350 -978 0
-826 -283 507 0
-305 -659 949 0
-925 523 661 0
-291 -567 614 0
-584 -833 -729 0
-415 -992 -647 0
779 789 -26 0
589 -761 71 0
-669 -699 769 0
-936 -307 -374 0
496 -155 -347 0
-202 -886 -454 0
167 -499 808 0
404 -778 288 0
-876 797 -927 0
703 -532 921 0
-847 702 -375 0
148 -461 -254 0
72 798 -803 0
207 113 212 0
-755 328 -81 0
310 -394 198 0
-882 774 -600 0
-100 -763 398 0
625 272 -268 0
-945 214 641 0
894 735 235 0
-970 973 -439 0
960 62 760 0
245 363 -593 0
-118 486 -747 0
339 -727 -649 0
770 323 -651 0
-109 350 -908 0
-458 828 770 0
-682 -629 536 0
-696 819 765 0
4 361 872 0
-945 -944 254 0
189 -839 949 0
-790 -913 -577 0
-636 416 562 0
-800 469 340 0
285 -497 -304 0
367 649 203 0
199 -774 -968 0
584 -610 -991 0
921 919 -430 0
-411 505 -524 0
-966 -745 -813 0
160 -356 712 0
-901 36 -993 0
623 -508 -360 0
487 -54 -64 0
647 918 -932 0
-479 -657 346 0
-622 991 414 0
-221 -801 -377 0
-921 -234 -698 0
-892 652 356 0
684 500 -690 0
-949 -886 939 0
-36 -604 645 0
-276 -487 -643 0
820 -60 -67 0
-405 123 -350 0
469 458 293 0
692 -525 344 0
820 419 -673 0
663 -637 -832 0
866 318 917 0
982 -603 211 0
150 -436 72 0
615 -29 705 0
-19 -83 -707 0
-43 244 176 0
-226 -503 -416 0
-512 -138 408 0
896 -889 -413 0
71 414 227 0
-442 -606 -891 0
683 -447 247 0
-14 535 -767 0
-367 -283 870 0
335 546 105 0
205 -329 -600 0
-233 257 -301 0
-620 -882 289 0
-727 -46 -624 0
-40 754 -121 0
-567 -748 349 0
679 -664 -439 0
719 -655 -95 0
342 -526 -954 0
822 672 -569 0
510 -369 -586 0
-970 -655 800 0
797 -91 -106 0
49 436 -352 0
-733 737 479 0
271 -6 813 0
-378 -531 -216 0
-903 693 -579 0
-8 997 -390 0
481 -332 -293 0
-502 494 18 0
417 -211 303 0
922 119 159 0
-219 23 838 0
-933 -418 -313 0
-447 994 -546 0
-455 -917 345 0
390 931 615 0
-904 -169 1000 0
-905 158 559 0
-613 -148 -363 0
-532 -485 -633 0
-888 146 629 0
775 552 -566 0
838 -277 521 0
922 -393 -803 0
369 -331 663 0
752 788 139 0
837 58 418 0
633 -395 -378 0
-588 -486 592 0
-952 297 -397 0
304 917 -985 0
-802 769 -196 0
-288 857 -271 0
410 -911 615 0
66 -879 699 0
868 296 625 0
-430 -425 249 0
-800 -701 -781 0
959 571 -473 0
110 144 116 0
365 -113 -580 0
-932 170 -810 0
863 39 86 0
595 941 -141 0
-258 299 542 0
-619 -982 -789 0
-763 610 772 0
-438 473 -409 0
719 910 -972 0
-684 317 -890 0
859 -293 181 0
538 805 540 0
-683 652 -565 0
478 220 -862 0
-93 955 -910 0
994 290 1000 0
20 769 196 0
493 184 -183 0
-866 459 -597 0
770 223 -689 0
904 647 949 0
916 549 -398 0
403 -500 -233 0
396 -486 -769 0
-49 275 443 0
-895 569 682 0
187 632 -669 0
312 -333 -278 0
613 -3 -50 0
228 430 890 0
776 748 379 0
438 -825 150 0
698 869 913 0
922 725 43 0
618 -483 551 0
-556 -14 96 0
399 -291 -662 0
-713 -556 432 0
775 952 -994 0
486 -270 -91 0
696 -340 -326 0
702 -870 985 0
663 -565 -784 0
-693 -218 579 0
-887 482 -685 0
783 531 13 0
-1000 -915 -752 0
-276 66 -804 0
554 -243 818 0
-525 -773 -354 0
881 -911 -691 0
-374 144 -464 0
-143 545 -71 0
792 38 -979 0
-862 -462 -509 0
-665 593 471 0
734 140 -361 0
-155 362 -970 0
135 927 -652 0
-691 232 -6 0
135 -635 -738 0
614 630 37 0
-221 -606 -584 0
-180 -769 350 0
-582 -342 87 0
-610 547 -88 0
65 300 585 0
-704 -814 -343 0
173 272 860 0
-478 -133 381 0
808 768 -917 0
791 -294 346 0
-875 176 813 0
358 -709 884 0
-420 -953 -217 0
-15 448 -580 0
606 213 -601 0
-482 408 870 0
253 -620 -838 0
-500 287 345 0
358 -595 -42 0
425 -197 334 0
410 980 -536 0
-776 -135 807 0
-20 -153 -565 0
-306 -530 -926 0
889 308 52 0
-672 -48 612 0
-833 -594 73 0
-787 -319 -906 0
581 958 427 0
336 407 -514 0
-901 224 -415 0
-605 -760 -814 0
-20 -384 728 0
628 852 -225 0
378 -502 377 0
-291 -170 882 0
-821 845 552 0
202 -149 -731 0
893 -530 267 0
934 -394 743 0
-840 -912 -106 0
201 -130 -39 0
799 720 -477 0
422 750 834 0
996 577 113 0
535 -410 -588 0
666 -712 -680 0
18 190 116 0
-942 -984 148 0
340 -296 969 0
606 636 -6 0
-848 -750 -172 0
-404 889 932 0
625 387 819 0
-565 658 -584 0
-233 -970 -712 0
-372 -119 546 0
234 -282 -949 0
-349 -684 763 0
8 -489 -841 0
30 -536 -681 0
484 861 -485 0
-661 604 -576 0
896 789 -801 0
-255 -362 -762 0
-280 573 725 0
344 -4 174 0
-15 -477 -155 0
446 765 -686 0
-492 -169 327 0
-863 296 10 0
-31 -506 309 0
-880 -321 624 0
-48 371 -880 0
255 57 -50 0
848 -866 -767 0
154 -19 588 0
-397 -211 -982 0
755 -312 -194 0
-218 -28 751 0
-723 -24 -630 0
629 441 -576 0
-943 -598 113 0
329 -729 -147 0
-172 -26 -791 0
-66 420 586 0
894 974 306 0
-253 353 -484 0
679 -501 306 0
-561 -67 -635 0
-125 -859 395 0
733 -160 195 0
-626 893 -962 0
435 151 -956 0
-441 -39 -90 0
-472 -672 -987 0
181 80 -317 0
348 -735 -614 0
696 -473 -175 0
-303 811 102 0
818 -620 -111 0
774 251 -5 0
720 615 -1000 0
-422 -228 -98 0
181 -621 873 0
675 -842 -367 0
-861 -31 -856 0
135 -56 606 0
753 320 -231 0
179 -409 573 0
-941 -189 591 0
56 719 -904 0
340 -285 -647 0
-602 -418 417 0
383 -148 938 0
733 788 -608 0
7 -216 -236 0
-958 606 76 0
486 -780 -568 0
435 429 -288 0
-910 660 -412 0
-840 198 -982 0
796 -113 75 0
-839 -123 67 0
-501 -278 42 0
-125 777 -236 0
339 368 379 0
-516 -645 -931 0
934 100 764 0
-509 335 -811 0
-73 550 919 0
844 464 774 0
-68 961 554 0
518 105 -974 0
-164 -81 -522 0
-500 488 272 0
888 380 -278 0
-521 308 197 0
646 -749 -204 0
-583 -844 -599 0
672 -208 -153 0
832 -404 746 0
604 -438 895 0
-16 -740 -303 0
-454 536 -762 0
-126 -987 -236 0
62 533 970 0
-752 -693 620 0
-755 -905 217 0
-974 -130 763 0
-895 -593 -19 0
928 -358 -935 0
426 5 286 0
639 -102 36 0
588 721 -446 0
-518 784 -776 0
641 65 -281 0
-164 56 558 0
681 -633 -958 0
-537 -772 993 0
918 -169 686 0
52 -241 305 0
249 300 832 0
211 -588 -821 0
-845 -715 327 0
-738 204 -286 0
649 -104 41 0
949 848 450 0
417 -595 138 0
654 155 -941 0
-54 464 73 0
914 -240 850 0
783 88 -879 0
-558 13 -827 0
-718 -836 223 0
24 100 127 0
357 -516 -979 0
518 697 974 0
895 -481 589 0
-496 -727 -225 0
768 -554 780 0
434 526 577 0
495 755 -178 0
-813 103 730 0
-658 688 -829 0
-796 -549 -32 0
635 -429 -908 0
-379 -970 -223 0
445 49 59 0
-940 999 -160 0
815 -641 -247 0
-149 561 -338 0
832 132 4 0
174 611 -522 0
549 485 -561 0
534 785 -40 0
445 -955 397 0
-317 844 290 0
-73 88 978 0
-436 -3 -371 0
-54 -998 -263 0
663 -401 181 0
372 73 -297 0
863 -145 -504 0
486 381 869 0
347 -168 -50 0
-486 987 -170 0
398 142 -825 0
826 -142 -858 0
-69 178 354 0
939 270 576 0
-489 -163 812 0
825 -535 88 0
16 361 -461 0
992 -788 -974 0
895 -515 -188 0
919 531 473 0
678 -465 593 0
-833 -502 872 0
-119 -313 4 0
526 775 433 0
79 -150 -718 0
39 -978 728 0
916 -707 73 0
-656 812 809 0
-938 976 289 0
-529 -186 212 0
648 -451 958 0
-460 453 -488 0
921 449 747 0
531 663 688 0
325 -679 144 0
163 -86 -422 0
86 990 46 0
89 973 362 0
262 -992 116 0
505 -976 220 0
497 334 489 0
258 65 -622 0
-826 -998 -139 0
13 884 -114 0
-543 29 -133 0
-919 981 781 0
601 641 501 0
-178 -140 667 0
-43 -263 -877 0
196 255 144 0
966 -706 -142 0
-593 -848 760 0
797 723 -912 0
425 69 31 0
402 189 562 0
-147 -395 -20 0
-693 561 -272 0
607 -219 706 0
-579 916 -135 0
-321 996 -990 0
-955 -810 -483 0
469 38 -15 0
872 156 -228 0
368 -954 -632 0
173 -176 588 0
-570 -409 281 0
705 -773 803 0
-598 -464 93 0
734 -194 -100 0
-323 -721 767 0
-698 408 -668 0
-208 270 104 0
975 6 -331 0
388 -433 403 0
-299 -471 678 0
-108 767 -188 0
642 248 -282 0
480 -6 -351 0
107 53 215 0
514 172 885 0
-397 -359 -308 0
-483 -870 81 0
554 527 791 0
967 -452 -369 0
-597 668 467 0
829 652 965 0
570 392 -540 0
-362 -827 311 0
-403 885 163 0
-719 984 893 0
907 -830 -767 0
770 564 -558 0
510 -373 905 0
-96 -164 -253 0
-401 -722 -175 0
551 600 867 0
-609 -639 -583 0
181 -831 56 0
-726 -614 -918 0
424 151 630 0
-252 -725 -760 0
-943 -969 -418 0
405 365 -458 0
817 -670 620 0
-673 -591 -561 0
-984 -500 -922 0
-314 868 -303 0
940 -706 -652 0
-3 97 -764 0
873 -702 -356 0
-673 542 528 0
-175 -391 662 0
-68 -814 -695 0
451 163 309 0
851 -888 -448 0
-315 308 423 0
80 853 445 0
-256 989 -435 0
413 -558 93 0
682 -697 -669 0
671 256 -680 0
-755 825 690 0
931 -248 -836 0
390 97 139 0
25 -792 1 0
-63 659 980 0
-758 661 655 0
-764 -964 559 0
-31 906 792 0
-252 -822 -878 0
104 -713 519 0
-224 -993 -834 0
-21 -259 -691 0
778 -649 -966 0
-294 -876 217 0
24 -738 787 0
-34 -69 36 0
656 -454 177 0
141 -776 -879 0
-118 379 84 0
-801 745 578 0
90 -267 -569 0
822 -160 17 0
206 -178 -54 0
-217 571 -191 0
-292 -399 -618 0
351 -691 224 0
-927 674 504 0
-641 -918 -508 0
181 739 794 0
993 204 770 0
489 -548 565 0
-613 -820 -927 0
230 -863 212 0
586 -224 -196 0
-567 455 6 0
449 558 535 0
-747 348 -265 0
463 950 -629 0
637 992 -942 0
-638 -685 -32 0
667 425 -664 0
372 662 203 0
50 -89 -164 0
869 136 378 0
-645 -326 992 0
233 744 -415 0
621 291 862 0
23 173 188 0
454 358 -577 0
-584 576 -514 0
-58 399 456 0
420 -777 532 0
482 -100 873 0
-507 185 995 0
-415 -446 583 0
-676 863 541 0
58 -21 -399 0
99 875 -770 0
369 -813 121 0
422 -495 988 0
-500 36 -594 0
687 364 737 0
989 230 -971 0
435 -55 -50 0
-400 -778 -266 0
-385 737 851 0
-791 177 -930 0
721 637 -8 0
-272 88 -398 0
-70 863 -728 0
-314 263 -975 0
347 415 -461 0
-954 568 -382 0
778 159 -603 0
133 -581 779 0
-517 625 282 0
887 -304 -802 0
-617 211 -594 0
510 490 -40 0
-989 30 -922 0
507 506 795 0
-243 -20 -654 0
662 -722 199 0
917 -940 22 0
255 -664 -791 0
377 -548 -337 0
862 -750 -456 0
949 181 383 0
-654 -57 264 0
717 209 -781 0
-412 698 -390 0
954 512 -693 0
962 -498 148 0
395 -726 164 0
435 383 483 0
864 604 -994 0
-809 963 623 0
-683 849 938 0
-289 545 308 0
489 786 -737 0
524 399 -790 0
-81 -529 -994 0
565 548 -730 0
-987 -136 353 0
-284 239 -607 0
306 620 436 0
-512 209 50 0
-34 -72 791 0
-452 21 298 0
408 778 420 0
-105 -787 -208 0
132 -269 -687 0
-987 -382 132 0
387 -776 829 0
780 653 120 0
181 -57 -406 0
-108 323 -968 0
84 903 58 0
248 -616 -552 0
794 -574 446 0
-327 -913 154 0
455 -515 -548 0
-162 -540 -48 0
832 -347 -448 0
713 -824 583 0
116 -412 302 0
298 238 663 0
-813 631 -218 0
724 -717 -503 0
225 -659 -265 0
-578 857 -927 0
-963 116 -894 0
-470 237 322 0
981 173 87 0
-692 -577 585 0
66 -786 -952 0
-816 848 491 0
-188 139 -924 0
794 905 -316 0
124 197 436 0
113 224 30 0
-812 741 -16 0
-320 -50 -37 0
-224 727 -898 0
83 -781 -308 0
637 -189 675 0
341 728 -729 0
-330 626 -309 0
646 968 -485 0
-868 76 -421 0
28 377 -896 0
324 924 -491 0
-41 972 29 0
-246 14 -116 0
403 -120 848 0
-308 -177 -376 0
-446 186 126 0
949 -414 -695 0
544 -963 354 0
-891 -73 600 0
238 -744 157 0
-863 490 -562 0
517 356 -781 0
-490 460 129 0
-941 226 -764 0
504 -581 -798 0
707 410 242 0
339 999 -301 0
-353 -726 -625 0
204 -906 538 0
89 57 950 0
-571 878 136 0
927 -705 251 0
-423 -436 432 0
186 832 407 0
915 -105 439 0
-993 150 -493 0
533 503 219 0
767 -149 469 0
38 -121 527 0
-709 420 -796 0
544 983 -330 0
-780 618 -602 0
739 533 169 0
464 -868 -151 0
384 752 -682 0
506 -911 -688 0
72 -516 -358 0
717 872 56 0
855 496 6 0
678 -191 -1 0
-494 802 825 0
144 85 -558 0
-86 -408 51 0
549 475 851 0
923 209 377 0
405 765 -957 0
290 -447 706 0
788 -102 480 0
64 -878 473 0
765 -165 -544 0
730 -757 72 0
816 -802 -951 0
-89 -557 261 0
987 3 634 0
367 -999 437 0
921 137 257 0
599 952 531 0
475 -850 -624 0
872 81 -57 0
397 -126 -791 0
-934 -945 -776 0
939 -155 431 0
-983 -891 -77 0
234 944 737 0
-878 828 792 0
-15 -621 186 0
-294 325 -623 0
-153 832 294 0
300 -322 -413 0
-2 287 -376 0
100 -941 780 0
112 -316 468 0
709 875 -976 0
432 528 -317 0
-838 404 204 0
-286 382 -68 0
801 -125 294 0
429 -610 -372 0
-868 -649 -333 0
-401 728 -735 0
-889 -797 528 0
-753 -774 -726 0
378 39 994 0
-850 897 870 0
655 335 835 0
714 -458 683 0
-360 -994 481 0
-648 -838 334 0
332 107 814 0
546 -456 -740 0
35 584 990 0
303 -467 201 0
922 364 611 0
372 853 118 0
315 -893 -673 0
754 794 825 0
-246 -127 949 0
4 435 78 0
-863 288 -942 0
-306 653 170 0
-907 751 -657 0
972 -35 744 0
-61 653 642 0
-588 216 94 0
552 -279 541 0
116 698 -558 0
-110 -557 200 0
-453 798 -349 0
-793 -260 482 0
-740 719 -152 0
48 863 -28 0
771 -156 18 0
-386 350 880 0
897 244 708 0
752 -952 -968 0
-635 753 -251 0
-590 565 861 0
977 1000 -100 0
718 -102 -937 0
-36 598 -791 0
-847 -11 -948 0
-784 -939 -194 0
-800 240 947 0
106 612 -950 0
965 -228 -286 0
519 73 -388 0
-599 -156 963 0
472 757 -201 0
957 988 266 0
502 836 -683 0
-740 128 735 0
-195 -759 4 0
-714 -967 -594 0
-358 -688 727 0
-312 -683 409 0
-137 -386 719 0
266 92 -648 0
930 -464 -36 0
189 -749 -512 0
-386 994 -672 0
820 718 -417 0
159 609 485 0
647 -212 -145 0
-768 494 -405 0
982 23 164 0
-179 708 620 0
109 996 -47 0
356 396 783 0
-346 -709 -212 0
-413 -605 443 0
-16 775 -381 0
-591 -938 482 0
132 -215 -500 0
-13 -856 54 0
-243 641 511 0
613 708 -19 0
759 877 -544 0
159 326 759 0
798 209 -661 0
-597 863 595 0
-336 -155 819 0
-209 361 790 0
-788 -335 -742 0
-748 304 -495 0
550 136 -434 0
-389 233 757 0
-931 548 -675 0
608 -733 -45 0
-177 -795 118 0
926 722 770 0
319 -291 -419 0
-246 176 -171 0
228 -80 332 0
279 -567 270 0
-818 -210 -594 0
309 521 -993 0
749 -199 494 0
-999 516 -993 0
-988 -229 586 0
-512 -201 120 0
417 -348 30 0
423 -797 -348 0
-298 537 -695 0
-907 746 538 0
-789 -618 -997 0
-311 1 183 0
-332 283 753 0
-768 -523 -872 0
641 -381 834 0
594 900 442 0
-603 533 893 0
343 -472 -919 0
-317 -802 38 0
616 -823 553 0
-376 -543 852 0
-480 -535 -425 0
752 -1000 -203 0
-731 176 475 0
977 -295 812 0
205 645 -401 0
-280 -102 -178 0
-229 -56 797 0
44 -114 -550 0
226 881 865 0
228 131 -430 0
597 -976 83 0
-811 -570 -99 0
-561 986 352 0
-300 -990 107 0
293 463 631 0
-517 409 -286 0
-478 -708 277 0
-196 -908 328 0
-468 -970 -715 0
-366 -328 998 0
-452 20 952 0
-723 -368 -394 0
-477 233 486 0
334 117 438 0
65 -883 -312 0
91 -430 418 0
365 -68 -978 0
119 -629 520 0
134 777 750 0
-118 775 601 0
74 749 955 0
-881 -386 251 0
-601 -225 373 0
-695 -126 687 0
-205 601 -849 0
-187 -841 -76 0
170 -600 832 0
-411 -436 900 0
437 305 -672 0
-673 -779 -289 0
732 -112 -24 0
929 -475 -738 0
78 -999 54 0
-698 343 -658 0
247 270 -723 0
895 -898 -294 0
-138 -797 949 0
820 756 -175 0
-143 -938 923 0
-382 -644 174 0
-342 -931 984 0
353 987 440 0
-293 -633 -60 0
241 -64 988 0
-140 -234 -809 0
463 563 325 0
169 -876 -462 0
-619 231 -187 0
-774 -597 925 0
962 -553 -541 0
938 209 -601 0
132 -873 -780 0
389 631 -3 0
-962 266 709 0
553 -117 875 0
380 175 -976 0
320 -473 677 0
-980 -305 26 0
-79 -433 620 0
381 -210 312 0
613 -744 249 0
578 682 369 0
-150 -115 -644 0
655 118 839 0
-565 -312 -259 0
633 -471 -700 0
-484 743 -349 0
63 641 -821 0
-189 102 772 0
-231 -841 822 0
958 661 57 0
265 -17 -882 0
-750 844 493 0
124 138 -7 0
-830 875 -263 0
-144 -587 -50 0
-226 -749 -903 0
-129 818 311 0
-548 -87 773 0
-727 -455 676 0
-512 -590 -766 0
613 -642 -419 0
247 924 942 0
167 14 1 0
-219 -237 -40 0
796 -156 -988 0
-871 361 813 0
943 656 979 0
-810 763 577 0
-849 658 880 0
-856 230 -351 0
-77 -428 843 0
235 -62 -234 0
738 -467 732 0
221 849 767 0
544 169 -956 0
336 925 -360 0
446 883 -384 0
-715 -611 -874 0
-216 -429 47 0
-913 921 -527 0
318 -283 376 0
-352 459 136 0
716 -936 940 0
-31 -430 -436 0
-108 -986 -456 0
838 -63 -127 0
453 998 -883 0
-891 525 10 0
-47 939 -818 0
322 -196 172 0
-204 846 -761 0
945 -190 -192 0
-30 786 227 0
323 -377 -131 0
-886 770 232 0
245 -769 -167 0
-126 157 -919 0
-411 681 461 0
-609 842 -916 0
-68 -748 295 0
-597 240 823 0
-426 -978 -905 0
-450 -614 -383 0
251 765 383 0
-471 -274 -705 0
-91 692 -439 0
-834 247 282 0
-115 82 616 0
-795 658 125 0
310 609 -828 0
719 118 587 0
-158 -731 868 0
97 8 670 0
-900 -371 -745 0
-246 681 950 0
-293 361 -948 0
-266 320 631 0
936 -867 62 0
-860 534 -516 0
-604 -526 859 0
706 917 717 0
1000 299 -969 0
894 -302 -196 0
-749 795 -36 0
-737 -446 675 0
362 871 -492 0
-62 543 -411 0
-321 587 -731 0
-289 636 -357 0
-305 -794 106 0
430 -460 373 0
-927 575 -849 0
-407 -519 597 0
-711 313 557 0
471 232 -241 0
328 -107 804 0
-699 -22 410 0
213 97 -936 0
231 198 324 0
750 300 79 0
97 301 -759 0
56 -62 797 0
517 -279 727 0
-719 -8 -706 0
-273 -436 -93 0
-231 -874 538 0
-811 -437 153 0
406 391 -449 0
497 -942 465 0
571 360 -410 0
-718 329 428 0
83 779 339 0
-784 -685 -410 0
962 -681 -370 0
387 -551 -614 0
-975 -622 942 0
510 -184 -446 0
110 832 648 0
51 39 625 0
-768 -785 -421 0
868 -102 -173 0
-314 -286 723 0
798 241 -728 0
842 -343 442 0
80 769 767 0
544 -901 321 0
-696 59 828 0
462 607 -819 0
687 -690 552 0
-62 978 -548 0
978 -622 -408 0
895 -914 760 0
223 -602 484 0
-733 897 -292 0
128 287 -169 0
428 812 199 0
-100 213 -730 0
445 -552 507 0
547 -458 -637 0
-760 439 504 0
-540 13 -221 0
263 -846 -537 0
-552 251 646 0
-953 -627 -660 0
771 280 -706 0
-626 -83 -544 0
483 675 471 0
-282 -848 69 0
-314 388 96 0
212 -513 430 0
-793 -473 -777 0
-948 675 150 0
-35 -239 408 0
-204 -854 -305 0
-840 674 960 0
687 -710 -107 0
-232 339 -790 0
8 -200 971 0
564 583 935 0
194 571 -96 0
-169 -944 540 0
900 -250 812 0
950 -127 119 0
666 -308 -463 0
-689 -972 -629 0
207 -920 -725 0
173 442 -414 0
946 -672 156 0
-90 378 -958 0
-785 732 -723 0
-203 419 -853 0
836 -531 -249 0
-438 516 -905 0
-368 -993 938 0
41 240 247 0
-6 273 -972 0
-535 136 -707 0
309 922 -753 0
213 137 599 0
-8 -639 395 0
341 380 535 0
865 -180 -601 0
88 -78 121 0
570 -498 -42 0
-926 -644 -360 0
-113 -69 -724 0
-840 657 714 0
706 652 -714 0
-456 -471 -809 0
494 808 -778 0
935 143 897 0
643 -120 702 0
-961 -563 588 0
178 -497 662 0
574 -897 115 0
216 999 389 0
-859 -487 925 0
-658 -261 -594 0
-57 -400 -542 0
-830 -749 311 0
860 -902 -10 0
167 -539 146 0
-501 376 774 0
-744 370 -869 0
477 -386 -531 0
-658 546 -243 0
839 -939 602 0
-983 951 365 0
-811 -508 -530 0
-897 881 188 0
135 -502 640 0
848 -915 -204 0
567 -360 554 0
632 -868 -283 0
463 370 464 0
-715 -983 386 0
410 -32 -369 0
-866 530 493 0
-189 -96 138 0
662 -78 431 0
-402 163 -18 0
-934 -715 -136 0
-86 870 -229 0
320 451 -83 0
-529 807 -415 0
-175 382 -437 0
544 -612 131 0
287 616 -374 0
969 408 -431 0
-262 93 -530 0
-847 -18 402 0
-390 -441 250 0
-852 400 20 0
835 -327 518 0
-563 -728 689 0
926 -169 507 0
-537 80 731 0
-768 -276 -871 0
-246 126 837 0
-639 -841 -250 0
-41 -117 977 0
-925 -822 413 0
-353 781 345 0
-140 -830 -321 0
-208 -820 -466 0
824 212 906 0
-75 -545 -883 0
113 764 23 0
16 464 328 0
351 144 999 0
742 -248 -728 0
-924 701 159 0
-76 234 272 0
-924 545 391 0
352 127 -843 0
-645 -621 434 0
699 -302 106 0
-498 -529 652 0
-476 471 876 0
-741 801 104 0
711 -166 283 0
-731 -511 992 0
401 -301 -728 0
47 -846 842 0
254 149 -591 0
34 -57 332 0
-711 656 -245 0
452 -602 672 0
-402 -469 -413 0
-420 -34 4 0
-58 -40 419 0
254 399 403 0
-591 -372 991 0
-333 907 123 0
426 -11 -731 0
-79 733 940 0
-71 934 692 0
-980 797 526 0
-980 -718 -597 0
-866 799 333 0
-309 -59 -140 0
-119 51 44 0
-23 133 30 0
-26 -985 939 0
770 314 930 0
-51 -720 968 0
-614 -475 -632 0
-479 -739 -766 0
-824 304 361 0
433 901 -658 0
-353 370 500 0
-514 583 228 0
-698 905 -906 0
547 -18 -919 0
-724 -726 4 0
703 449 746 0
475 -49 889 0
-436 96 17 0
909 121 500 0
-994 -980 -494 0
475 578 609 0
692 -797 416 0
-543 -405 997 0
-264 978 607 0
-266 -611 42 0
-726 -988 -540 0
-116 697 -304 0
596 567 863 0
-507 -894 912 0
-475 398 -692 0
-871 943 -190 0
-668 96 312 0
-431 -251 773 0
179 -175 847 0
488 -74 -354 0
-91 633 271 0
-345 -953 874 0
558 -368 -413 0
-282 -187 344 0
-822 -195 -295 0
-601 220 -185 0
-939 752 208 0
-434 -124 21 0
-574 832 -809 0
488 373 -388 0
-878 -331 428 0
-574 -455 845 0
-518 902 439 0
-991 392 -1000 0
-497 -897 43 0
-91 -319 -230 0
-674 -441 -19 0
-397 344 -357 0
-357 -557 -353 0
-973 -290 757 0
-978 208 271 0
-847 -298 -956 0
151 -345 225 0
594 477 201 0
-922 -58 581 0
219 278 -611 0
-914 181 -38 0
-559 -155 610 0
654 491 -104 0
-15 300 29 0
156 454 -484 0
587 -949 -786 0
952 -332 189 0
-845 385 -956 0
495 141 629 0
863 -825 602 0
-528 644 -970 0
574 616 -785 0
-78 11 910 0
-939 805 334 0
663 -471 -860 0
689 45 138 0
-370 -212 -39 0
982 -931 -357 0
722 837 165 0
716 -461 871 0
-367 100 -786 0
281 261 585 0
-615 -158 499 0
515 -416 -810 0
250 917 -675 0
-664 -567 327 0
331 944 178 0
-273 260 -569 0
-883 -591 -693 0
599 812 -187 0
245 319 -68 0
941 580 -472 0
-368 705 -422 0
-704 138 593 0
451 488 -877 0
-584 -148 361 0
-716 -34 -775 0
153 -770 -802 0
383 931 835 0
-575 -700 -383 0
978 -173 279 0
-389 634 -394 0
-147 -630 610 0
-960 -536 -821 0
-840 573 120 0
-654 -760 -339 0
-76 -813 -916 0
285 34 725 0
-719 -539 -276 0
-380 -994 -20 0
-306 668 758 0
631 620 -101 0
509 -431 -235 0
693 -630 496 0
-381 822 -813 0
-431 -752 870 0
-67 -340 -145 0
-38 -636 -943 0
327 104 -937 0
770 527 -443 0
-555 -295 -820 0
129 -357 -816 0
915 -306 -523 0
133 181 365 0
-433 -190 749 0
-738 866 236 0
514 672 -913 0
-681 46 -815 0
-203 23 610 0
-74 -96 -756 0
-431 -775 -315 0
-402 -579 444 0
-50 586 -257 0
611 -47 -371 0
605 267 -511 0
75 786 -626 0
810 -534 254 0
-144 394 -356 0
730 -993 -686 0
-408 407 -258 0
354 706 -176 0
-159 528 -594 0
470 247 80 0
851 443 -635 0
-708 -740 -750 0
-786 917 830 0
883 987 992 0
-192 -683 -226 0
-30 37 869 0
-145 -187 -542 0
-579 489 -284 0
462 329 -988 0
-975 592 -540 0
106 -603 -845 0
-630 -427 752 0
-723 -288 -14 0
926 -229 -266 0
-304 414 233 0
186 -323 -922 0
194 -322 929 0
879 -88 20 0
180 -735 95 0
506 -294 67 0
-690 -51 -396 0
-617 56 -909 0
607 536 351 0
494 501 910 0
-272 -429 339 0
-914 40 411 0
366 454 123 0
665 -561 -46 0
-932 559 364 0
388 553 177 0
-32 779 925 0
-661 -65 -41 0
161 -456 -93 0
703 -230 325 0
-764 595 -336 0
-168 684 -641 0
233 -43 327 0
314 826 -151 0
975 721 682 0
695 -210 -552 0
869 730 874 0
163 678 584 0
-758 23 -326 0
-619 517 -316 0
968 -912 919 0
624 -258 717 0
298 -991 -299 0
-932 248 -588 0
-893 -500 531 0
-24 -478 695 0
-730 214 -695 0
534 425 -745 0
809 -629 765 0
-316 -787 -658 0
-271 69 -424 0
443 -202 -245 0
261 -970 -822 0
894 87 674 0
-775 -803 -549 0
-781 -312 -973 0
993 467 -965 0
103 2 -725 0
948 430 142 0
-189 -980 325 0
638 -692 -816 0
904 639 858 0
297 178 -392 0
392 40 -170 0
-594 -518 316 0
349 -389 -625 0
-936 -759 -29 0
-150 -394 -224 0
-848 151 895 0
-937 -315 738 0
-176 -749 -130 0
501 -169 569 0
-314 596 -489 0
-395 -357 381 0
906 369 -365 0
277 965 -617 0
-859 -805 467 0
336 -360 -992 0
535 -571 696 0
-500 -448 428 0
809 -440 677 0
790 -978 -75 0
226 682 -320 0
105 824 -167 0
647 -693 -57 0
-999 -439 720 0
229 -734 -54 0
-897 417 169 0
-195 -247 -794 0
-649 468 6 0
-786 -44 406 0
-926 -62 -360 0
-821 -316 713 0
968 -836 -743 0
-702 400 -302 0
486 364 800 0
631 -851 393 0
-621 -237 979 0
-308 985 265 0
165 -959 955 0
-725 -307 -547 0
-284 -487 214 0
-900 367 -69 0
-706 60 239 0
-645 285 427 0
147 -333 -97 0
952 -609 -531 0
-905 975 797 0
-146 -267 -843 0
322 182 -408 0
700 -563 191 0
621 461 -249 0
252 -572 -550 0
836 995 898 0
312 -279 -78 0
708 -99 659 0
472 602 363 0
694 -886 225 0
194 313 -76 0
112 -883 -365 0
246 376 -418 0
671 446 323 0
794 -90 -725 0
-68 -806 -787 0
442 640 489 0
-171 -266 -766 0
-844 22 967 0
265 -915 -656 0
700 364 -404 0
454 -607 -986 0
46 893 174 0
17 477 512 0
977 844 -958 0
744 -832 926 0
-77 764 -332 0
30 -185 667 0
392 -37 -801 0
-250 -457 829 0
733 301 -515 0
648 280 447 0
142 215 -770 0
-407 -897 821 0
-938 -376 -101 0
52 -607 287 0
926 -431 227 0
448 642 -860 0
621 180 834 0
302 -70 102 0
294 640 865 0
-217 -550 -718 0
-908 952 508 0
347 451 -382 0
661 959 671 0
528 -796 81 0
-256 -559 838 0
-983 -458 788 0
-396 -780 275 0
742 -571 -770 0
703 965 -46 0
710 -360 267 0
682 -249 801 0
107 -442 -59 0
893 400 348 0
-566 -870 -297 0
-341 553 -136 0
-820 56 -869 0
-502 -816 683 0
-266 -974 -184 0
-658 -253 237 0
-54 -145 91 0
27 -694 -580 0
551 -473 236 0
-148 -831 37 0
-294 -663 983 0
200 -879 -234 0
808 -746 -173 0
861 664 -533 0
624 -194 -186 0
-89 513 547 0
235 812 478 0
-395 343 -650 0
547 -497 -487 0
-654 -242 382 0
