p cnf 1000 2400
-517 550 136 0
301 780 270 0
-903 27 -45 0
-591 -696 -456 0
416 210 219 0
231 896 -829 0
-933 659 451 0
-812 -4 -815 0
158 -291 -13 0
-26 310 976 0
189 -759 75 0
601 650 -377 0
-221 112 -654 0
435 -309 -46 0
264 114 482 0
-663 438 -668 0
-178 -882 244 0
-441 288 -604 0
-735 -795 539 0
-345 45 -76 0
-234 -364 -589 0
20 -449 -86 0
-780 202 501 0
731 -28 -938 0
-656 581 -349 0
-888 -177 69 0
693 -537 -785 0
254 393 -83 0
781 -651 -217 0
476 -576 -299 0
460 898 84 0
-461 946 579 0
488 -543 -298 0
-521 -127 -257 0
-644 -913 -528 0
98 -861 529 0
-405 36 603 0
194 -789 528 0
767 438 -808 0
-877 -461 -609 0
-731 743 271 0
569 -307 -145 0
-24 851 978 0
-124 -639 -131 0
-643 -248 -354 0
-826 417 363 0
799 -609 -432 0
-451 735 -482 0
310 -439 -977 0
829 -897 953 0
-915 524 163 0
-612 -901 -971 0
-90 -805 363 0
190 -330 292 0
725 -334 445 0
589 587 -519 0
686 948 -761 0
-934 -58 889 0
119 -951 1000 0
92 -100 110 0
439 302 282 0
167 791 438 0
-525 745 -124 0
-18 15 47 0
-136 -268 170 0
604 -719 -34 0
436 -845 652 0
959 109 496 0
-847 -171 79 0
5 353 306 0
-448 136 193 0
-272 -482 -144 0
976 -191 965 0
490 -802 87 0
309 -524 448 0
-838 -754 357 0
-246 -754 -363 0
208 -996 -484 0
818 767 -172 0
190 265 428 0
324 -456 -504 0
169 -666 -738 0
471 498 -844 0
-326 -43 -337 0
508 -396 355 0
416 704 -820 0
-445 381 -836 0
288 -793 -904 0
167 930 -935 0
800 767 -122 0
788 713 557 0
-95 583 -141 0
-649 -387 272 0
677 951 637 0
231 711 480 0
-26 -529 306 0
-71 -372 984 0
74 903 -626 0
-540 -243 -925 0
-618 284 -607 0
804 -829 -831 0
-977 -213 -823 0
-356 276 187 0
-994 398 801 0
188 859 989 0
785 -951 -823 0
575 159 966 0
-255 -730 650 0
-638 246 -311 0
-451 -693 -604 0
-69 896 834 0
-407 213 469 0
764 -805 245 0
782 -348 562 0
-107 530 -820 0
-259 629 -551 0
502 -629 -510 0
-601 747 -979 0
699 -439 108 0
198 850 622 0
513 9 290 0
-28 -502 -140 0
-462 -879 -588 0
-24 855 101 0
-50 -331 701 0
-312 351 -918 0
-74 114 617 0
527 -753 308 0
771 -230 428 0
72 -445 -232 0
968 -786 537 0
793 441 827 0
130 -257 94 0
511 -292 -421 0
-505 -93 -114 0
-834 23 -298 0
-306 796 664 0
204 -550 -688 0
-652 244 272 0
551 847 73 0
-968 -20 -254 0
-636 503 856 0
-618 -564 -685 0
-885 -181 -163 0
-73 74 -4 0
812 408 -304 0
53 -411 -34 0
-360 340 687 0
901 168 367 0
84 899 395 0
604 -201 -700 0
566 -330 205 0
-538 612 690 0
535 -158 842 0
47 690 245 0
945 -579 246 0
761 -288 -699 0
308 158 749 0
961 681 -837 0
947 -159 974 0
-208 -903 90 0
244 -941 381 0
-28 592 -421 0
-768 -840 -223 0
-5 217 -270 0
-656 28 53 0
331 -447 -98 0
846 452 -524 0
376 382 614 0
770 673 -786 0
-413 436 -691 0
419 -375 -45 0
-631 328 909 0
5 -636 21 0
774 259 976 0
623 351 -464 0
758 -470 -729 0
-864 28 -580 0
536 948 -203 0
117 -336 779 0
277 -781 958 0
-485 -649 854 0
-550 938 -433 0
697 -458 377 0
920 221 -258 0
307 633 418 0
-529 -663 478 0
-81 -634 749 0
296 360 668 0
352 -94 -161 0
203 -863 916 0
-422 -317 -716 0
-496 514 378 0
-663 -54 459 0
161 -182 -217 0
-639 79 102 0
-814 800 -553 0
-146 -694 413 0
-330 -41 810 0
-425 711 102 0
-887 51 -790 0
922 132 -508 0
-188 564 -196 0
744 -585 -396 0
526 -636 408 0
-258 952 131 0
-538 391 243 0
-91 -452 -568 0
-648 167 559 0
-464 -947 586 0
-405 -502 -327 0
-432 41 675 0
344 206 753 0
-672 362 -221 0
-414 -798 -64 0
-998 269 -744 0
-480 955 500 0
-572 84 837 0
-341 231 -192 0
-504 819 69 0
350 528 230 0
-945 503 27 0
-371 811 -64 0
743 -582 223 0
858 130 327 0
-719 -456 202 0
293 907 61 0
-248 -54 -656 0
175 -177 -633 0
-317 -736 -207 0
266 -244 801 0
124 268 246 0
-59 -57 20 0
820 614 -49 0
-213 105 140 0
322 268 -540 0
52 -381 -991 0
-813 379 -960 0
564 -828 -727 0
325 -31 518 0
-595 320 -513 0
-642 732 501 0
414 859 -157 0
-23 -660 -592 0
-218 446 -324 0
-803 48 -946 0
-305 -205 -197 0
-964 328 21 0
-108 -624 7 0
95 600 625 0
894 612 -850 0
923 15 755 0
-347 -856 718 0
720 -359 838 0
947 -409 108 0
508 -611 10 0
19 378 565 0
-155 -232 -566 0
919 819 -794 0
-731 -317 -219 0
985 105 -799 0
13 760 484 0
53 950 251 0
-555 846 30 0
28 668 -928 0
-110 751 432 0
-272 -933 -23 0
653 -563 -344 0
-221 274 -710 0
-914 -36 -33 0
-911 9 840 0
331 -402 -762 0
167 361 -309 0
322 -955 550 0
-107 777 204 0
-351 -5 647 0
-696 174 -375 0
-304 -936 -581 0
-272 -637 563 0
-432 -410 274 0
-821 724 433 0
808 -862 683 0
-213 -588 -33 0
50 612 -319 0
-573 -635 631 0
-617 463 89 0
753 77 -562 0
318 948 -217 0
554 316 -743 0
-483 -969 -263 0
675 719 944 0
345 407 626 0
-677 -375 -444 0
-94 -390 -641 0
327 34 214 0
585 723 129 0
249 -301 -446 0
287 -833 -437 0
-645 -608 492 0
-385 -465 36 0
-809 -670 -515 0
993 -57 -511 0
842 362 -814 0
-521 -731 -636 0
889 508 593 0
-162 -174 -205 0
-540 314 304 0
458 846 -77 0
277 785 389 0
873 950 -971 0
-353 264 -284 0
972 283 389 0
-461 630 -512 0
162 -272 -951 0
-797 -623 116 0
-243 566 593 0
592 -749 975 0
469 -290 695 0
892 531 -206 0
166 -867 -133 0
-634 457 572 0
-203 961 -710 0
-727 -227 -941 0
621 997 -98 0
-770 283 449 0
783 -743 -831 0
-622 -740 319 0
-329 -523 -213 0
-856 -874 -827 0
437 708 260 0
-773 -975 410 0
365 -758 -391 0
-732 911 -90 0
133 459 857 0
-140 502 285 0
-583 -705 -658 0
-989 -246 587 0
-191 469 -260 0
341 94 393 0
428 6 -28 0
-280 76 590 0
467 176 -432 0
-53 811 315 0
-947 -699 310 0
149 -137 -727 0
-390 -194 -128 0
524 279 167 0
88 635 156 0
711 986 -361 0
-898 849 678 0
-812 -369 666 0
217 886 67 0
327 -415 -406 0
-892 750 357 0
165 338 -157 0
339 -733 -710 0
-116 -663 -919 0
-936 -552 681 0
674 -163 100 0
-814 -797 9 0
907 -421 6 0
-407 754 -426 0
-258 -246 -268 0
477 683 -895 0
-808 82 268 0
-185 -610 496 0
-621 18 159 0
516 757 -460 0
840 260 106 0
341 566 -931 0
325 -140 899 0
93 -881 -709 0
-719 223 670 0
261 709 -423 0
-598 -479 -775 0
-539 347 -404 0
-79 -893 935 0
-981 507 578 0
-591 117 819 0
-131 84 -621 0
250 489 193 0
889 568 -8 0
808 903 395 0
791 -705 813 0
50 708 -313 0
-410 784 -778 0
185 -78 287 0
-9 579 -894 0
-530 501 359 0
506 117 -592 0
922 -939 655 0
868 -611 22 0
-458 210 -179 0
-619 -87 725 0
847 -884 -838 0
-725 -358 -106 0
-777 -753 -155 0
275 -714 900 0
246 -993 318 0
-604 -895 -641 0
537 -314 493 0
135 -199 584 0
318 -265 -843 0
547 -5 202 0
387 769 -581 0
798 893 995 0
208 798 -88 0
-919 12 125 0
239 661 530 0
558 -170 -355 0
-36 -61 -254 0
562 474 508 0
848 -501 -274 0
-472 845 266 0
-153 -363 -362 0
364 57 -922 0
846 -448 -442 0
738 744 -131 0
-927 -805 766 0
826 -612 281 0
797 -529 -885 0
382 844 921 0
205 -382 -107 0
-624 -212 28 0
381 58 -939 0
268 -134 582 0
798 758 612 0
-878 836 -682 0
708 -668 278 0
197 609 -791 0
322 821 -363 0
-511 559 -82 0
230 -703 454 0
931 -205 354 0
212 -710 3 0
-532 -669 -800 0
549 -920 102 0
-838 -11 444 0
953 387 419 0
874 -735 245 0
806 805 -571 0
-989 -133 154 0
-298 803 779 0
689 835 705 0
-886 991 240 0
794 673 137 0
941 -147 501 0
449 -611 -560 0
364 707 452 0
81 593 400 0
639 545 -300 0
-577 -446 961 0
-933 768 95 0
806 520 -372 0
192 -601 -759 0
-631 642 -866 0
181 -13 113 0
-446 -332 136 0
-732 -238 -157 0
170 -567 666 0
-434 376 820 0
-576 444 -123 0
-45 -313 -297 0
291 67 932 0
448 -354 -691 0
-464 -345 736 0
482 -96 -759 0
452 -448 -233 0
-752 906 -761 0
-439 986 672 0
-820 -517 -291 0
-43 -251 -527 0
466 369 718 0
431 791 -537 0
-931 261 -750 0
-221 -581 -910 0
-638 -260 713 0
-376 -525 135 0
-364 828 453 0
691 497 42 0
50 294 984 0
904 383 327 0
121 -542 -576 0
-395 -30 -758 0
-11 195 -975 0
-781 994 532 0
-436 -437 -648 0
799 -525 605 0
-889 408 134 0
-90 -344 -754 0
975 -198 844 0
703 764 718 0
783 -202 -535 0
529 437 869 0
822 1000 710 0
-100 770 215 0
-584 761 -823 0
-52 -332 261 0
292 -115 -784 0
-9 -308 95 0
-185 -29 293 0
412 884 394 0
-583 -184 289 0
-300 912 557 0
289 265 303 0
-691 -248 -369 0
78 -554 -872 0
-244 -67 -263 0
-257 -696 -143 0
551 913 -128 0
-217 545 151 0
227 492 733 0
-57 593 144 0
-420 708 914 0
747 -624 312 0
929 -817 77 0
-515 236 366 0
-381 693 -178 0
-442 408 -727 0
-553 464 -313 0
-710 -424 678 0
288 582 855 0
-646 980 572 0
5 713 -689 0
519 -93 -668 0
-351 -35 -736 0
882 -796 748 0
73 82 921 0
-440 149 -284 0
-829 45 284 0
217 915 -93 0
-850 -13 -821 0
576 -707 -774 0
422 -965 -486 0
911 -328 -851 0
-582 942 242 0
-232 302 -715 0
19 -400 275 0
369 874 -1000 0
589 -511 179 0
721 113 -861 0
-406 -787 517 0
-428 -182 -157 0
408 525 -159 0
828 -931 637 0
188 3 274 0
354 158 758 0
-804 -967 -830 0
-40 44 -274 0
428 -520 -828 0
758 -370 835 0
-260 -698 539 0
2 874 -342 0
-329 -215 524 0
401 -337 -294 0
-757 618 456 0
662 319 -770 0
400 626 201 0
-911 88 -867 0
682 824 -350 0
439 715 93 0
-27 455 289 0
-702 164 642 0
-181 -159 -253 0
-433 663 -180 0
-124 846 -391 0
-185 -425 -866 0
-644 664 703 0
-549 -239 805 0
80 -996 -645 0
-920 -352 820 0
181 811 -760 0
-403 -903 237 0
-934 -988 964 0
371 -338 -197 0
-867 244 -16 0
357 -433 912 0
339 16 -568 0
-224 527 -46 0
-814 615 641 0
-125 796 -27 0
-7 355 693 0
-566 -813 -595 0
185 -212 -86 0
-337 181 -769 0
137 -482 -496 0
368 -399 778 0
-795 119 -116 0
-781 504 -387 0
536 -270 117 0
230 -502 481 0
-122 -407 242 0
606 -757 -739 0
-65 -293 162 0
-264 116 -567 0
874 -276 538 0
-779 -90 -869 0
682 -615 168 0
-295 378 502 0
-742 853 558 0
62 754 591 0
975 630 -354 0
825 -379 -939 0
-318 -521 360 0
518 625 -329 0
-445 -615 -126 0
786 -166 -288 0
375 -391 295 0
-408 711 -896 0
396 11 -931 0
95 255 129 0
929 -414 -27 0
-627 -630 401 0
241 290 515 0
785 287 450 0
949 601 307 0
-565 -250 -355 0
669 362 31 0
-892 -155 735 0
265 461 746 0
-775 -760 -791 0
-955 -172 23 0
743 522 596 0
367 -645 288 0
880 -455 585 0
-100 -928 202 0
637 -403 -800 0
-199 -27 723 0
-348 314 -716 0
955 772 818 0
-725 551 -76 0
74 215 -100 0
-28 493 991 0
502 478 521 0
-844 -209 -612 0
616 -530 -666 0
622 -474 773 0
-823 206 -82 0
-243 117 -789 0
111 -971 172 0
949 -311 787 0
-549 298 390 0
-749 -352 -144 0
997 -339 -542 0
-427 -68 70 0
-150 -31 538 0
-213 -212 416 0
344 -167 -511 0
-470 -209 523 0
468 -799 -246 0
-465 450 673 0
-880 -243 786 0
-89 405 -524 0
127 -158 -310 0
-184 941 308 0
888 634 420 0
-377 -774 939 0
568 -200 316 0
-492 -656 271 0
-373 -447 -516 0
-707 65 -894 0
-126 3 -400 0
-200 -227 -358 0
167 262 -755 0
342 946 473 0
416 47 400 0
-804 108 -782 0
352 -726 679 0
586 -326 -873 0
-224 547 130 0
636 836 294 0
-639 772 565 0
-639 427 -970 0
708 -430 846 0
944 -403 -919 0
739 -975 -646 0
302 420 -446 0
-360 949 -664 0
779 -645 175 0
-879 780 -929 0
-302 209 781 0
808 206 888 0
707 -294 488 0
-421 216 383 0
540 -931 996 0
-692 -9 -580 0
-343 -775 93 0
-343 -203 -599 0
-45 -334 29 0
-206 77 478 0
-336 -890 338 0
-182 -297 -129 0
-442 672 -434 0
384 -965 233 0
881 901 694 0
-756 -560 -33 0
531 -495 255 0
-251 -505 -191 0
-728 316 -392 0
-383 321 -260 0
-779 -632 -756 0
11 645 891 0
-496 -4 -788 0
-680 -371 -726 0
-756 -372 -636 0
517 832 229 0
-562 529 -950 0
66 -688 -131 0
-500 919 23 0
-743 204 -844 0
-610 947 382 0
581 -837 -955 0
-91 605 -257 0
-332 -792 356 0
-870 -942 -829 0
632 -242 -712 0
-262 -492 803 0
-548 -604 -355 0
-376 324 781 0
-507 622 48 0
-370 333 29 0
-621 571 279 0
-487 188 952 0
-71 880 -874 0
-721 -59 -191 0
618 -187 716 0
-603 -913 731 0
-221 -968 -756 0
353 -590 -350 0
112 240 -178 0
-666 88 -462 0
-763 470 704 0
559 -661 944 0
-17 -907 86 0
-984 978 -909 0
765 -243 839 0
-45 -22 -27 0
-810 701 -307 0
-640 -720 949 0
655 -881 782 0
-943 -249 -564 0
877 -455 -393 0
-583 458 -728 0
-69 410 608 0
167 -410 759 0
-986 -780 -555 0
150 -369 -312 0
-492 44 464 0
290 -823 568 0
-121 9 -453 0
860 -663 520 0
-932 706 -605 0
259 102 842 0
335 -715 -937 0
984 -56 814 0
155 547 -370 0
452 -510 -228 0
283 963 -3 0
-140 -522 -731 0
984 -415 -728 0
535 -773 230 0
503 -349 305 0
851 -736 295 0
-786 613 -720 0
577 551 -45 0
178 31 -688 0
-148 -323 156 0
-895 -222 133 0
-585 -690 368 0
216 -400 -315 0
322 414 146 0
307 -538 -373 0
-135 -729 -193 0
233 -900 404 0
-887 -581 309 0
226 989 619 0
452 376 958 0
551 -247 -991 0
-950 510 -74 0
555 993 142 0
-684 172 687 0
954 -484 168 0
378 -490 722 0
354 2 -551 0
185 -420 -590 0
-819 -4 -951 0
-833 -701 315 0
766 188 729 0
-224 -69 633 0
-290 -921 -567 0
176 -565 -896 0
161 468 -572 0
161 -817 -944 0
-787 643 717 0
678 459 161 0
-524 -694 802 0
72 642 -344 0
47 280 602 0
493 -673 903 0
439 -358 -31 0
-392 -469 862 0
443 -732 589 0
955 836 -204 0
-361 153 -886 0
227 874 864 0
570 553 434 0
102 -913 243 0
889 -637 131 0
-122 986 -483 0
892 -195 55 0
653 992 752 0
558 592 -861 0
675 -684 -840 0
-442 266 -762 0
523 -87 75 0
-377 -716 -628 0
529 692 408 0
-122 114 279 0
517 46 -49 0
708 170 -669 0
-747 -982 -64 0
-280 463 -382 0
781 970 -127 0
572 -878 -602 0
387 1000 -653 0
-126 -293 731 0
228 989 701 0
-746 -978 654 0
694 409 -840 0
-197 -607 977 0
-894 338 -483 0
841 28 -777 0
680 -588 -406 0
-82 745 -167 0
597 -616 -787 0
754 -869 269 0
-790 -188 -647 0
33 432 481 0
-999 939 987 0
310 121 237 0
366 419 -82 0
-634 -83 481 0
855 -297 752 0
-186 -938 -491 0
-87 -739 273 0
168 -307 249 0
123 -237 -718 0
-653 155 -208 0
915 -384 12 0
-473 -524 443 0
-897 276 -360 0
-728 -318 684 0
-991 -933 -869 0
-877 -279 -977 0
337 914 897 0
-410 -534 -7 0
-356 171 263 0
820 251 -430 0
-551 206 -684 0
643 36 -299 0
531 -458 -891 0
640 197 -851 0
-7 -391 504 0
107 171 410 0
113 -124 -723 0
-681 78 65 0
155 -996 952 0
-970 423 318 0
-181 -387 -969 0
917 891 27 0
504 -724 847 0
-301 223 813 0
681 -890 -825 0
-905 -887 -880 0
196 277 300 0
-628 127 -310 0
-594 -541 336 0
-340 904 -77 0
-287 5 66 0
926 631 586 0
-503 -762 623 0
321 441 -545 0
-442 -977 954 0
652 202 -302 0
-712 291 -969 0
178 -68 421 0
950 -144 -767 0
-400 824 632 0
-548 -229 -888 0
-217 -948 313 0
943 124 -668 0
433 -9 113 0
-577 674 126 0
374 -749 826 0
304 299 -717 0
-338 -521 300 0
-956 -716 -764 0
-930 634 356 0
-394 720 -861 0
-400 -972 -543 0
824 -797 162 0
-781 -757 -399 0
340 455 294 0
254 -726 -295 0
-323 403 -830 0
-532 403 -162 0
-898 694 -504 0
-517 788 -850 0
534 35 54 0
-563 131 617 0
878 229 -770 0
38 -898 -538 0
773 -312 195 0
-681 -763 526 0
447 -498 -136 0
-618 317 812 0
212 -187 563 0
-431 -490 -521 0
-243 -638 730 0
-164 362 811 0
-902 -673 -476 0
554 -265 -222 0
750 46 -159 0
191 -968 -934 0
260 -534 -809 0
118 237 491 0
-779 367 -741 0
-298 433 769 0
-68 -654 -303 0
625 -17 -216 0
-672 576 -644 0
-729 -810 90 0
-831 634 -309 0
-608 445 508 0
-960 700 287 0
-391 -876 -520 0
16 -572 688 0
-488 273 -556 0
-491 -124 -623 0
-329 328 969 0
981 403 -185 0
657 875 128 0
396 -224 -109 0
531 -914 -144 0
-668 -167 -137 0
791 -873 -4 0
-204 -736 -421 0
-768 -714 125 0
680 -643 -655 0
324 -197 -586 0
-228 -547 -578 0
-655 870 601 0
-107 -536 407 0
172 -809 -677 0
-453 -353 -147 0
-768 -426 -289 0
205 -15 -277 0
64 -118 -990 0
-267 -394 768 0
393 -928 -319 0
-792 471 948 0
763 311 -883 0
683 563 -420 0
-762 -7 51 0
-916 -421 -504 0
342 22 206 0
-376 220 928 0
-340 306 743 0
532 -66 954 0
34 -710 -236 0
652 -378 -189 0
-707 -518 160 0
349 -519 -719 0
-13 782 -851 0
717 -25 938 0
-216 382 -424 0
-641 384 618 0
-280 642 -787 0
-955 -641 -732 0
-421 -192 -269 0
829 179 -627 0
453 -142 -899 0
-899 89 -236 0
182 754 -808 0
432 966 -537 0
60 200 -740 0
572 703 -916 0
415 111 751 0
566 -459 -685 0
198 -531 -93 0
-981 -53 308 0
796 59 -478 0
-665 -508 99 0
-123 -95 483 0
-69 280 -127 0
681 -328 -995 0
-968 -272 307 0
-639 -409 -617 0
216 278 -822 0
-631 383 -158 0
-623 69 472 0
820 -784 704 0
-883 429 -378 0
768 -524 -803 0
-465 -495 -293 0
-352 49 619 0
898 -339 -927 0
-245 -661 -478 0
505 -343 -847 0
-155 -119 -387 0
256 720 480 0
218 -203 378 0
-597 272 562 0
252 157 259 0
-487 943 -769 0
76 -58 -215 0
-764 -992 -389 0
-200 658 726 0
373 319 -382 0
-57 -108 879 0
121 893 56 0
-310 836 480 0
-904 -308 828 0
-812 -895 802 0
47 307 719 0
-762 405 541 0
845 -401 73 0
-895 609 750 0
-965 835 -387 0
-657 -993 32 0
368 359 -184 0
428 -832 682 0
285 -636 934 0
-446 -548 -506 0
-10 -326 -622 0
496 165 320 0
575 -39 639 0
328 419 289 0
200 647 -786 0
-121 -665 -176 0
-687 633 -691 0
-306 -519 111 0
269 -314 349 0
470 751 -625 0
561 -560 938 0
-475 -554 -635 0
919 -815 313 0
450 113 -192 0
629 202 -236 0
-655 -153 -415 0
-377 489 861 0
-857 399 -23 0
-195 888 163 0
-134 734 166 0
712 821 -922 0
262 -388 793 0
376 603 -968 0
-232 -382 68 0
44 880 -808 0
-665 -345 -921 0
-691 -710 326 0
-55 75 -816 0
-37 162 -708 0
315 -29 700 0
870 -113 -106 0
-636 164 818 0
-262 155 853 0
-542 -940 497 0
999 221 434 0
-249 794 734 0
600 -67 360 0
696 157 -616 0
302 799 -883 0
507 265 787 0
-935 -19 210 0
-738 367 264 0
-75 -872 -761 0
-484 325 -851 0
460 -540 677 0
938 671 -754 0
-509 -690 -817 0
314 435 623 0
851 204 146 0
997 -659 467 0
-690 576 -279 0
978 100 -72 0
232 -620 408 0
-631 912 269 0
-161 -951 124 0
661 -751 824 0
-739 323 -730 0
809 391 -522 0
-1000 -73 -170 0
341 590 142 0
-628 193 467 0
467 796 60 0
378 -363 -879 0
158 -685 662 0
457 301 405 0
336 887 955 0
-299 -553 189 0
585 -573 -331 0
-340 470 -57 0
-24 880 813 0
-717 -904 765 0
-778 570 -394 0
-758 519 3 0
-33 288 37 0
-841 -532 -598 0
763 -389 914 0
537 -985 -645 0
-485 116 -843 0
-358 -41 -239 0
-261 -355 666 0
-880 -242 15 0
802 -180 271 0
24 498 -6 0
657 -698 -904 0
56 454 -911 0
948 341 -449 0
-122 124 -471 0
631 223 432 0
299 -5 763 0
-16 -146 521 0
-15 -250 173 0
-224 -804 602 0
-287 -44 735 0
558 -776 -3 0
-638 31 -91 0
990 721 -360 0
191 692 -453 0
840 991 401 0
264 74 664 0
-114 -997 502 0
53 -415 -96 0
922 -445 429 0
-307 -771 -108 0
284 5 351 0
-32 -983 211 0
227 845 -559 0
303 262 -628 0
414 -520 751 0
837 322 -372 0
-515 -584 619 0
-52 -171 555 0
884 90 -527 0
-752 314 -297 0
-4 842 -135 0
-854 -110 -727 0
112 -323 114 0
-918 279 593 0
-19 -187 146 0
391 427 312 0
466 192 -854 0
663 118 -548 0
815 409 -569 0
-805 225 -567 0
646 -213 -822 0
-212 -772 57 0
754 937 219 0
-550 -909 -836 0
-420 -243 910 0
217 89 97 0
392 -382 -143 0
-196 106 302 0
502 171 -15 0
-531 40 -122 0
-256 -152 -502 0
-302 -920 304 0
882 -655 -547 0
-670 472 -227 0
-561 837 -484 0
-938 -877 -708 0
460 -441 553 0
-278 -200 639 0
-891 697 -156 0
655 530 -939 0
-717 -987 -609 0
25 950 627 0
-827 820 594 0
913 832 -419 0
-341 975 34 0
-355 -581 652 0
-10 -26 -581 0
722 -509 662 0
325 186 316 0
422 464 -749 0
-780 -483 -45 0
-574 415 57 0
-985 897 339 0
888 397 909 0
631 -342 247 0
330 -168 -958 0
798 459 -620 0
-527 447 187 0
392 874 936 0
133 302 -312 0
-313 142 970 0
654 607 840 0
-370 341 -477 0
-199 -308 227 0
553 97 -667 0
6 818 -805 0
304 395 -104 0
-10 411 -391 0
-985 -460 856 0
490 737 281 0
-734 640 -870 0
803 226 723 0
-792 88 40 0
-422 554 -558 0
330 -852 -529 0
-791 444 -712 0
892 578 -302 0
-681 -94 -213 0
433 -141 -174 0
700 727 -110 0
248 328 -740 0
-717 712 733 0
-742 -917 -144 0
542 -510 -175 0
-288 -426 -477 0
-630 -472 500 0
-105 935 342 0
261 537 -378 0
-151 -327 -560 0
-297 5 537 0
-162 643 -253 0
-337 776 -25 0
-810 236 320 0
421 981 -328 0
34 465 188 0
-730 -859 -86 0
299 479 182 0
600 911 388 0
107 861 -314 0
-626 706 887 0
-674 94 -625 0
370 991 -155 0
235 -553 -240 0
-482 -599 -54 0
-925 -682 -814 0
-360 -100 -49 0
-900 -725 88 0
148 -868 -613 0
-177 512 -659 0
-690 986 -226 0
840 597 -16 0
-59 -728 206 0
-242 -858 -687 0
929 -553 -585 0
-231 -590 242 0
-760 503 9 0
409 898 268 0
321 833 -197 0
-313 -11 873 0
-803 -597 125 0
-924 -184 860 0
-178 371 -684 0
-491 275 682 0
-571 238 905 0
-444 839 -41 0
-392 -53 -55 0
320 -234 -416 0
-228 451 909 0
-827 -741 367 0
-311 -107 -278 0
-80 208 551 0
-950 -63 -114 0
586 847 -475 0
844 639 -104 0
56 864 423 0
-221 -799 250 0
-27 -467 148 0
-602 220 -21 0
-655 574 873 0
609 898 -489 0
-851 -729 330 0
-690 -161 -438 0
373 561 -843 0
-898 71 292 0
-778 -415 810 0
599 891 -489 0
437 427 -460 0
-49 178 652 0
628 322 670 0
273 493 766 0
147 607 913 0
-608 -78 537 0
-248 -520 710 0
-696 -606 -632 0
-569 -873 845 0
16 -132 418 0
120 -731 -904 0
769 -297 443 0
-287 -807 -238 0
-325 -901 788 0
56 795 -801 0
439 -34 -661 0
586 -306 -309 0
-866 -454 347 0
-88 -950 504 0
-464 -48 -869 0
88 531 -222 0
-978 -227 -850 0
-140 905 -134 0
-425 252 126 0
-721 902 265 0
739 -102 100 0
279 -695 -396 0
709 624 352 0
-971 235 -348 0
-702 486 -640 0
38 -902 734 0
778 -29 -712 0
-66 767 101 0
-211 -677 -293 0
-448 249 762 0
-796 715 -467 0
241 -4 -398 0
236 -656 906 0
214 465 577 0
677 278 -949 0
-856 904 -522 0
513 -306 1000 0
252 954 618 0
97 -469 -721 0
-413 -120 -589 0
-624 -783 500 0
957 95 -664 0
928 -259 -802 0
167 -466 -212 0
-959 -436 955 0
-427 -736 -483 0
924 451 -497 0
-911 -124 541 0
560 -449 -970 0
-974 -887 723 0
-57 -957 1 0
-222 -2 667 0
-207 403 825 0
73 -819 -77 0
-792 -328 -172 0
202 -46 -852 0
88 -292 -205 0
-437 43 -663 0
-709 979 -632 0
-436 -831 -802 0
-682 -105 -227 0
-293 -330 -948 0
3 928 753 0
-495 -906 -881 0
-379 186 -86 0
-972 638 887 0
-108 78 -325 0
-441 206 -136 0
-872 158 -871 0
-302 -639 -517 0
519 654 -609 0
330 -874 549 0
197 639 948 0
747 -27 91 0
280 554 938 0
312 646 969 0
195 -776 646 0
-445 -653 -318 0
-266 -462 -98 0
-623 -142 -508 0
-21 -525 265 0
691 86 290 0
-928 -568 -738 0
-343 593 906 0
209 260 785 0
856 920 550 0
-262 215 612 0
17 510 -950 0
628 705 624 0
-567 -846 -379 0
-427 -435 -900 0
914 398 -430 0
-276 -116 -158 0
-715 191 -18 0
-487 447 986 0
-672 -94 -504 0
112 -290 19 0
-607 -117 -720 0
-314 -221 -19 0
936 -763 541 0
-479 -904 -570 0
190 40 -223 0
633 -396 534 0
-794 -472 -814 0
-726 -937 6 0
-158 -105 123 0
984 228 599 0
551 -457 306 0
917 562 953 0
-857 -337 -223 0
-291 594 384 0
11 -87 263 0
-250 215 734 0
797 -619 979 0
458 702 -728 0
648 324 -776 0
-456 89 -435 0
-952 428 -79 0
-171 115 -337 0
41 208 366 0
830 613 -790 0
771 -67 -967 0
-458 -592 451 0
-170 672 516 0
677 459 -329 0
-339 3 -274 0
62 -172 307 0
-240 101 -711 0
567 -503 79 0
979 -283 262 0
461 -274 -219 0
645 357 239 0
583 -853 -980 0
596 188 -654 0
393 568 898 0
-681 -660 960 0
-141 -683 984 0
-272 449 -652 0
-638 895 248 0
-632 -207 23 0
-858 295 -354 0
-367 819 -426 0
-296 -681 597 0
606 -962 -698 0
70 200 560 0
855 625 -942 0
697 -252 120 0
-192 -388 -1000 0
-343 990 734 0
15 -415 -277 0
-614 243 936 0
63 378 -962 0
363 -238 47 0
660 712 477 0
413 578 597 0
28 743 -557 0
758 -686 -502 0
-764 819 -600 0
-837 -984 -407 0
-250 -427 -346 0
-322 -352 984 0
506 -949 827 0
97 -757 -435 0
-423 -192 -934 0
647 -76 370 0
-548 -625 102 0
-600 -589 225 0
25 397 748 0
387 -715 145 0
518 400 -653 0
-659 -683 -157 0
186 805 -574 0
555 987 857 0
398 360 -613 0
-484 867 -104 0
393 -391 378 0
424 -311 -765 0
-664 781 829 0
-641 783 -725 0
-516 71 313 0
384 894 697 0
-803 736 389 0
828 -488 843 0
180 942 -382 0
491 708 335 0
741 245 -400 0
658 740 673 0
-39 675 363 0
814 74 -617 0
209 -298 50 0
173 84 132 0
871 -104 386 0
-97 76 -648 0
613 42 -877 0
835 -170 -263 0
-387 -263 -503 0
261 331 -688 0
444 185 8 0
-827 480 815 0
102 299 -366 0
749 -150 73 0
650 705 -803 0
470 -374 -416 0
716 324 -153 0
-792 707 -109 0
387 -475 -225 0
-559 -342 960 0
-807 597 -9 0
469 463 -45 0
-186 -884 619 0
-408 -303 54 0
377 880 -530 0
35 -361 -200 0
-509 540 593 0
-709 -442 -889 0
513 90 -105 0
756 -627 264 0
-695 -503 -309 0
-708 -364 -664 0
-435 -411 -713 0
-183 460 353 0
139 246 -998 0
-296 -417 -242 0
820 6 726 0
-90 513 -543 0
762 137 -279 0
659 -179 526 0
-96 483 604 0
-273 255 330 0
-957 -41 407 0
-132 716 -55 0
-166 -364 -86 0
-299 -719 524 0
-634 -460 329 0
-108 22 19 0
-465 990 313 0
845 -946 -282 0
-302 -383 -201 0
529 -286 -619 0
-451 -640 -943 0
330 151 438 0
-104 280 -644 0
288 -626 627 0
454 -566 181 0
343 247 424 0
-259 65 -468 0
653 -542 435 0
-557 -984 414 0
221 872 -339 0
140 490 155 0
949 943 800 0
290 -37 893 0
677 -147 613 0
444 -149 -13 0
482 -605 550 0
-568 -768 985 0
-544 82 142 0
-303 137 628 0
833 -821 -998 0
569 -567 -47 0
276 270 692 0
-665 204 234 0
237 -49 751 0
-111 431 748 0
-82 229 -703 0
396 -670 223 0
-420 -733 -845 0
34 -699 -460 0
318 -184 -268 0
-631 768 254 0
-376 -793 818 0
-870 879 851 0
437 396 677 0
92 538 -814 0
-568 166 -627 0
502 943 979 0
-331 -392 418 0
-436 -254 -399 0
-385 598 -685 0
526 -157 461 0
-122 -644 664 0
181 269 -711 0
-971 -299 359 0
-438 846 559 0
64 246 116 0
468 870 373 0
911 -507 569 0
602 358 357 0
-609 -499 423 0
-751 -405 -46 0
973 670 -450 0
-828 -644 388 0
32 746 16 0
498 -398 1000 0
-392 -936 -534 0
438 892 209 0
-122 658 180 0
-34 -433 944 0
392 -487 209 0
-471 809 -178 0
566 -30 -516 0
-350 123 35 0
468 -363 -500 0
-612 585 -78 0
941 -477 283 0
-505 194 793 0
320 -703 -238 0
765 968 -26 0
144 -171 94 0
-362 936 459 0
-33 -380 -551 0
606 979 -47 0
698 612 -489 0
132 652 -952 0
963 -195 872 0
-294 77 -519 0
-163 762 690 0
-751 -762 119 0
699 818 891 0
-849 -197 659 0
776 -908 506 0
-630 -29 -447 0
-684 -442 -160 0
654 -274 -177 0
-537 -448 -192 0
152 -925 -182 0
208 -755 669 0
493 -24 -774 0
-574 -711 -433 0
-886 283 -148 0
14 267 -873 0
-757 -466 -115 0
968 198 443 0
404 -780 -379 0
-1 -113 -33 0
740 -704 -31 0
842 90 -230 0
933 556 889 0
38 31 -220 0
-969 -206 -779 0
-712 402 59 0
841 -282 546 0
-141 921 40 0
522 -717 -453 0
-845 806 -84 0
863 642 -852 0
185 -877 377 0
-605 -346 -330 0
-219 -292 -628 0
12 949 -153 0
134 152 -902 0
931 -624 -147 0
894 698 607 0
-103 -825 -965 0
275 -956 152 0
788 91 161 0
462 -97 554 0
655 150 24 0
-851 915 82 0
-614 -9 167 0
-557 -601 555 0
343 61 452 0
781 -229 -299 0
73 51 2 0
-266 221 -486 0
107 -715 672 0
-477 906 305 0
-62 -672 510 0
922 683 -562 0
972 484 942 0
987 -629 941 0
-614 -678 316 0
-929 571 -965 0
-583 813 749 0
742 -143 733 0
480 -215 439 0
-700 -434 -87 0
463 -444 465 0
675 -558 -907 0
-604 -417 990 0
-941 -731 621 0
-977 31 -234 0
490 -810 754 0
-123 -903 184 0
920 -721 -506 0
-511 -558 361 0
-202 468 -711 0
231 150 -220 0
889 -450 524 0
47 -96 -834 0
-443 826 69 0
110 507 895 0
-932 813 -159 0
-717 301 744 0
-534 -818 9 0
-963 -113 -448 0
-269 -467 406 0
541 129 954 0
-830 -998 -598 0
484 -320 -72 0
-130 -212 -423 0
460 -472 -183 0
608 -512 -987 0
948 -23 -96 0
953 -772 798 0
191 606 49 0
146 -915 670 0
-158 54 74 0
-776 319 -538 0
69 230 9 0
637 -194 -59 0
766 611 -739 0
-478 -979 -660 0
200 325 678 0
270 -469 721 0
-792 313 406 0
-882 251 -744 0
673 -608 631 0
-606 -11 95 0
-850 846 -95 0
-174 544 420 0
500 -506 892 0
236 569 281 0
-929 895 709 0
-303 -905 -944 0
533 -279 756 0
891 -886 -774 0
240 992 -583 0
-605 -920 -380 0
-901 687 -314 0
-753 -631 561 0
31 -792 984 0
234 -813 174 0
436 403 326 0
-237 145 -208 0
-96 231 -526 0
509 114 246 0
551 24 493 0
623 99 115 0
-311 -413 -948 0
659 -924 -516 0
60 326 -452 0
-518 248 -452 0
272 899 348 0
-899 -138 -575 0
-360 -280 43 0
-600 -337 -31 0
-957 -302 377 0
-654 716 130 0
-705 32 468 0
-281 412 811 0
156 497 -298 0
103 779 -308 0
-204 711 904 0
-479 -707 -19 0
979 568 19 0
-321 257 -416 0
-953 122 376 0
-822 489 335 0
515 864 890 0
-431 189 -188 0
1000 690 716 0
-303 134 -596 0
477 705 -350 0
358 -776 244 0
746 960 215 0
734 141 724 0
749 205 -103 0
639 -2 -806 0
157 419 -570 0
-159 842 963 0
589 88 848 0
-863 -342 -406 0
-355 -87 534 0
433 -677 -834 0
864 -661 -351 0
571 -232 -446 0
850 271 -446 0
815 -580 -704 0
475 -908 118 0
-499 -96 170 0
897 692 -264 0
-816 -934 -115 0
-358 -259 861 0
-918 177 838 0
603 753 -256 0
120 26 329 0
-220 975 239 0
-62 634 -830 0
-471 -478 -809 0
747 -461 204 0
-391 772 40 0
119 553 160 0
873 962 -447 0
950 590 -550 0
-988 -444 678 0
454 -562 25 0
548 -641 -405 0
-484 835 923 0
468 57 464 0
-471 -105 235 0
239 -517 441 0
-130 797 115 0
897 -454 433 0
526 -75 -462 0
825 -84 -748 0
796 -283 477 0
256 183 -979 0
-958 -89 -712 0
-982 878 15 0
-735 113 -354 0
-588 152 -190 0
-142 -50 873 0
822 -791 321 0
20 187 -266 0
314 -553 -414 0
-138 -487 -30 0
490 211 866 0
34 450 -430 0
-481 -658 44 0
-851 25 51 0
-291 -410 433 0
848 777 -806 0
-808 -678 731 0
-575 457 79 0
-984 -784 696 0
-569 -741 918 0
-275 543 745 0
-343 -993 911 0
-601 -871 524 0
936 -731 980 0
-625 790 -891 0
-529 -728 -753 0
-73 -38 -309 0
70 -909 245 0
349 -236 -791 0
29 -993 853 0
-688 -1 -133 0
-561 -520 -154 0
-507 472 320 0
249 384 -860 0
-293 574 164 0
886 -758 -37 0
14 259 53 0
201 -116 -502 0
-819 356 -240 0
-305 185 -164 0
-265 285 336 0
92 -445 -590 0
96 -85 -849 0
-202 935 280 0
396 -407 522 0
-482 -711 608 0
487 -274 700 0
-504 -928 139 0
547 629 -334 0
86 -454 -591 0
572 221 -503 0
-396 -763 749 0
-906 323 -859 0
232 327 -221 0
54 -873 934 0
221 839 176 0
-215 16 -597 0
-620 -107 -174 0
-412 -43 408 0
697 -267 28 0
-422 -553 -187 0
13 548 -571 0
681 -977 628 0
-349 244 363 0
-682 -467 -621 0
291 919 -490 0
464 478 -535 0
-379 409 423 0
-577 -348 460 0
-747 -43 -25 0
-446 -558 431 0
131 -723 529 0
-642 1000 713 0
723 -418 109 0
-30 -457 -610 0
-916 -849 -430 0
863 -357 789 0
410 -621 -47 0
513 711 -907 0
-530 -410 615 0
336 -402 983 0
385 -825 -529 0
-226 624 -623 0
285 -907 -497 0
833 142 -976 0
435 -749 515 0
-969 -630 43 0
-878 -607 595 0
211 -68 371 0
-413 -148 -684 0
66 -117 -546 0
-278 -205 928 0
385 -186 526 0
410 -439 756 0
539 320 -584 0
467 729 154 0
-905 839 62 0
802 -931 141 0
720 373 202 0
-289 237 -582 0
265 381 -241 0
494 -801 473 0
-254 408 -975 0
169 -807 865 0
622 -345 -26 0
631 -592 -760 0
-298 -815 -595 0
503 96 -324 0
192 740 152 0
954 263 -318 0
401 532 -255 0
-772 330 269 0
905 709 -995 0
-698 -61 -37 0
263 733 702 0
972 564 -758 0
981 199 -97 0
506 458 -362 0
613 -953 638 0
-311 -500 -389 0
855 -924 17 0
-177 -590 978 0
-818 -721 794 0
-769 206 340 0
-193 -430 486 0
168 473 6 0
-17 91 393 0
899 -47 -333 0
756 -805 559 0
972 947 149 0
159 554 -61 0
-156 21 525 0
575 87 -107 0
12 317 -762 0
2 86 919 0
-520 -316 41 0
540 -76 -848 0
-814 512 970 0
623 247 -433 0
-536 339 -853 0
85 -537 -196 0
268 569 -481 0
-871 171 -410 0
248 122 -134 0
-929 -147 -861 0
-822 -604 4 0
403 387 -933 0
-138 -278 -607 0
403 689 763 0
-980 -143 -662 0
-723 -678 926 0
975 61 -642 0
-882 584 898 0
-442 764 706 0
397 672 -82 0
-224 -123 -255 0
-28 193 -242 0
876 300 -704 0
68 396 499 0
231 -889 711 0
-535 -365 663 0
-431 -476 809 0
930 -931 128 0
-389 -262 53 0
-132 -103 423 0
117 -309 -370 0
-580 500 191 0
878 784 83 0
760 492 733 0
-453 -189 -137 0
237 -251 602 0
923 631 821 0
156 589 117 0
401 -49 -871 0
-80 -158 -228 0
-65 -718 653 0
-800 374 450 0
-441 759 -812 0
309 -402 590 0
618 -53 433 0
619 -248 -340 0
-649 832 -651 0
803 -883 449 0
-144 -475 -60 0
655 -741 71 0
55 927 -682 0
-464 783 -274 0
-503 171 722 0
-312 795 -881 0
-576 -675 376 0
-180 -479 -166 0
-362 -384 949 0
-517 -515 -626 0
735 166 -710 0
429 -338 689 0
863 402 800 0
4 206 -127 0
617 -305 -387 0
185 -503 -292 0
560 -43 -515 0
642 44 -439 0
152 -298 653 0
-986 583 816 0
767 103 107 0
115 -648 85 0
-969 -513 -66 0
-421 824 -504 0
-430 -704 253 0
683 -484 917 0
772 506 -7 0
-391 -538 164 0
815 930 42 0
-653 -647 -50 0
-749 690 -879 0
-722 -145 -715 0
290 -855 -982 0
-816 451 269 0
-704 -948 249 0
514 -907 -932 0
801 594 -171 0
681 -289 -517 0
-218 162 -709 0
995 707 85 0
-97 55 406 0
-675 413 -914 0
24 135 -960 0
977 -321 251 0
94 -937 -47 0
878 422 893 0
517 448 -423 0
-895 -967 244 0
-53 924 -811 0
347 -248 -520 0
804 -33 -958 0
-794 -475 533 0
-951 -903 420 0
736 380 395 0
302 -280 -686 0
-980 552 -51 0
-47 -775 86 0
-569 -127 -664 0
657 248 -443 0
732 -926 -632 0
36 777 -855 0
747 -543 -726 0
420 807 832 0
104 -336 372 0
741 -881 333 0
801 737 -605 0
-630 718 -93 0
-641 493 -849 0
120 691 335 0
-376 773 327 0
943 -118 -702 0
258 -879 779 0
-871 121 -876 0
-435 533 634 0
-170 749 476 0
626 583 906 0
734 446 -965 0
434 473 -920 0
112 761 -696 0
-18 -383 990 0
-363 993 -855 0
-235 -952 -161 0
522 -376 29 0
-914 463 -822 0
396 951 -857 0
901 -395 629 0
-731 739 -407 0
-214 -149 -916 0
-568 -953 -773 0
-117 -339 842 0
203 -262 103 0
364 959 -903 0
-92 -84 487 0
-63 476 222 0
481 764 725 0
-673 783 667 0
-661 -127 -835 0
-885 279 -680 0
491 246 -244 0
-952 -177 -32 0
-655 304 -175 0
281 -656 -301 0
-628 -919 435 0
830 -139 -58 0
-957 131 -624 0
-411 -280 -520 0
304 670 236 0
-387 525 923 0
-119 990 -19 0
-19 -64 583 0
777 524 -164 0
-363 729 -952 0
942 45 596 0
-346 620 -134 0
-998 872 881 0
182 -589 -309 0
997 -794 -166 0
346 -694 -99 0
-164 -732 386 0
-68 766 -343 0
-9 201 419 0
353 364 413 0
782 476 371 0
-605 677 -189 0
-973 828 639 0
-582 868 70 0
-769 -715 -480 0
538 -355 -847 0
-843 810 327 0
-620 -113 -724 0
978 -592 -305 0
561 -948 660 0
1000 353 838 0
-173 -722 -316 0
-144 -2 855 0
-155 -437 -979 0
-681 386 574 0
855 35 470 0
173 -465 -434 0
-257 864 303 0
152 -856 612 0
-947 -60 5 0
-931 -870 594 0
71 -680 904 0
289 -892 -926 0
30 -329 418 0
-542 -375 218 0
653 435 804 0
562 349 -250 0
510 -520 -291 0
922 -341 997 0
-414 -649 208 0
376 868 57 0
224 -609 445 0
-981 928 38 0
762 57 -613 0
705 -52 472 0
-889 -786 -135 0
160 133 88 0
-523 650 -856 0
-546 609 859 0
-529 516 -333 0
5 371 384 0
991 -128 541 0
-342 -1000 844 0
-602 691 -43 0
865 -162 -518 0
-811 984 378 0
985 -688 279 0
971 -180 806 0
571 293 -292 0
119 698 -888 0
557 -538 -452 0
-381 825 -205 0
-41 369 990 0
157 393 -502 0
334 -312 -965 0
201 -875 316 0
-673 -618 -44 0
228 873 832 0
-201 875 712 0
-452 14 -680 0
935 -705 939 0
-971 -14 942 0
499 -470 550 0
-181 943 213 0
947 -921 -557 0
-272 99 128 0
346 73 443 0
-670 410 -931 0
-999 -756 -653 0
-728 408 618 0
46 -926 -895 0
-772 -95 -317 0
-369 -284 -535 0
239 -361 980 0
975 -208 133 0
-811 199 -339 0
-870 597 966 0
132 -409 518 0
-129 207 -830 0
928 -872 377 0
-612 35 41 0
298 939 587 0
504 942 -17 0
839 -710 635 0
-512 430 615 0
138 616 -574 0
-612 -98 963 0
944 -406 -840 0
-123 -660 -639 0
-493 -186 375 0
-866 96 324 0
-777 -178 -710 0
-51 707 -423 0
-808 841 85 0
398 411 243 0
493 471 -544 0
956 -290 -529 0
-162 -170 557 0
-705 -174 -166 0
-653 -685 490 0
182 302 740 0
649 582 -208 0
605 -375 465 0
589 -42 -758 0
86 412 -758 0
-187 93 156 0
581 -456 -124 0
225 -135 -516 0
745 574 435 0
881 732 -874 0
-453 -825 -186 0
-846 -466 539 0
-461 333 83 0
-687 34 -459 0
-530 265 -430 0
252 -958 223 0
-184 -323 -767 0
429 613 -981 0
-54 -258 807 0
565 847 -379 0
-250 83 148 0
-397 968 384 0
278 -307 -402 0
-409 -581 48 0
-18 840 368 0
-746 695 -329 0
-35 -674 496 0
-123 133 384 0
937 737 614 0
-58 -17 -590 0
-8 78 48 0
-383 669 179 0
-340 -956 50 0
259 710 -803 0
424 769 -592 0
-27 -163 -599 0
678 325 -3 0
306 -380 644 0
-552 451 -499 0
-467 748 -395 0
-693 -438 835 0
649 -992 -502 0
-465 -541 -14 0
-865 -446 -592 0
48 -242 63 0
-286 859 -981 0
816 244 -715 0
-122 126 -555 0
84 -366 -442 0
-924 -189 -954 0
-422 852 280 0
-721 421 340 0
-133 -287 980 0
-702 565 149 0
617 705 -270 0
-305 447 242 0
258 409 -187 0
-515 194 -122 0
-547 702 831 0
905 917 -504 0
730 -618 -839 0
810 -597 188 0
575 -410 611 0
883 -102 586 0
322 849 -47 0
-376 -797 622 0
-800 -459 -917 0
874 -996 997 0
214 910 383 0
-816 -689 -890 0
-38 183 -361 0
-732 671 -83 0
187 294 -350 0
190 421 -969 0
-550 -884 -711 0
-407 689 716 0
-713 279 -86 0
-442 -24 580 0
301 -609 -407 0
896 132 617 0
-789 -817 640 0
601 891 621 0
-389 -965 945 0
-194 212 -44 0
704 -480 602 0
-432 591 -372 0
192 -506 640 0
688 -242 770 0
187 673 901 0
257 -314 -351 0
132 -883 821 0
-941 662 -795 0
488 117 3 0
799 -505 324 0
-573 -519 948 0
742 505 -986 0
681 309 -907 0
720 -508 -443 0
-175 598 115 0
955 -612 -597 0
454 978 367 0
665 104 253 0
-110 -529 932 0
-918 -39 749 0
312 -350 637 0
-814 166 36 0
-929 618 -945 0
-971 763 157 0
410 -147 668 0
501 887 725 0
128 -378 -381 0
136 -781 324 0
848 909 309 0
-613 7 40 0
343 -258 179 0
262 -918 819 0
-218 -960 93 0
984 181 -221 0
-930 438 697 0
926 -638 -299 0
-14 522 -612 0
49 -191 -559 0
-662 131 170 0
920 587 -179 0
-167 -941 731 0
155 225 331 0
854 226 -180 0
258 710 463 0
-653 -533 29 0
382 -511 676 0
751 286 -470 0
-320 -60 675 0
891 -403 -831 0
-15 -75 -262 0
-230 813 -438 0
-608 -307 416 0
843 -804 -236 0
-782 751 -559 0
60 -107 -320 0
535 -702 -729 0
-352 859 -345 0
-179 -250 -259 0
-290 259 -891 0
941 472 182 0
-59 -104 -584 0
-246 -166 862 0
-243 -745 -982 0
613 376 -823 0
990 912 461 0
717 763 -792 0
426 -938 -865 0
24 644 -250 0
227 78 577 0
854 -657 -26 0
48 -758 942 0
-516 -263 62 0
82 161 813 0
-805 655 -827 0
-999 -188 173 0
298 -265 387 0
726 632 -389 0
-951 382 278 0
320 -191 854 0
-790 -744 590 0
-597 943 478 0
-404 -610 751 0
671 853 -482 0
-4 -977 -704 0
-518 -571 878 0
-539 229 714 0
-300 -271 -127 0
819 -95 -198 0
531 322 164 0
828 -923 -647 0
683 -543 -372 0
386 722 -22 0
159 456 -45 0
-277 -981 879 0
640 933 506 0
613 253 -107 0
876 -84 954 0
-291 169 765 0
110 575 430 0
600 -470 973 0
255 -694 578 0
425 -866 -449 0
888 -932 -367 0
371 -689 -916 0
-604 -37 592 0
929 -361 45 0
239 -511 -900 0
419 -282 873 0
-455 644 752 0
-848 -232 871 0
-465 447 -213 0
-375 -320 -34 0
-562 -892 240 0
-311 -294 629 0
-666 435 -388 0
-447 -290 651 0
