p cnf 100 250
-44 15 22 0
-94 14 58 0
-15 -90 -57 0
-78 -44 93 0
33 -49 -41 0
-52 -98 -20 0
80 38 -81 0
-64 -46 12 0
-22 24 81 0
10 63 -90 0
-64 -82 -58 0
-97 6 57 0
-33 81 12 0
55 9 45 0
-15 61 -24 0
-66 -45 -42 0
-45 62 -6 0
13 11 2 0
-19 5 -20 0
3 36 30 0
16 -66 72 0
16 -86 11 0
18 13 -33 0
44 91 2 0
-25 76 -39 0
-69 -95 -17 0
6 79 -99 0
-29 -24 -94 0
-20 -60 -54 0
80 -100 -62 0
-14 78 -61 0
-49 1 -60 0
19 46 67 0
-35 21 -79 0
20 -61 -52 0
16 -85 -8 0
-91 -97 60 0
73 68 3 0
53 80 10 0
-23 -59 -83 0
-94 -76 -45 0
-49 -41 34 0
-49 -35 67 0
82 -13 74 0
50 -80 87 0
-64 37 4 0
-10 26 -78 0
-10 -60 79 0
-64 69 31 0
-65 68 69 0
19 90 -50 0
97 -46 81 0
-22 -2 76 0
-62 79 -24 0
-87 -25 1 0
-33 61 26 0
-72 -36 68 0
94 -21 15 0
92 -27 -41 0
-63 -95 66 0
37 43 99 0
54 35 -19 0
67 3 4 0
-37 34 1 0
-58 20 -62 0
24 -72 -23 0
-24 74 69 0
93 90 5 0
-29 -15 -83 0
15 10 -8 0
6 80 -66 0
-81 98 3 0
55 13 -18 0
20 40 -7 0
-44 -91 -95 0
-60 -95 3 0
-66 19 -64 0
-80 17 8 0
-44 89 -35 0
-33 36 -1 0
95 -54 61 0
-86 47 24 0
-37 -64 -4 0
35 -59 45 0
-21 -8 66 0
32 -93 56 0
-57 -91 -75 0
3 -27 43 0
-98 33 76 0
-83 -12 32 0
55 15 67 0
48 65 -10 0
29 -64 84 0
-1 88 21 0
-80 -88 -39 0
-92 34 98 0
-23 -25 27 0
49 100 83 0
-94 -27 13 0
83 -96 90 0
34 49 8 0
-69 21 -30 0
-21 -55 -29 0
7 22 -61 0
72 -95 94 0
-60 5 59 0
-56 -81 -72 0
56 -43 -31 0
-13 -90 39 0
31 -96 95 0
97 -57 16 0
97 69 13 0
32 5 2 0
-78 -69 64 0
54 -34 -32 0
62 -55 51 0
27 48 41 0
49 -56 -62 0
39 -15 100 0
-74 -75 25 0
67 -85 -47 0
-68 64 34 0
-64 20 15 0
55 37 91 0
-56 -57 31 0
-53 79 88 0
72 -27 -59 0
34 -62 -94 0
-37 54 49 0
-87 90 -83 0
-73 -12 75 0
-13 -22 41 0
-100 -57 -27 0
-27 19 -93 0
-81 22 15 0
17 22 -60 0
-1 83 -91 0
98 -97 56 0
63 -90 16 0
-78 -76 16 0
-54 92 19 0
38 -71 82 0
-64 -69 -99 0
20 18 -92 0
-56 -17 -54 0
87 8 -73 0
91 -25 4 0
-33 59 -62 0
-73 -28 -39 0
100 -96 -80 0
39 -3 34 0
-17 21 83 0
2 -48 -89 0
-12 25 -97 0
46 62 47 0
15 14 51 0
-99 29 14 0
-18 49 17 0
-41 19 -33 0
66 54 -45 0
28 -47 -94 0
64 2 84 0
-79 -77 -72 0
-66 -12 18 0
-65 -15 -53 0
-17 -81 67 0
72 54 52 0
-47 72 -19 0
-27 36 58 0
-78 73 -95 0
65 -57 14 0
97 11 -43 0
-3 -63 -60 0
-60 -100 57 0
-6 -13 -78 0
-71 -49 -7 0
-31 -87 -22 0
94 -75 44 0
8 -12 -7 0
-12 -8 19 0
58 -40 -52 0
-77 97 -14 0
72 17 -88 0
60 70 -66 0
-27 68 -2 0
91 -21 82 0
-90 30 44 0
85 31 -99 0
-75 -66 -44 0
-42 -94 21 0
-40 -12 59 0
18 -16 -19 0
-62 -83 10 0
-96 3 -20 0
61 -72 68 0
-28 6 72 0
11 -100 -8 0
78 81 24 0
97 -68 -50 0
-50 26 -55 0
-66 -17 8 0
-55 -61 -71 0
-87 39 37 0
-97 22 -64 0
-8 -69 -82 0
65 -7 -81 0
77 -8 3 0
29 50 39 0
-11 38 6 0
-47 -90 3 0
81 96 72 0
-31 27 -84 0
-21 50 -69 0
2 -41 77 0
15 -73 34 0
-79 -14 61 0
-91 100 64 0
-11 78 27 0
35 21 -29 0
2 -92 -84 0
60 70 -30 0
87 7 65 0
4 3 94 0
96 -97 -8 0
80 -62 48 0
-42 38 -68 0
14 -46 -52 0
45 70 43 0
5 -9 39 0
-97 74 40 0
-68 80 51 0
19 -89 82 0
35 -20 39 0
57 -100 -70 0
-78 -57 -91 0
66 -67 -38 0
24 39 -29 0
4 -37 -20 0
-73 15 72 0
93 -76 97 0
-41 -35 13 0
-7 -76 88 0
91 50 -75 0
-20 14 -60 0
36 -60 46 0
-89 -63 33 0
-90 -14 5 0
91 -56 -42 0
-34 -78 -31 0
-49 -14 5 0
