p cnf 500 2475
448 -303 -301 0
-261 -190 -368 0
-443 50 -374 0
107 16 -46 0
143 -220 402 0
123 241 410 0
249 233 239 0
-137 -146 418 0
54 153 -77 0
-290 -455 273 0
54 249 -62 0
-33 -25 -352 0
205 238 59 0
-310 420 -198 0
-386 -153 -223 0
-393 -402 -389 0
453 293 152 0
198 429 283 0
-155 -418 -181 0
471 199 355 0
-253 285 493 0
116 -270 50 0
-354 283 146 0
-25 369 366 0
-249 142 -36 0
-343 19 -465 0
-405 -101 -200 0
-267 -336 201 0
-223 112 -183 0
-498 316 100 0
-357 -418 249 0
255 162 -388 0
-460 77 -26 0
-77 -382 -180 0
373 308 -287 0
355 -132 363 0
33 224 -12 0
-456 -435 452 0
-254 416 189 0
219 -237 218 0
-124 -376 148 0
-209 59 -328 0
-360 -75 50 0
130 70 -42 0
-484 -407 178 0
140 -100 154 0
-378 -297 369 0
-279 407 10 0
-280 175 236 0
-486 -61 182 0
326 171 -433 0
-281 -164 -415 0
-404 415 -325 0
-451 -126 355 0
-210 465 -482 0
350 -451 -81 0
-149 94 -46 0
57 -174 352 0
54 -210 397 0
-387 -106 478 0
-445 106 20 0
-460 -236 342 0
381 -32 -384 0
179 -172 -58 0
224 326 270 0
-123 380 -322 0
-388 -84 -500 0
412 74 229 0
244 90 -485 0
-473 92 23 0
-171 381 457 0
211 -59 -280 0
-31 494 147 0
397 -60 441 0
-261 107 269 0
347 -183 51 0
90 -276 289 0
-217 38 377 0
107 130 -263 0
-238 -306 344 0
-63 -216 -178 0
-288 -429 -31 0
-119 107 -274 0
357 -156 -428 0
67 -63 492 0
15 203 180 0
366 -65 9 0
-458 -289 312 0
418 75 -110 0
387 -358 419 0
30 347 -338 0
466 308 -25 0
-263 475 -190 0
66 285 79 0
-237 -193 133 0
171 -346 261 0
-272 437 178 0
126 -159 -450 0
-291 -189 -419 0
-16 -342 379 0
-304 85 -70 0
281 244 -115 0
-101 -273 -380 0
238 -250 382 0
222 -487 -390 0
-247 -191 375 0
-483 34 -177 0
125 349 179 0
433 267 102 0
-268 275 -190 0
397 -475 452 0
387 14 241 0
-304 -232 -358 0
-49 438 334 0
89 -416 -413 0
314 65 388 0
-301 208 36 0
236 264 129 0
91 -377 -85 0
325 178 213 0
366 -423 284 0
50 333 321 0
-356 -348 98 0
217 -262 42 0
-242 -416 -418 0
-105 196 -494 0
-121 268 220 0
-17 134 269 0
469 -292 274 0
-206 -268 -225 0
57 -126 -47 0
171 -3 -201 0
-385 -384 -400 0
17 -490 316 0
351 -163 78 0
173 -202 -456 0
94 26 -203 0
395 275 470 0
-32 281 -212 0
248 30 -91 0
-42 -225 -313 0
251 362 270 0
-26 -5 75 0
243 282 138 0
-57 68 147 0
144 4 90 0
329 -73 230 0
373 -425 282 0
471 -18 -292 0
445 -89 -368 0
189 465 477 0
-306 -213 -39 0
-59 -275 -96 0
-56 221 -29 0
-483 28 -324 0
384 30 -415 0
271 -310 361 0
-197 -187 54 0
136 13 119 0
-349 -324 295 0
-140 -251 -198 0
159 495 -433 0
13 -358 330 0
361 -498 99 0
-399 410 169 0
-376 56 32 0
436 307 358 0
412 144 377 0
165 -461 -394 0
321 -177 374 0
79 380 411 0
378 25 112 0
183 258 35 0
468 -500 87 0
405 62 487 0
-147 6 -296 0
-329 393 -140 0
427 -186 90 0
68 189 107 0
371 -359 487 0
315 -133 -201 0
8 -207 283 0
9 187 123 0
-34 -362 370 0
287 164 74 0
-20 113 -169 0
-216 348 58 0
-223 -472 -397 0
338 -144 -153 0
-105 -250 374 0
-451 -275 -66 0
318 -109 2 0
80 -277 15 0
244 263 155 0
125 59 -191 0
-445 -382 35 0
-481 106 -468 0
-400 16 -55 0
220 266 313 0
303 401 -69 0
456 80 -351 0
368 -500 211 0
-480 -146 467 0
139 -5 -438 0
498 5 -25 0
443 -188 -36 0
50 -201 261 0
19 199 -255 0
265 -235 -362 0
-371 -210 -441 0
291 -287 34 0
-147 -180 -292 0
-318 -183 -311 0
-88 474 -303 0
29 -5 454 0
-109 -405 366 0
315 468 -294 0
117 148 348 0
-154 77 -206 0
98 -285 463 0
57 314 359 0
55 -153 97 0
436 263 452 0
193 166 -430 0
365 -393 291 0
-64 457 -163 0
28 188 391 0
-422 -278 -154 0
378 2 345 0
143 -13 416 0
-498 -73 44 0
-78 185 -201 0
-372 302 64 0
-151 346 108 0
86 -255 -343 0
170 189 -346 0
404 41 252 0
-402 -140 134 0
-426 -458 287 0
205 93 176 0
-36 185 -361 0
-79 -235 265 0
499 114 -381 0
-309 209 59 0
-457 -45 -62 0
-470 378 95 0
-146 318 -137 0
87 -408 -365 0
397 -132 -321 0
-421 76 36 0
-363 -206 -145 0
-494 380 399 0
184 452 481 0
-313 103 -359 0
-337 -409 90 0
-68 61 -345 0
-353 22 155 0
180 403 -455 0
168 419 -251 0
22 -389 50 0
-395 16 106 0
4 -313 247 0
186 -64 119 0
-61 -160 271 0
190 -378 137 0
-307 42 196 0
143 275 343 0
418 390 -78 0
377 -150 104 0
-207 194 153 0
265 -230 9 0
318 83 -38 0
-382 -248 -422 0
158 52 472 0
-319 113 -25 0
-150 254 -286 0
-223 -296 -182 0
439 -350 324 0
-396 -280 7 0
-147 -367 -490 0
137 209 -135 0
-14 -415 392 0
-77 -474 295 0
-53 341 -180 0
-420 253 -351 0
-136 -498 -182 0
413 -26 336 0
148 325 -230 0
-252 -259 -28 0
146 -407 120 0
-300 -305 -311 0
-98 -353 371 0
-200 -238 -362 0
72 8 182 0
225 447 148 0
-118 250 56 0
-394 -146 -198 0
-499 35 427 0
-62 40 306 0
468 -73 -206 0
466 112 -385 0
447 -450 -350 0
308 -211 -438 0
435 473 -215 0
-317 -63 -204 0
-482 -100 -327 0
-198 57 418 0
252 22 232 0
448 381 -215 0
135 92 485 0
-300 -281 366 0
199 -275 -228 0
-201 249 -456 0
278 -344 314 0
6 349 28 0
-335 16 319 0
-477 280 252 0
-98 -249 286 0
-478 -199 235 0
73 -494 -177 0
-260 -360 447 0
25 132 91 0
-468 -363 -420 0
-247 -384 -135 0
187 81 413 0
295 -100 438 0
-242 -227 -225 0
-374 -79 -203 0
206 -397 -350 0
496 440 327 0
293 216 435 0
9 -229 -448 0
-111 126 382 0
408 492 130 0
-65 233 -499 0
-416 303 -294 0
-41 -191 4 0
-185 -342 -492 0
88 -300 236 0
450 -236 271 0
274 378 -287 0
-8 -353 -137 0
387 180 -486 0
484 224 -320 0
360 114 -498 0
-154 -11 -191 0
396 -417 72 0
-480 186 -30 0
-335 -288 -332 0
-147 39 130 0
335 234 286 0
-408 -63 -85 0
240 474 137 0
312 -365 164 0
82 -36 -447 0
-426 -438 -23 0
96 -125 -105 0
-423 87 29 0
147 -363 -290 0
264 -103 -18 0
-368 -209 -318 0
497 333 -117 0
-258 384 465 0
-323 489 17 0
-271 15 480 0
-198 130 -262 0
-401 113 -116 0
430 436 89 0
-164 -214 254 0
-66 188 286 0
311 116 113 0
10 -466 146 0
376 -368 395 0
-129 445 -437 0
497 22 -245 0
-329 226 -357 0
-267 438 -343 0
160 163 -331 0
197 -274 -334 0
448 -356 -440 0
39 290 85 0
286 253 337 0
94 51 24 0
-206 -474 -24 0
-158 -103 42 0
431 -271 478 0
-336 -126 -145 0
58 -484 425 0
226 -304 -123 0
-129 -296 -127 0
415 116 -8 0
-6 369 -269 0
-391 444 -265 0
-479 -338 113 0
-376 94 -370 0
-249 181 -67 0
-246 165 101 0
-424 205 254 0
-140 300 -2 0
-131 44 -89 0
452 98 250 0
-296 -30 -4 0
478 -363 280 0
79 194 -407 0
103 -190 299 0
-19 147 -190 0
403 78 -147 0
-398 183 -199 0
444 -278 -381 0
455 -399 322 0
384 258 -308 0
433 -334 77 0
268 250 -165 0
-76 -265 300 0
37 -433 283 0
243 -278 483 0
-484 366 -481 0
385 -112 83 0
-71 -394 -119 0
-285 -498 -424 0
256 424 -192 0
-148 234 -83 0
344 87 385 0
103 370 -204 0
232 -114 302 0
-416 -158 -466 0
294 335 -124 0
-427 -463 379 0
-57 216 -401 0
450 -276 -120 0
-343 -132 -25 0
-82 171 229 0
109 132 368 0
53 -119 -254 0
-408 -80 -382 0
120 1 256 0
143 256 -209 0
188 -157 292 0
-455 -78 401 0
-434 425 411 0
196 106 137 0
-319 -368 57 0
108 -275 79 0
-278 186 397 0
53 258 467 0
-202 234 -117 0
258 -200 -236 0
-240 -270 198 0
-425 -268 -167 0
409 448 419 0
-273 -136 -395 0
177 266 419 0
-141 381 -248 0
53 -108 -337 0
-235 218 370 0
-377 -325 81 0
308 361 121 0
452 243 254 0
300 323 -392 0
-247 -392 295 0
-101 -346 152 0
-478 67 354 0
126 -206 -439 0
72 292 268 0
349 406 -354 0
229 192 -293 0
152 -499 95 0
70 -31 -142 0
-143 227 55 0
-51 -473 -474 0
-210 225 106 0
189 -271 436 0
-159 -327 188 0
-256 114 33 0
446 362 -401 0
-181 -430 100 0
424 313 -358 0
-325 -119 -14 0
-450 217 -20 0
-450 -192 -476 0
-186 203 319 0
-160 -38 148 0
50 -356 -299 0
349 -50 -481 0
123 -195 -35 0
-241 -51 328 0
64 -435 -1 0
-414 401 52 0
-311 22 281 0
-335 -366 330 0
-110 -374 -131 0
-493 -421 -187 0
-498 -107 440 0
-67 -499 439 0
-238 409 -223 0
183 -373 6 0
-491 230 34 0
-475 -74 357 0
347 315 -448 0
60 -91 223 0
-360 374 340 0
-241 118 245 0
-148 -250 386 0
-348 120 418 0
319 -93 -377 0
-203 424 443 0
-174 312 476 0
399 -304 -56 0
427 86 -443 0
-350 -207 295 0
-411 -321 297 0
333 -449 377 0
-90 422 -5 0
158 274 -238 0
-136 87 -114 0
-147 245 -16 0
-372 390 83 0
486 -297 165 0
-118 382 -330 0
-125 -281 150 0
-477 146 156 0
-244 477 454 0
463 467 -282 0
230 47 133 0
-76 -10 -350 0
-496 218 -60 0
-287 233 183 0
-162 -476 123 0
117 -189 213 0
-326 198 263 0
-5 88 20 0
401 -180 -336 0
298 62 -185 0
345 -414 282 0
128 426 325 0
-356 -420 384 0
-305 466 -425 0
286 -160 -231 0
355 441 -54 0
-17 191 16 0
-146 -58 321 0
396 227 -400 0
129 -181 103 0
407 -94 10 0
-327 -319 256 0
-460 24 -165 0
229 39 -148 0
-462 20 284 0
-364 -161 -318 0
-135 -453 -53 0
-285 129 347 0
-106 -160 -292 0
-482 358 -183 0
-63 -51 25 0
-150 264 58 0
-484 67 -444 0
434 -109 362 0
-476 -275 426 0
-390 -375 -169 0
-219 -407 -22 0
142 401 394 0
-54 469 -474 0
447 -197 411 0
-56 -362 58 0
-159 26 -418 0
-114 315 232 0
-195 450 347 0
378 396 -460 0
-256 462 -188 0
428 84 -264 0
-275 -397 -329 0
124 -268 371 0
457 -489 19 0
-334 191 -355 0
317 38 -62 0
385 192 59 0
413 126 355 0
292 386 -94 0
-301 286 469 0
420 -295 437 0
-450 -299 452 0
-500 -119 454 0
434 -104 128 0
-280 -179 -173 0
387 -171 -246 0
-173 182 -282 0
339 63 -156 0
-305 480 158 0
32 -256 -483 0
-365 74 -340 0
-319 -125 471 0
212 -15 429 0
-289 -286 462 0
-282 421 222 0
132 -489 -302 0
362 -5 -462 0
-251 122 413 0
-232 -58 -66 0
-408 245 197 0
420 227 471 0
-254 -267 251 0
-474 -250 -49 0
-402 -378 -251 0
-223 -362 154 0
277 115 44 0
-344 -415 470 0
-299 438 323 0
236 356 -115 0
259 -66 -229 0
-96 343 360 0
-115 -114 278 0
-5 441 -80 0
-21 -445 465 0
-498 -129 165 0
18 288 230 0
-422 -115 -244 0
-164 342 488 0
186 -320 255 0
-278 344 -407 0
-438 340 18 0
-162 362 461 0
-344 452 -354 0
41 -40 -433 0
-385 -150 -189 0
-434 439 344 0
48 455 -152 0
114 295 36 0
290 -152 125 0
449 426 -56 0
-397 154 -277 0
396 204 284 0
-284 -147 -20 0
50 -476 -44 0
416 253 432 0
-132 -313 -421 0
413 -59 -19 0
183 -379 457 0
-68 234 493 0
409 49 238 0
-430 451 271 0
294 228 -86 0
433 284 -235 0
-95 268 -383 0
-255 337 -195 0
-256 -341 -254 0
112 -466 -494 0
-115 158 -82 0
355 -485 -277 0
22 -157 -362 0
224 -120 -323 0
-8 -308 -116 0
358 389 33 0
-103 -21 -384 0
-302 -198 58 0
-334 -301 255 0
496 280 487 0
121 54 342 0
-369 105 -400 0
-341 -421 -303 0
335 -169 300 0
-111 167 224 0
-84 -328 407 0
435 -381 80 0
-145 91 -471 0
-231 233 -303 0
290 -332 438 0
-20 -347 305 0
-470 -319 429 0
-327 -480 155 0
240 241 -322 0
231 365 153 0
45 -201 -471 0
234 467 -319 0
-455 -208 144 0
342 -467 -87 0
-303 -462 435 0
-99 -376 370 0
-489 12 203 0
43 -23 277 0
-451 27 226 0
199 -224 47 0
341 99 -459 0
21 -476 -375 0
-491 -52 332 0
200 84 -128 0
-381 146 429 0
-174 -321 -220 0
106 -376 449 0
252 -55 -481 0
91 114 -205 0
-244 -348 262 0
-454 -160 -207 0
-307 415 369 0
467 305 -178 0
441 444 313 0
189 -305 79 0
-151 -223 344 0
120 231 394 0
-264 308 493 0
175 20 73 0
321 -81 -62 0
112 335 187 0
238 -483 11 0
-317 365 -188 0
71 -151 262 0
90 218 461 0
174 410 -143 0
498 -104 413 0
349 -166 -439 0
224 -250 295 0
-35 143 -158 0
-290 460 434 0
-209 -480 296 0
-386 285 -475 0
-289 279 -128 0
-141 112 90 0
271 456 68 0
348 -141 -221 0
285 -8 325 0
227 -424 -319 0
-77 19 -291 0
335 394 -385 0
479 -123 42 0
103 235 -129 0
272 -140 -352 0
-232 -216 438 0
-239 -162 8 0
316 -332 419 0
-29 -109 -326 0
443 -480 -44 0
146 29 438 0
79 249 -40 0
167 -178 265 0
63 410 -407 0
97 186 51 0
297 232 -448 0
-59 268 166 0
142 -73 -442 0
-494 -147 499 0
127 -170 -242 0
392 491 346 0
407 -142 283 0
-342 469 309 0
229 295 -336 0
-473 -332 -339 0
-402 173 75 0
-149 264 -105 0
360 154 -29 0
160 450 -227 0
92 -465 -110 0
228 -50 -400 0
-434 195 33 0
-114 -112 303 0
321 481 -82 0
-298 -225 284 0
428 253 154 0
323 -106 -404 0
-316 117 -10 0
185 35 232 0
474 -269 -483 0
32 163 -44 0
-99 355 100 0
304 -303 -351 0
-39 -160 -499 0
-464 -418 379 0
451 -365 255 0
-287 -365 -139 0
-319 408 -130 0
-365 -324 278 0
-220 -485 40 0
-148 480 -459 0
275 93 -383 0
328 -326 -440 0
274 206 -12 0
173 5 289 0
-461 8 206 0
-206 -255 84 0
-135 201 411 0
142 201 -138 0
12 -144 100 0
-310 477 80 0
-394 -243 405 0
-257 -115 -66 0
329 -204 47 0
-138 -495 39 0
237 -184 -471 0
-327 329 -20 0
-37 -53 99 0
-353 168 -380 0
-112 -437 149 0
185 -1 -218 0
-314 25 -40 0
-50 333 208 0
-340 -291 312 0
-276 -464 -444 0
-359 -411 -142 0
-381 -247 -316 0
26 -453 349 0
419 167 28 0
125 -21 -417 0
-146 -478 -184 0
496 -212 177 0
-133 101 497 0
148 33 -317 0
201 -221 278 0
164 -223 -70 0
-84 -96 -350 0
-492 166 138 0
428 492 380 0
-297 467 -285 0
161 338 -63 0
341 222 498 0
-86 -413 412 0
-79 34 255 0
-152 -221 393 0
264 -289 137 0
-290 -378 -141 0
372 -15 -276 0
-258 4 -378 0
-194 -142 407 0
369 242 88 0
51 327 -262 0
-360 86 -335 0
-177 187 349 0
245 -441 303 0
59 391 -366 0
446 23 -453 0
16 -233 -15 0
-319 -167 -282 0
-462 478 190 0
404 280 272 0
82 -179 -310 0
-471 162 270 0
348 297 248 0
-485 -66 40 0
156 -325 136 0
-364 -63 98 0
-181 341 -351 0
221 33 150 0
290 -22 -188 0
-103 443 -7 0
31 -240 149 0
-345 -154 -79 0
428 30 172 0
-441 81 170 0
-393 -85 12 0
-105 406 -186 0
-66 346 406 0
-198 -171 -1 0
-70 211 457 0
-309 -490 -71 0
-181 323 -184 0
-494 296 70 0
85 -177 -135 0
-295 -443 390 0
111 407 222 0
-4 313 -480 0
113 458 240 0
214 326 -69 0
-4 -382 159 0
282 -462 -441 0
-153 480 -420 0
-481 173 119 0
251 190 -297 0
216 43 -143 0
-353 -187 -481 0
94 119 -380 0
493 -55 -425 0
-443 -294 -299 0
-385 -102 449 0
67 -310 142 0
173 -86 -57 0
-485 269 -192 0
138 -103 169 0
-348 62 109 0
245 10 371 0
-353 -272 -282 0
-265 426 -336 0
484 134 -432 0
-193 51 -282 0
154 -73 -24 0
-379 72 -135 0
-284 -491 -257 0
-492 -388 -462 0
-431 403 416 0
-215 -29 -73 0
-211 -419 -37 0
189 -334 236 0
248 71 412 0
289 194 456 0
127 22 403 0
-131 -334 -415 0
287 241 -66 0
193 -451 -228 0
-332 162 2 0
-404 354 382 0
107 246 -379 0
129 433 -443 0
-310 -244 -255 0
-400 88 -328 0
58 -285 231 0
-415 388 391 0
481 192 226 0
470 -2 -87 0
-142 72 -364 0
-424 253 -488 0
8 200 -471 0
307 146 -497 0
-370 352 -251 0
159 163 264 0
-405 108 -280 0
187 -316 112 0
-221 464 -44 0
-203 232 -211 0
144 241 96 0
336 198 219 0
243 351 205 0
21 -240 53 0
82 -55 -263 0
463 77 457 0
31 69 -278 0
-128 494 -215 0
262 -477 -185 0
-230 -416 -133 0
386 -2 309 0
-227 -275 261 0
-402 -24 111 0
-15 193 359 0
-445 -319 354 0
-375 -139 435 0
9 -265 440 0
454 -5 335 0
-464 199 -467 0
425 370 372 0
-483 162 158 0
-363 210 123 0
-43 409 392 0
-446 432 -254 0
65 62 -59 0
-372 -475 240 0
-144 330 326 0
344 352 203 0
-195 156 433 0
179 -297 78 0
145 -354 290 0
-201 68 -194 0
-490 144 371 0
151 -466 109 0
500 -157 -90 0
-273 -75 210 0
183 -305 -340 0
38 -31 -347 0
245 -362 361 0
26 70 -489 0
-314 -416 76 0
408 204 -144 0
-479 246 -339 0
-254 78 457 0
456 466 243 0
103 -206 254 0
367 282 -448 0
138 404 -110 0
285 -327 105 0
-131 71 -410 0
-473 378 342 0
-140 222 -334 0
-66 -392 -422 0
225 133 351 0
-55 -456 -161 0
169 153 -134 0
-250 -385 -294 0
390 241 178 0
-247 -45 -490 0
-143 -325 334 0
-117 232 105 0
339 -278 -242 0
-55 434 68 0
-330 -294 -307 0
19 483 367 0
250 369 361 0
-228 -15 445 0
-72 65 -377 0
-204 132 89 0
24 -187 404 0
249 -213 -86 0
167 318 376 0
311 17 451 0
264 -209 -464 0
-149 362 -255 0
-96 422 -47 0
444 -37 293 0
-409 -408 70 0
178 -340 112 0
-13 -54 236 0
-252 191 -479 0
-257 45 -140 0
66 -113 471 0
-301 5 15 0
-88 -59 -489 0
-278 418 480 0
-449 -364 29 0
-234 301 404 0
-495 -247 119 0
-186 -366 468 0
-5 -240 483 0
355 -352 -129 0
127 26 80 0
-253 -233 -211 0
11 -58 -390 0
390 -242 371 0
177 384 -56 0
381 -251 162 0
-397 485 -119 0
67 -153 127 0
344 369 -500 0
-7 281 401 0
84 357 115 0
278 134 -437 0
-381 362 421 0
433 326 408 0
-470 -319 -128 0
12 104 444 0
-126 -423 234 0
-288 346 488 0
-494 381 281 0
147 276 -456 0
-85 -337 348 0
490 194 -486 0
189 218 -303 0
-413 277 -140 0
414 268 -468 0
-461 28 415 0
88 350 -57 0
24 -118 52 0
-192 57 -295 0
-330 56 88 0
-43 -315 151 0
42 389 -327 0
-418 -383 58 0
28 -363 -409 0
-484 -483 329 0
147 128 -6 0
-497 -176 233 0
118 -64 29 0
-118 -266 339 0
-334 12 -274 0
429 203 48 0
386 183 276 0
471 -269 -19 0
-15 -305 229 0
155 29 373 0
422 101 -77 0
-324 -398 441 0
-150 194 186 0
53 242 -186 0
-255 -226 337 0
-46 -242 264 0
361 -470 -274 0
462 -83 178 0
-497 -177 252 0
343 -215 -371 0
-304 -381 230 0
409 368 -393 0
-297 28 483 0
-14 -84 -157 0
-10 -246 496 0
-486 35 -373 0
473 139 205 0
-162 265 450 0
-196 -280 181 0
-142 122 255 0
-385 221 233 0
-434 373 -388 0
270 -12 -207 0
484 -129 248 0
466 350 -389 0
-267 348 -395 0
76 -267 -217 0
-318 359 -373 0
-171 304 493 0
43 156 274 0
73 -121 -132 0
-396 -186 342 0
-34 -5 2 0
-14 196 144 0
296 97 59 0
318 35 241 0
-396 57 447 0
-460 -166 -134 0
135 -121 11 0
496 -275 269 0
400 -426 -23 0
-213 347 191 0
-276 -343 400 0
279 473 198 0
36 -37 416 0
426 -317 83 0
-397 363 -9 0
35 -280 -438 0
83 146 -168 0
236 -168 -488 0
216 -13 -428 0
-269 370 131 0
-102 -433 -42 0
41 212 -150 0
184 -419 -217 0
163 -85 -310 0
134 250 -426 0
-339 -5 436 0
-301 -293 136 0
363 -467 -432 0
393 417 335 0
139 -431 192 0
101 359 -183 0
232 -112 487 0
276 -335 -398 0
-159 306 -56 0
-337 399 -233 0
388 -303 36 0
280 298 264 0
-316 -327 255 0
-115 -46 -70 0
63 379 -145 0
6 -75 -12 0
-455 -83 -411 0
-361 -40 450 0
485 -449 -179 0
280 131 -237 0
318 -4 -192 0
-459 -464 368 0
-359 127 136 0
-451 -393 105 0
-201 88 -48 0
-158 -168 -211 0
395 -235 203 0
386 341 -456 0
279 -53 350 0
-428 493 -64 0
197 -248 135 0
208 419 -330 0
-154 -269 -282 0
135 11 15 0
239 89 -324 0
202 -19 462 0
110 40 492 0
-492 74 236 0
279 277 127 0
251 296 -404 0
-121 133 462 0
212 37 136 0
116 -82 262 0
-245 -269 -179 0
-491 464 94 0
355 442 -187 0
-115 -316 -24 0
-76 7 456 0
-380 -82 -283 0
-261 446 -3 0
-470 -46 -461 0
-286 39 172 0
-391 476 169 0
498 27 -449 0
181 51 311 0
-382 80 -443 0
-363 272 -212 0
324 -474 -456 0
342 84 -361 0
227 -398 -363 0
438 -500 473 0
286 437 382 0
478 -169 -495 0
143 -62 -302 0
-122 -165 439 0
188 398 -222 0
-183 -293 -336 0
-142 -370 -27 0
-429 380 -192 0
-43 -7 -464 0
-21 326 -243 0
-444 123 -395 0
351 217 -140 0
340 -283 363 0
227 92 233 0
205 -391 -373 0
-234 -3 -45 0
-186 -201 -255 0
482 294 -384 0
390 160 -35 0
-446 -487 342 0
36 454 296 0
-65 -71 227 0
456 -444 182 0
23 344 -76 0
-148 -336 162 0
215 191 -358 0
-37 105 -148 0
-231 -430 -233 0
-376 483 262 0
-3 -412 301 0
-2 -418 324 0
-54 -38 -206 0
-359 181 304 0
461 -238 -438 0
-107 -179 163 0
-371 56 -373 0
-180 344 353 0
381 153 195 0
395 411 239 0
332 -260 322 0
404 -313 255 0
-100 -273 -419 0
232 474 -125 0
-43 461 318 0
-425 15 -261 0
-386 -415 -448 0
-147 -44 -394 0
-205 -166 196 0
-321 -329 -356 0
316 -255 -146 0
-67 -499 184 0
386 319 -8 0
-307 -210 24 0
64 -295 337 0
387 -156 332 0
22 -482 -400 0
-148 -360 -469 0
-33 -59 396 0
-477 69 -148 0
456 38 367 0
458 41 -274 0
433 192 379 0
234 121 282 0
76 -423 453 0
-34 316 445 0
-20 -278 38 0
-471 48 448 0
82 -117 -226 0
448 405 465 0
-199 89 -488 0
493 80 177 0
-125 58 136 0
121 -420 431 0
-388 -433 -123 0
409 483 -413 0
185 -88 -204 0
-344 284 157 0
-76 -465 -153 0
285 320 -127 0
-434 -307 71 0
233 217 -415 0
-332 -256 -64 0
464 -255 -489 0
-435 -173 199 0
-313 -184 344 0
206 -424 -135 0
-184 -65 -131 0
47 94 -444 0
-338 419 76 0
237 -256 97 0
-424 -123 284 0
-169 450 362 0
203 -295 -401 0
-350 210 415 0
284 28 -157 0
490 -51 104 0
-206 -92 44 0
-451 327 172 0
306 -3 430 0
219 -40 -439 0
-35 76 215 0
-125 227 226 0
262 217 45 0
-152 132 -387 0
43 372 42 0
432 -64 -325 0
161 -268 226 0
270 -393 -3 0
210 343 119 0
246 151 343 0
-27 195 -7 0
256 -45 -231 0
-113 -432 169 0
-143 317 -389 0
-20 -290 24 0
-471 399 -340 0
22 15 -158 0
-415 -145 276 0
380 -46 88 0
-371 -42 -102 0
-127 457 -9 0
-477 -443 461 0
33 -372 -249 0
-153 -28 -169 0
237 143 -405 0
356 163 -322 0
202 -292 -235 0
499 360 -332 0
282 63 302 0
-377 -378 -134 0
226 -329 -220 0
39 -24 -11 0
100 291 79 0
177 132 443 0
367 116 176 0
184 -434 277 0
-332 13 -350 0
493 60 346 0
43 109 192 0
199 11 218 0
-219 137 -192 0
-365 129 -424 0
-273 357 228 0
-257 210 150 0
-379 -256 308 0
406 -294 -18 0
204 254 -488 0
220 159 345 0
77 289 35 0
-249 144 -150 0
-194 -158 -297 0
-499 -104 -41 0
82 237 -331 0
-156 -10 -391 0
101 -32 420 0
-267 387 442 0
398 -448 151 0
203 327 -262 0
-460 12 455 0
-212 -368 -108 0
-436 -128 245 0
158 228 -124 0
-497 97 -313 0
155 -36 354 0
236 275 -491 0
-57 -301 -437 0
-321 334 -283 0
-419 -143 175 0
343 381 126 0
436 22 -170 0
417 447 122 0
173 -1 143 0
368 446 380 0
-40 143 306 0
181 401 383 0
219 -139 435 0
-172 345 379 0
311 -103 126 0
135 -165 -174 0
31 20 401 0
281 -357 81 0
238 -350 -38 0
274 -318 377 0
-50 430 -437 0
-203 169 -493 0
-275 440 -316 0
-278 257 213 0
47 489 -127 0
439 381 -409 0
-327 -17 -421 0
-437 -188 -176 0
-301 338 -421 0
-248 -9 -418 0
72 220 132 0
72 -184 -438 0
-421 -16 170 0
-117 7 381 0
-270 76 19 0
202 110 -301 0
-341 76 -17 0
-172 -495 -241 0
-224 380 81 0
415 -382 -45 0
55 429 367 0
-151 409 458 0
-76 84 378 0
433 -171 -95 0
-61 421 -484 0
-427 140 266 0
-231 207 474 0
186 -119 295 0
-442 -113 454 0
118 -353 149 0
346 455 -331 0
-326 -128 119 0
-4 -469 -138 0
-191 80 52 0
-56 -329 -234 0
62 225 88 0
-151 -359 378 0
-456 121 -405 0
-278 -29 327 0
-107 -133 -455 0
321 -188 -8 0
-397 460 -171 0
-399 290 261 0
372 -498 131 0
-83 -148 249 0
-80 173 116 0
-279 -351 -14 0
-445 49 -218 0
-13 242 -302 0
-380 416 -373 0
-428 -391 436 0
-450 139 -358 0
-297 -432 -168 0
259 488 -309 0
-411 -454 126 0
243 -14 -182 0
200 176 429 0
96 461 13 0
-201 -450 -429 0
-25 -129 200 0
35 1 -410 0
-253 209 404 0
-295 13 357 0
332 283 -300 0
-471 -346 25 0
-417 -349 17 0
-390 -135 206 0
-81 -288 -271 0
-419 -260 418 0
-55 -16 -435 0
438 -377 -474 0
248 -148 466 0
-493 -489 -311 0
-286 -179 406 0
-292 390 -183 0
-2 -81 -111 0
-448 -476 -347 0
-329 146 240 0
266 -428 230 0
-155 -253 287 0
227 76 -119 0
43 -434 -205 0
321 -355 116 0
31 -299 192 0
319 -408 396 0
-18 497 367 0
146 478 367 0
-347 423 -319 0
380 -19 -333 0
46 90 464 0
435 -223 -177 0
327 500 -312 0
-207 148 335 0
258 146 -436 0
-188 -156 488 0
-468 -181 375 0
-186 307 -206 0
-452 358 -401 0
-113 -135 269 0
-423 -12 -127 0
350 104 267 0
-294 423 -394 0
172 61 -18 0
206 18 306 0
391 -248 -312 0
325 142 -175 0
262 -29 363 0
77 71 -428 0
-300 467 -481 0
79 424 -239 0
203 81 -341 0
-155 154 207 0
484 323 87 0
262 -313 384 0
-228 191 -38 0
21 -446 -450 0
-167 478 375 0
52 95 -137 0
175 86 -109 0
152 -192 323 0
62 25 42 0
-196 205 -275 0
81 -22 107 0
214 495 -293 0
285 442 -363 0
332 245 -330 0
-350 364 -212 0
-265 -281 119 0
-51 -493 15 0
301 193 393 0
-407 -76 375 0
387 -195 34 0
-279 -115 -436 0
-94 -166 127 0
390 493 -70 0
-94 -17 163 0
67 194 -18 0
-384 341 191 0
34 70 97 0
-6 309 147 0
-496 -389 333 0
340 -455 432 0
-93 463 254 0
-224 241 409 0
-455 -487 373 0
-186 -270 -99 0
-347 -80 -254 0
246 117 478 0
-260 -401 -130 0
381 357 -74 0
-105 464 -412 0
-393 93 217 0
-365 470 -362 0
-101 98 167 0
49 -154 155 0
448 -275 421 0
247 -48 -363 0
245 135 -221 0
246 -276 -63 0
-246 -221 138 0
319 169 290 0
492 -265 -162 0
446 160 -394 0
12 -25 454 0
-495 351 71 0
-39 -123 -322 0
-280 -91 -133 0
134 403 227 0
62 83 -431 0
465 159 -16 0
110 339 330 0
-309 -482 428 0
213 -401 387 0
346 -169 64 0
-60 -23 413 0
355 121 -4 0
-113 75 156 0
434 493 455 0
-482 -12 -360 0
-424 327 271 0
75 65 -123 0
-191 251 -267 0
137 282 342 0
86 -317 330 0
-44 418 -403 0
-75 -389 113 0
473 58 441 0
355 106 258 0
-325 99 -52 0
376 -245 497 0
-239 -325 209 0
-154 346 394 0
94 -359 -435 0
420 480 227 0
-55 -429 -41 0
468 473 260 0
-348 -23 -473 0
-97 60 83 0
343 -177 -61 0
-321 -454 116 0
-445 127 -460 0
362 120 -114 0
477 -325 179 0
-74 134 -232 0
179 462 385 0
287 -125 -131 0
115 30 -124 0
-410 -110 -370 0
-326 -295 336 0
318 121 -264 0
52 -95 295 0
-439 -351 -107 0
198 -211 -444 0
-151 103 303 0
-171 -141 248 0
-218 -431 -386 0
151 -354 -156 0
-287 -345 -391 0
122 104 200 0
239 -267 232 0
157 327 177 0
59 76 75 0
148 178 -186 0
-140 -72 61 0
406 248 372 0
-314 347 280 0
171 -190 -4 0
-409 490 263 0
177 317 181 0
152 316 -285 0
-309 -57 117 0
380 108 -277 0
76 -367 -493 0
150 -431 358 0
360 -438 -60 0
-415 390 -413 0
495 -274 184 0
-372 109 -120 0
-243 145 -303 0
420 -424 -394 0
-468 -463 35 0
-498 248 434 0
438 -99 -50 0
302 276 454 0
46 460 296 0
329 -328 -15 0
229 376 -192 0
265 393 399 0
309 440 -224 0
-289 403 -478 0
494 -425 -474 0
-418 330 72 0
-9 206 151 0
139 73 201 0
-49 -367 -427 0
53 -445 -304 0
487 148 -57 0
475 365 -29 0
-55 370 -38 0
366 413 -400 0
2 -428 14 0
474 37 257 0
352 -121 33 0
29 379 -345 0
-284 -339 237 0
-81 -353 362 0
471 417 97 0
19 176 -477 0
-28 225 -67 0
-82 -120 -19 0
-173 432 -156 0
-23 387 -211 0
60 469 201 0
264 490 -323 0
454 260 -477 0
-292 71 -381 0
-453 -281 133 0
-379 400 1 0
462 452 -435 0
-52 59 -132 0
-28 307 -37 0
359 -226 169 0
137 -347 -428 0
119 435 -261 0
128 37 -78 0
290 219 175 0
-185 -90 445 0
389 -388 -385 0
-21 -250 -181 0
465 -291 49 0
-404 -399 -197 0
-287 -164 85 0
-186 -259 -128 0
245 359 -374 0
127 -104 109 0
-18 219 -462 0
-16 -433 -86 0
190 278 -428 0
295 -325 -223 0
-241 250 -56 0
-108 -186 423 0
-258 401 -437 0
97 -54 465 0
410 -389 320 0
429 380 67 0
-239 298 189 0
46 484 -227 0
-403 -156 458 0
226 211 102 0
-181 443 326 0
-214 -349 394 0
-87 -93 -66 0
362 1 153 0
-127 410 318 0
108 360 468 0
416 -157 -315 0
405 91 -222 0
-89 -53 208 0
-98 -129 303 0
-303 363 43 0
428 80 -237 0
491 -135 396 0
66 87 -478 0
212 -343 -290 0
155 -19 255 0
-187 -425 -248 0
162 -259 102 0
-85 -292 270 0
249 -418 25 0
-5 116 437 0
-70 -40 -353 0
29 -159 -468 0
147 -251 145 0
30 182 -259 0
40 -32 -86 0
453 -449 -198 0
39 312 9 0
-52 -85 327 0
-310 36 -102 0
115 -240 -445 0
-236 306 365 0
-341 -50 -199 0
-346 -187 362 0
232 197 273 0
-275 115 410 0
-390 396 -421 0
293 -142 499 0
269 72 486 0
272 -187 -433 0
-168 -254 -225 0
-140 31 -298 0
408 -326 -317 0
267 352 106 0
374 262 488 0
-32 416 431 0
-265 451 -232 0
167 -487 295 0
-188 -475 -298 0
22 203 -460 0
94 -490 -274 0
301 391 -457 0
236 -341 -58 0
6 -299 247 0
-178 413 -354 0
-456 -464 -309 0
324 -22 -268 0
391 469 -364 0
395 417 -138 0
37 301 189 0
86 -245 -125 0
18 426 -151 0
-50 -86 -84 0
-473 22 130 0
121 248 377 0
-274 -49 261 0
345 -136 -79 0
-366 -165 232 0
364 89 -303 0
67 -238 100 0
-58 -247 -3 0
457 268 243 0
-322 -476 -135 0
288 -427 -211 0
-61 393 -431 0
-117 -92 216 0
182 305 -237 0
302 322 144 0
222 -474 346 0
474 -184 -456 0
-49 17 402 0
-11 -403 315 0
-75 182 457 0
394 455 -409 0
-469 395 438 0
-426 -412 329 0
-61 -271 404 0
-458 -286 -267 0
47 -154 163 0
454 -154 -318 0
310 122 415 0
-106 -62 -357 0
4 89 -347 0
-294 383 -148 0
-380 211 325 0
76 235 -102 0
480 491 210 0
48 -378 -210 0
-191 346 442 0
75 -200 363 0
452 -37 -193 0
413 33 -391 0
152 487 -348 0
86 -262 453 0
-260 -137 -212 0
371 -260 -176 0
367 96 -166 0
-189 -140 285 0
-166 -33 -34 0
239 328 489 0
40 -496 178 0
42 -334 -34 0
-139 83 -48 0
-418 -86 410 0
114 -155 -269 0
85 -48 490 0
-441 -84 -134 0
409 89 233 0
-376 9 -281 0
-320 -70 408 0
155 -376 -53 0
-252 387 -126 0
-379 125 -116 0
-205 -418 151 0
73 -482 -238 0
272 -248 176 0
-95 222 282 0
43 -298 -274 0
72 412 32 0
263 114 -408 0
127 -96 253 0
194 -403 471 0
-91 -472 411 0
-178 -245 271 0
99 -118 -121 0
-165 21 -322 0
-262 -423 -202 0
-44 -363 436 0
-312 -148 105 0
61 67 324 0
131 -254 -453 0
275 14 -76 0
-413 372 -321 0
54 366 388 0
233 490 360 0
123 464 64 0
-178 163 264 0
402 292 -35 0
81 -321 -243 0
-199 409 -401 0
110 56 -319 0
434 212 488 0
-162 186 -306 0
175 -443 -167 0
219 -336 -179 0
88 -223 483 0
-74 -335 -50 0
-336 494 -457 0
-178 389 491 0
-415 347 468 0
-437 -166 -54 0
130 -78 304 0
-351 -253 111 0
459 -35 414 0
-264 -245 41 0
144 121 -320 0
-397 482 121 0
286 -486 108 0
400 -199 -185 0
-129 283 299 0
-328 322 85 0
-128 169 460 0
177 292 -271 0
40 -151 132 0
-449 -322 -190 0
-373 -279 158 0
397 -396 363 0
244 -9 -133 0
106 482 289 0
435 64 -170 0
37 154 292 0
411 -194 -256 0
330 -306 97 0
256 28 -314 0
447 460 -223 0
7 362 105 0
123 -101 3 0
-430 -334 -69 0
-437 183 -194 0
-245 370 397 0
144 -292 257 0
204 -215 183 0
333 141 -10 0
-78 -79 492 0
153 204 -30 0
-352 83 -361 0
-260 228 56 0
290 -237 470 0
114 -370 -390 0
38 440 226 0
352 -168 -152 0
339 453 -99 0
339 -389 243 0
101 -469 -226 0
104 -270 -379 0
-309 296 428 0
-227 -196 -322 0
-97 -252 -366 0
-53 13 -40 0
488 -98 -309 0
-310 273 193 0
-275 446 333 0
-195 -426 -213 0
-130 -115 458 0
184 -100 7 0
82 -271 79 0
64 -482 -131 0
144 440 257 0
-166 200 -199 0
499 -225 484 0
456 242 -341 0
5 -205 -494 0
122 105 -223 0
-15 -451 79 0
-39 -112 217 0
-134 12 233 0
97 237 -260 0
-220 -156 -97 0
427 -168 -130 0
-455 444 -205 0
-45 -12 -74 0
149 484 -418 0
-257 328 -12 0
173 274 -348 0
-375 -453 -404 0
312 107 446 0
316 -59 -496 0
-255 -392 -195 0
-271 434 340 0
106 14 429 0
227 336 300 0
-383 282 -51 0
-247 275 11 0
-116 178 251 0
468 -111 -426 0
-69 79 -204 0
-425 489 364 0
232 -168 164 0
366 -86 -259 0
441 443 243 0
-147 241 -411 0
235 9 66 0
-52 163 -67 0
-304 237 -1 0
-88 300 -171 0
368 -358 99 0
469 -429 -404 0
295 -24 53 0
209 85 -37 0
-280 443 57 0
-490 -11 27 0
235 128 38 0
-20 -499 389 0
-500 -267 384 0
201 183 70 0
88 -38 -109 0
-61 -134 198 0
-62 21 -467 0
304 369 -447 0
-314 289 333 0
131 -459 -306 0
69 93 192 0
255 400 -216 0
-252 457 -287 0
354 -193 -276 0
286 470 -21 0
208 -282 446 0
188 -348 323 0
107 179 -220 0
-70 259 198 0
208 440 112 0
43 128 -420 0
-381 26 370 0
2 -122 -114 0
-339 -470 -101 0
440 215 346 0
100 476 -53 0
-35 -287 -471 0
349 187 60 0
-377 57 278 0
-312 137 -267 0
-76 455 355 0
-235 -33 117 0
63 119 287 0
-249 165 263 0
-484 65 -367 0
-264 -229 -32 0
97 338 -6 0
351 342 -268 0
119 39 360 0
201 -166 446 0
399 42 476 0
324 70 -72 0
-370 -178 331 0
189 -88 -439 0
-467 38 479 0
246 -69 -228 0
154 84 468 0
175 196 225 0
-373 -264 -232 0
459 -425 -29 0
228 417 370 0
-466 327 -421 0
-382 -298 53 0
-96 -299 283 0
268 -425 442 0
64 -318 -312 0
-412 -202 285 0
-355 389 -151 0
-151 130 -445 0
-302 -207 -172 0
476 290 -292 0
274 164 132 0
71 254 -144 0
-118 48 42 0
467 46 421 0
229 -6 339 0
-222 11 -458 0
436 -493 323 0
-416 23 -117 0
486 348 -495 0
-306 -160 401 0
412 -291 34 0
-254 -140 54 0
72 105 -200 0
-239 110 119 0
119 171 -277 0
75 183 285 0
-390 296 452 0
-420 -335 50 0
-210 -327 191 0
359 389 -343 0
58 -476 218 0
-232 -393 262 0
-283 220 -237 0
377 -195 206 0
225 -163 -490 0
-411 -307 -44 0
-422 -228 -296 0
274 234 483 0
-304 318 209 0
-102 24 -104 0
-408 -257 388 0
-240 101 177 0
17 -357 -396 0
-61 165 96 0
340 66 386 0
262 -298 29 0
-500 279 -87 0
-418 221 368 0
-37 310 235 0
-338 -91 190 0
109 -332 311 0
496 489 279 0
-96 -3 161 0
398 -479 -23 0
-40 499 473 0
471 36 -178 0
-362 -207 -43 0
-174 398 301 0
72 -305 -433 0
-339 166 -13 0
-40 12 202 0
-103 -312 -461 0
448 384 131 0
-200 -82 -323 0
93 192 298 0
240 -244 -346 0
165 -51 409 0
375 59 263 0
-233 -107 105 0
-346 -267 -486 0
422 192 407 0
-497 24 -270 0
321 -6 426 0
108 148 -98 0
192 453 349 0
265 412 365 0
147 88 -381 0
21 -168 439 0
-497 238 -152 0
42 -53 345 0
-170 -127 -398 0
276 55 -386 0
-1 119 341 0
-197 -203 421 0
97 -476 -205 0
-296 171 -268 0
47 -110 302 0
486 -316 -282 0
429 -115 -296 0
76 249 474 0
139 -414 438 0
-438 231 210 0
-390 -77 -125 0
-93 -448 107 0
-275 122 402 0
105 -423 -481 0
-408 -489 40 0
23 -456 -321 0
32 289 9 0
-444 475 -477 0
303 32 -5 0
111 -254 500 0
141 -422 110 0
394 55 168 0
-472 -40 -257 0
205 -150 -311 0
-400 -65 40 0
-327 -33 66 0
382 -162 -135 0
-469 -457 216 0
-484 305 412 0
-415 -370 -171 0
89 -435 -323 0
-338 -449 87 0
358 50 370 0
96 249 65 0
-353 -52 -193 0
-296 -401 80 0
-155 327 -144 0
-286 438 -27 0
246 200 413 0
417 -294 -158 0
369 201 279 0
495 -344 455 0
111 452 262 0
-356 426 -469 0
-389 22 477 0
253 263 322 0
478 -441 113 0
94 -252 -108 0
87 404 -287 0
449 167 86 0
-20 324 99 0
461 -325 -403 0
367 391 -334 0
251 -468 342 0
-206 -321 187 0
489 -371 359 0
293 467 350 0
36 -296 -108 0
125 394 -23 0
256 181 321 0
-282 420 -433 0
495 96 414 0
-157 188 -271 0
122 -199 -300 0
-11 -231 -255 0
293 -440 441 0
-18 121 124 0
176 70 -65 0
226 440 -76 0
170 137 496 0
-181 85 -287 0
167 117 -112 0
374 -104 -346 0
-48 -366 -440 0
425 -3 229 0
62 411 -227 0
-359 -185 -209 0
-12 -69 396 0
-95 200 -188 0
-248 240 -227 0
359 -250 354 0
-21 465 54 0
-202 206 -236 0
155 423 232 0
-467 192 263 0
224 38 -450 0
-464 -63 -363 0
169 167 269 0
332 -437 -267 0
197 473 221 0
57 488 457 0
94 474 -331 0
-165 328 420 0
183 290 -81 0
-278 336 -376 0
-43 -273 -235 0
12 -240 461 0
-163 326 145 0
-354 11 -60 0
-154 89 249 0
303 -91 -350 0
-404 227 -142 0
324 -425 -308 0
-253 22 -378 0
324 360 -348 0
234 187 -69 0
-262 116 -28 0
448 37 47 0
-421 206 45 0
-89 481 -335 0
416 178 452 0
447 -39 309 0
252 167 -69 0
98 284 -200 0
-417 -17 -172 0
-65 370 -74 0
-387 306 10 0
-272 431 -410 0
-180 211 497 0
-469 -209 -359 0
-375 -134 -359 0
-4 187 -223 0
-381 -424 -268 0
-15 -49 -81 0
-452 -293 315 0
-14 -13 -378 0
209 -276 221 0
-8 -408 107 0
-395 -437 -216 0
240 428 183 0
390 350 -403 0
-481 -158 355 0
138 -379 -431 0
336 -447 -345 0
-59 -134 -45 0
121 -419 42 0
298 -158 -200 0
-450 -446 161 0
289 235 -450 0
469 -314 -61 0
209 421 84 0
-488 228 248 0
-271 98 368 0
-283 222 233 0
-183 -148 312 0
330 -45 -246 0
396 292 -289 0
465 265 212 0
247 -372 -446 0
379 -37 495 0
269 492 428 0
28 14 36 0
-431 -443 168 0
-200 290 -120 0
266 -24 -431 0
-249 153 -455 0
-220 -229 159 0
-40 2 240 0
274 -142 233 0
426 -174 -344 0
-196 38 -218 0
-167 -461 -377 0
-100 -253 -117 0
-372 -474 -298 0
143 -237 -56 0
352 -154 381 0
-329 -478 -281 0
273 12 -222 0
-125 -127 -48 0
-203 -387 -230 0
-27 146 121 0
-18 149 -494 0
311 -236 -459 0
-40 52 -245 0
490 -387 -165 0
-499 406 -29 0
-333 -296 168 0
-436 -412 -44 0
-323 -240 182 0
-12 339 -454 0
397 -196 325 0
52 -410 -431 0
-393 -196 126 0
269 145 212 0
33 459 2 0
216 164 389 0
-460 -195 472 0
243 174 -22 0
-109 -298 123 0
-105 305 12 0
69 50 -87 0
298 75 -199 0
-267 452 164 0
317 -137 257 0
308 -408 -126 0
-338 479 -407 0
500 -69 -269 0
316 19 -226 0
456 -22 465 0
207 9 407 0
471 309 -73 0
301 170 -312 0
10 -395 127 0
-455 117 227 0
-24 -498 -481 0
450 -341 -404 0
-28 227 -33 0
153 -163 375 0
-141 229 -218 0
480 -489 310 0
448 -319 -287 0
284 -268 377 0
458 394 155 0
-463 -195 -157 0
428 324 151 0
-170 100 146 0
-285 368 26 0
-425 -29 -379 0
160 442 -484 0
-461 -190 -113 0
-230 -378 -183 0
237 -128 -249 0
226 403 -163 0
-486 484 182 0
-105 -89 271 0
140 -355 382 0
233 76 11 0
-334 201 -418 0
57 -334 -134 0
45 -87 -7 0
-389 -452 -190 0
-477 215 51 0
436 21 -48 0
116 -102 -105 0
-63 47 -184 0
37 -384 -46 0
-230 386 -4 0
-220 163 -327 0
417 308 -460 0
-260 426 -8 0
72 217 -309 0
-7 -489 -498 0
206 -275 -139 0
-73 376 89 0
-344 217 -372 0
156 28 -73 0
-40 270 264 0
199 -410 406 0
314 -499 217 0
-110 339 261 0
72 -460 -153 0
104 -102 2 0
-195 -442 179 0
17 455 2 0
422 266 377 0
394 -60 51 0
146 -54 -20 0
-399 233 380 0
271 -187 244 0
-284 253 16 0
-116 -490 -32 0
-218 476 -181 0
-203 25 -89 0
77 19 480 0
283 -406 -349 0
-433 -322 151 0
352 452 -74 0
319 -413 -31 0
-486 -280 319 0
-387 480 369 0
393 -343 -212 0
168 -285 237 0
220 -79 -395 0
428 119 253 0
189 13 278 0
-235 441 -118 0
-346 -430 426 0
-194 204 373 0
25 62 418 0
456 -207 178 0
489 -144 164 0
77 37 365 0
-155 69 438 0
-394 204 291 0
-114 -443 -276 0
-163 285 -51 0
164 201 -365 0
381 189 334 0
310 283 -469 0
336 -201 -30 0
-279 -8 136 0
36 446 335 0
127 -469 -472 0
454 479 398 0
163 -479 -210 0
233 193 -379 0
469 149 -154 0
-165 -493 -38 0
-370 486 11 0
-486 -339 -367 0
-364 -95 -138 0
225 -132 -146 0
-48 -348 393 0
-62 -363 60 0
-315 465 227 0
395 -450 45 0
-333 100 403 0
-177 42 -364 0
-449 -343 60 0
7 -315 -269 0
387 -137 -33 0
-101 -341 -33 0
-320 -27 351 0
-359 -87 -348 0
262 150 -99 0
-334 368 138 0
252 -452 -286 0
-101 -56 -399 0
51 -188 444 0
-292 472 -496 0
237 470 -468 0
391 -153 290 0
-349 205 166 0
-431 267 -64 0
-118 413 -397 0
-136 122 -106 0
430 388 -395 0
61 147 -309 0
-95 277 -77 0
138 187 160 0
-376 -153 -324 0
433 78 120 0
405 -45 -56 0
364 135 -300 0
-162 141 -266 0
284 -447 287 0
-450 161 290 0
465 314 -399 0
-443 -475 -60 0
283 -187 -398 0
-174 -454 470 0
304 -438 -209 0
244 -39 189 0
137 -281 -18 0
-362 -4 -223 0
-60 -155 88 0
-193 -84 -473 0
78 89 -238 0
50 326 57 0
-176 -335 -17 0
62 -193 -93 0
340 122 310 0
-145 424 -233 0
281 138 -385 0
211 142 -144 0
318 -146 -77 0
-120 -187 -54 0
-237 -498 35 0
-173 430 -398 0
384 389 -114 0
419 61 -315 0
187 432 -272 0
-192 -480 -19 0
-463 318 -424 0
67 -329 -138 0
-131 199 -315 0
-258 11 -241 0
308 -235 123 0
267 -30 103 0
453 340 245 0
-100 419 499 0
-352 223 23 0
-226 -429 270 0
234 -130 176 0
-95 -89 -452 0
-157 -310 454 0
-22 500 -407 0
478 441 -384 0
156 133 -237 0
-121 -178 186 0
114 10 -212 0
248 -130 116 0
18 320 -207 0
370 73 -107 0
349 -366 177 0
202 -352 350 0
-85 54 -481 0
-469 219 406 0
-2 -3 422 0
-43 351 304 0
-59 -195 445 0
-26 474 -350 0
4 -314 215 0
-205 -243 419 0
-285 -444 -189 0
157 264 -80 0
195 422 -436 0
292 53 363 0
-120 -327 -310 0
407 484 254 0
299 -158 351 0
-348 281 405 0
422 -468 -302 0
-174 -276 274 0
-19 -378 -357 0
-111 30 445 0
-79 137 -26 0
136 79 341 0
322 365 -218 0
42 480 404 0
-158 115 -203 0
446 207 -104 0
-152 413 -297 0
-278 348 -417 0
425 495 42 0
251 95 79 0
451 212 425 0
28 235 251 0
-174 403 -242 0
-63 -288 217 0
