p cnf 500 2475
-153 -357 4 0
465 310 -216 0
-362 -78 -200 0
-450 -54 13 0
-412 -305 -298 0
96 494 26 0
421 307 -238 0
-99 -182 -285 0
396 123 331 0
-204 -248 -40 0
369 -133 -479 0
209 -391 -319 0
-174 30 308 0
333 397 407 0
-338 -215 416 0
-48 -312 57 0
-482 -4 423 0
-108 -197 230 0
-148 -69 -337 0
-424 213 -482 0
-193 -421 -18 0
-17 265 -228 0
-454 -442 491 0
200 -258 -301 0
334 97 72 0
344 356 382 0
-43 -401 86 0
401 -272 -195 0
296 239 227 0
-2 410 229 0
-178 258 213 0
120 193 109 0
109 -227 341 0
429 -388 -490 0
-402 -136 125 0
438 143 444 0
-41 -14 -296 0
-479 -403 46 0
-70 55 -93 0
135 369 -21 0
341 11 62 0
339 355 343 0
-148 61 -38 0
284 32 358 0
220 -313 -376 0
311 470 381 0
126 129 427 0
-163 -56 131 0
-101 385 -47 0
-84 -461 252 0
-289 -307 -462 0
-489 127 73 0
-314 430 -475 0
-421 81 473 0
432 255 117 0
460 77 -258 0
-344 -167 -432 0
253 -297 -272 0
-193 -286 -324 0
140 12 39 0
331 -90 357 0
-287 172 161 0
117 -416 -490 0
-425 439 434 0
75 315 -236 0
-303 -3 -363 0
-191 -429 473 0
469 229 255 0
-173 -121 -141 0
219 179 -143 0
136 -137 -339 0
241 -137 -309 0
-164 -309 -337 0
378 -338 488 0
283 -177 86 0
370 -59 -127 0
407 215 245 0
61 -251 441 0
-4 155 -16 0
73 198 44 0
228 292 149 0
-342 422 -236 0
-318 -208 55 0
-39 -197 -361 0
146 -354 55 0
-11 -26 -354 0
-189 -207 228 0
150 -246 -78 0
468 -464 -486 0
-87 422 376 0
-323 386 294 0
152 166 -405 0
386 225 -485 0
144 -42 -214 0
443 383 395 0
-305 -278 432 0
-183 205 283 0
22 46 383 0
245 296 335 0
-336 -491 -78 0
-21 -10 -172 0
390 -86 -234 0
227 -407 355 0
376 -42 215 0
-287 484 -171 0
265 -349 -465 0
-385 45 -202 0
-144 325 -430 0
87 -404 -410 0
353 -174 221 0
158 -191 -186 0
176 359 4 0
-179 -205 -304 0
328 114 -428 0
490 430 222 0
-232 -37 209 0
-477 -474 -437 0
39 246 426 0
173 -63 -223 0
-291 364 200 0
-397 -229 81 0
-169 130 392 0
-130 242 2 0
-491 242 -233 0
126 -437 -221 0
40 -8 -432 0
-163 -234 -435 0
-424 -260 -50 0
17 67 402 0
-147 -290 232 0
-284 -417 -5 0
157 -317 126 0
-254 -257 319 0
321 53 -350 0
-447 315 69 0
498 279 -467 0
-253 -398 291 0
-197 398 -489 0
-381 317 209 0
-146 -495 -400 0
478 -116 141 0
-23 127 131 0
-445 -175 480 0
-100 -474 98 0
-387 -242 -293 0
349 297 171 0
487 235 427 0
51 38 -434 0
328 94 -314 0
-481 464 -342 0
138 259 -488 0
-362 -124 -152 0
-494 369 -11 0
-66 251 494 0
402 105 87 0
273 353 138 0
-209 15 -395 0
-425 -457 -374 0
336 -163 272 0
-81 -215 -441 0
97 266 -211 0
277 499 85 0
318 -493 -496 0
269 -181 207 0
-91 131 7 0
-412 -19 446 0
-185 141 -182 0
384 4 -257 0
-146 401 -416 0
-228 39 267 0
164 -346 -28 0
146 -86 -259 0
429 51 -438 0
-238 -178 329 0
241 -186 97 0
-306 -100 -421 0
173 104 250 0
369 -141 213 0
-406 -272 -313 0
-370 -481 168 0
129 96 -259 0
34 -283 -194 0
239 -228 309 0
-381 383 -68 0
259 -51 449 0
395 -439 333 0
-39 -94 -201 0
255 304 426 0
80 -94 103 0
-254 -241 419 0
-299 -418 -45 0
-382 170 -445 0
146 379 -471 0
-227 432 371 0
178 353 21 0
-98 -266 -333 0
55 194 -388 0
-464 -405 272 0
489 -103 285 0
-91 -421 -375 0
-237 -421 427 0
481 154 391 0
243 256 4 0
38 -88 -402 0
401 -160 -189 0
-237 326 -461 0
278 402 163 0
329 30 -181 0
371 -408 320 0
-235 -67 48 0
147 -467 -402 0
-421 -427 -192 0
-120 -48 -421 0
-290 -343 71 0
-202 424 -153 0
-270 -7 -246 0
28 337 -151 0
-440 -282 -127 0
392 399 -223 0
233 -319 -364 0
-76 331 -262 0
453 -449 432 0
-352 -84 41 0
490 248 498 0
-390 -86 -190 0
-48 286 -464 0
463 -71 420 0
-354 -192 80 0
-14 75 52 0
-222 106 -287 0
262 106 316 0
439 55 87 0
-350 118 88 0
317 -148 299 0
-80 57 -78 0
-480 469 -165 0
175 -235 -353 0
229 202 -403 0
-171 -14 407 0
330 -64 499 0
-101 270 195 0
-307 199 342 0
-318 125 488 0
-249 -309 323 0
132 -373 359 0
498 421 258 0
500 -125 466 0
340 -188 -373 0
399 -449 -40 0
-132 -11 465 0
391 253 -92 0
-51 -192 170 0
-449 -342 101 0
-245 -420 -132 0
-17 -261 -16 0
330 54 -81 0
-317 219 85 0
347 299 -453 0
-453 103 -350 0
-61 15 -14 0
-278 -100 393 0
271 193 321 0
495 -147 -40 0
-119 -41 -116 0
-203 78 242 0
-388 53 -346 0
-413 1 105 0
-159 -277 176 0
28 -3 -485 0
327 335 -226 0
420 140 6 0
455 -7 149 0
148 37 100 0
-260 68 -108 0
-136 122 275 0
419 449 341 0
253 332 29 0
-180 259 468 0
67 416 91 0
-326 221 -208 0
92 -485 423 0
469 -488 -246 0
494 212 -102 0
-134 449 -368 0
24 59 -168 0
-47 -276 67 0
-244 -250 -61 0
-429 122 -367 0
327 -357 -144 0
447 342 395 0
99 -154 11 0
-92 -375 -196 0
251 164 -366 0
1 -124 485 0
147 -275 392 0
-161 -102 -438 0
-385 -186 -158 0
-34 261 313 0
-440 413 135 0
196 -97 -353 0
-372 27 -67 0
-281 -18 -39 0
-248 -50 -74 0
188 -295 -363 0
-373 -336 22 0
-29 -175 479 0
-145 -400 175 0
217 -344 442 0
172 205 -278 0
436 335 456 0
-296 294 241 0
84 -369 -163 0
-420 -148 82 0
240 -474 216 0
45 38 -373 0
103 -426 -259 0
34 -251 364 0
-223 8 -215 0
344 -287 178 0
-106 19 263 0
88 268 -239 0
-278 -329 -373 0
329 -59 188 0
27 335 238 0
-334 -301 72 0
480 -72 -27 0
447 453 84 0
-93 49 -112 0
238 -13 -435 0
-465 11 -120 0
-183 460 200 0
-253 304 -308 0
116 -459 210 0
123 74 -231 0
462 350 -187 0
-380 -155 443 0
-104 -339 -296 0
481 195 381 0
412 197 -328 0
-147 98 321 0
487 -86 -75 0
-453 192 25 0
-120 483 90 0
308 -246 41 0
344 -182 -268 0
-445 -211 -159 0
-22 293 -96 0
305 -249 334 0
358 178 422 0
-428 -239 -435 0
109 493 -440 0
213 285 -88 0
225 181 -426 0
-144 -323 124 0
-379 351 -301 0
182 -210 -339 0
157 295 -431 0
265 -120 -247 0
386 -328 -323 0
30 76 -221 0
439 -205 179 0
300 -311 -29 0
-458 -435 300 0
444 255 328 0
91 301 -479 0
24 -404 -417 0
239 -224 99 0
-256 29 -152 0
-167 -248 -238 0
222 -397 -220 0
481 403 -58 0
-51 414 -446 0
4 -393 -90 0
-299 256 -405 0
35 -44 -277 0
-443 192 -463 0
-84 217 447 0
-338 -369 -45 0
-293 -416 -461 0
-466 -187 498 0
-376 -146 -73 0
431 -307 -27 0
78 -317 -492 0
54 219 -69 0
313 141 388 0
474 390 1 0
-130 139 -423 0
359 -414 -47 0
110 -144 21 0
-70 -165 328 0
316 136 -95 0
276 426 -322 0
-267 -5 413 0
-192 454 -65 0
-308 -62 281 0
-352 -103 130 0
-478 -46 -413 0
-408 -278 272 0
445 -442 -348 0
-232 -303 -217 0
-245 28 338 0
-282 -271 376 0
-123 117 -441 0
-442 6 443 0
241 -325 -453 0
399 240 371 0
-321 53 460 0
440 -457 14 0
-474 -103 463 0
-66 -464 -162 0
-218 -243 52 0
-471 -392 -354 0
470 179 302 0
475 -237 490 0
339 -370 190 0
32 -316 226 0
270 487 440 0
-39 -177 494 0
240 297 -6 0
350 -464 48 0
333 79 439 0
-160 -183 489 0
-347 -394 -20 0
-168 -239 -108 0
53 -191 345 0
-254 -313 30 0
218 403 383 0
-2 248 -228 0
402 197 179 0
-474 -342 -90 0
267 190 421 0
444 390 -458 0
295 -89 241 0
-483 -149 -308 0
-155 -385 -75 0
-215 84 310 0
-141 -249 483 0
-60 -254 137 0
-45 -124 399 0
-29 275 -378 0
-390 377 -37 0
-25 8 -72 0
-50 -68 201 0
213 101 342 0
110 158 445 0
-245 115 348 0
-32 -264 493 0
142 -85 -354 0
-1 210 302 0
-26 -320 -167 0
218 14 398 0
108 -289 -73 0
-242 -416 -449 0
-95 -48 472 0
103 162 -89 0
91 74 -349 0
310 -375 -109 0
-480 329 90 0
302 83 -281 0
-216 201 3 0
372 9 219 0
95 230 274 0
-435 -249 242 0
97 387 -168 0
228 364 261 0
-299 -86 406 0
200 -421 -237 0
93 314 14 0
-96 -398 -473 0
-364 -151 -81 0
-344 414 342 0
-393 427 -191 0
-406 220 464 0
-11 -373 364 0
313 -42 334 0
439 -153 120 0
-126 330 64 0
-483 355 -354 0
-41 480 226 0
86 -390 -145 0
-386 -372 228 0
121 -467 -282 0
13 -123 -309 0
-491 212 443 0
-471 247 2 0
-434 -312 59 0
-397 -391 -443 0
-285 300 337 0
-255 -398 351 0
333 -225 -71 0
257 -247 -399 0
-289 -482 262 0
-272 -440 330 0
-257 293 -400 0
392 -381 92 0
265 -361 -187 0
-16 292 315 0
-208 282 204 0
51 -247 440 0
-91 -42 -411 0
-416 433 -316 0
420 238 457 0
354 -379 -177 0
-54 -76 -211 0
-4 328 41 0
-301 43 -281 0
474 120 -159 0
-118 -497 -240 0
-205 -187 -89 0
467 -176 -192 0
279 407 139 0
100 289 -325 0
6 93 479 0
-66 86 -363 0
233 -21 -198 0
-275 -107 461 0
350 305 87 0
355 -370 -118 0
-209 -6 82 0
457 201 -227 0
346 496 368 0
420 -284 46 0
-168 -313 -173 0
-146 -330 221 0
-420 -91 114 0
-68 485 -295 0
416 94 -233 0
481 22 273 0
284 -165 363 0
79 369 -373 0
-292 -142 -373 0
473 -110 -127 0
-221 -338 487 0
-29 86 375 0
-463 361 -443 0
92 -124 434 0
234 -300 -458 0
474 -342 21 0
-414 77 22 0
389 143 -29 0
-128 301 -379 0
-369 269 136 0
-283 374 -42 0
-129 312 182 0
105 242 37 0
-236 274 212 0
-13 -250 -248 0
-27 -434 -256 0
123 264 195 0
491 95 113 0
150 217 -273 0
-4 295 348 0
420 -137 -311 0
332 -253 -22 0
-393 -9 269 0
327 -489 400 0
-362 -427 -289 0
-290 -273 -76 0
5 -69 55 0
-445 428 -257 0
-196 271 177 0
-406 17 499 0
432 -296 159 0
-69 397 172 0
-20 338 339 0
475 -444 -348 0
193 26 450 0
443 88 -132 0
-409 125 -357 0
-347 -194 356 0
245 372 206 0
-360 55 -409 0
6 274 412 0
-402 -223 143 0
164 375 128 0
-249 398 -201 0
491 449 372 0
-352 -434 -113 0
-232 -354 -242 0
358 492 -352 0
-43 -290 36 0
216 -192 -165 0
41 141 392 0
-210 -363 497 0
478 334 420 0
-249 -167 -121 0
-278 -57 207 0
359 -327 66 0
-76 123 209 0
-453 -498 -53 0
137 92 258 0
-272 -320 -11 0
-208 -135 389 0
423 66 45 0
318 61 -186 0
292 343 478 0
231 65 -204 0
-480 -185 473 0
18 478 -284 0
-268 158 306 0
337 -496 -391 0
-170 335 -15 0
4 308 146 0
135 -422 44 0
498 398 -100 0
-202 487 -401 0
-113 -313 -123 0
-10 -61 -361 0
458 20 281 0
316 83 -383 0
149 176 -193 0
174 408 276 0
-58 77 -424 0
-8 209 -309 0
306 -167 334 0
105 154 370 0
-135 320 -12 0
352 -373 -124 0
261 -179 -36 0
498 229 -225 0
-397 105 304 0
130 289 210 0
-148 202 -345 0
-319 -137 205 0
-497 2 211 0
-409 119 -489 0
316 112 -205 0
-414 -195 -140 0
333 -421 -338 0
-150 -382 182 0
139 -416 -186 0
-188 -302 441 0
10 364 -107 0
-432 -16 -111 0
48 -210 -308 0
418 179 447 0
11 179 15 0
-127 -168 482 0
66 139 -187 0
22 112 -20 0
-181 -155 -165 0
286 475 -449 0
329 -299 -354 0
476 356 -160 0
225 -442 -99 0
-67 446 -174 0
326 -151 130 0
-436 300 374 0
-243 468 -89 0
-27 202 -221 0
-2 125 270 0
232 -133 365 0
204 -79 -282 0
-80 356 -456 0
-365 -373 477 0
322 -221 -165 0
-106 -3 111 0
416 -285 -239 0
-263 -205 -333 0
425 257 -294 0
-201 471 444 0
-202 -261 -204 0
-487 18 327 0
110 -92 -366 0
390 -338 76 0
-49 -383 -347 0
-263 -258 91 0
-418 -85 -52 0
166 452 -17 0
160 317 -431 0
-309 52 40 0
262 -285 -256 0
427 17 488 0
-480 453 471 0
-204 284 -369 0
134 -363 -389 0
-12 308 298 0
140 -260 -230 0
-403 222 26 0
-452 -378 425 0
435 -330 396 0
-479 -171 221 0
-182 -327 -483 0
85 129 274 0
375 54 -190 0
-336 204 -11 0
-24 473 -207 0
-276 424 105 0
-437 -250 -153 0
151 -250 456 0
-405 -381 -214 0
-17 476 -413 0
113 27 -29 0
-470 -123 -271 0
-422 -164 394 0
-1 386 398 0
458 -328 221 0
-371 -460 495 0
420 -114 125 0
80 320 435 0
28 418 38 0
14 -378 -288 0
258 -84 144 0
94 285 235 0
-214 -288 492 0
-369 -314 -165 0
338 -50 197 0
61 63 385 0
-133 -43 244 0
-424 351 -5 0
-402 387 -146 0
279 -92 -159 0
31 -202 -193 0
-131 146 -415 0
-137 -31 -242 0
258 291 -421 0
-97 -320 281 0
-183 46 -373 0
-192 330 -410 0
-484 146 339 0
-124 -349 -126 0
452 -494 -121 0
37 186 359 0
182 -251 -431 0
99 -280 -212 0
303 -15 468 0
450 69 -153 0
-149 -398 -269 0
248 71 -443 0
-125 174 59 0
336 477 -30 0
212 69 -102 0
-150 423 -143 0
-35 -18 223 0
218 -275 125 0
239 -191 -349 0
324 408 44 0
330 -135 329 0
-139 212 215 0
-346 -68 -141 0
140 -337 -365 0
-4 -252 -185 0
-160 -215 6 0
-460 366 30 0
-264 31 -245 0
-44 -246 59 0
-178 -214 -326 0
-220 408 121 0
-270 335 -244 0
197 484 319 0
-293 -123 77 0
-189 470 -213 0
-284 452 -356 0
319 306 3 0
-199 339 -387 0
-175 452 119 0
-16 -400 -337 0
128 -106 -477 0
-431 155 -274 0
-105 -284 -277 0
-78 253 -28 0
6 11 -429 0
-438 358 -241 0
176 130 286 0
310 -186 -4 0
268 251 -330 0
-67 422 -28 0
-90 134 -230 0
141 -400 -131 0
-222 342 381 0
295 158 -192 0
-68 -448 361 0
-438 -215 25 0
486 -325 -33 0
-307 191 390 0
-470 113 357 0
331 -309 337 0
-361 414 -21 0
247 348 -177 0
436 331 -293 0
79 -80 -258 0
434 6 298 0
190 116 127 0
329 -476 451 0
162 403 -339 0
-354 -229 -311 0
27 -225 380 0
-236 419 -111 0
-171 163 -198 0
-441 292 412 0
-225 -308 -111 0
209 -266 369 0
-148 55 322 0
497 -290 -477 0
462 -328 -79 0
487 -134 -446 0
473 237 -406 0
-436 -486 -25 0
78 94 24 0
419 165 437 0
-34 217 -43 0
332 -437 243 0
68 258 280 0
-28 -451 -32 0
239 378 259 0
24 239 -218 0
184 -393 466 0
-126 -220 -238 0
17 -421 258 0
-486 -46 -108 0
202 -380 423 0
20 484 379 0
25 455 -98 0
134 116 -445 0
422 -303 -52 0
-498 374 -161 0
-473 -419 183 0
411 -247 305 0
460 309 -82 0
-375 -215 -485 0
469 -77 -275 0
36 246 -174 0
236 -284 -361 0
100 375 118 0
-360 454 494 0
203 -19 -207 0
12 134 112 0
381 -181 203 0
484 -144 151 0
-36 366 246 0
27 -5 316 0
63 -477 378 0
327 259 -27 0
-77 -3 267 0
77 -493 -467 0
357 396 -360 0
410 -21 375 0
-398 110 87 0
78 -21 240 0
-171 28 404 0
-43 297 385 0
-38 -173 127 0
-377 182 -213 0
-464 -206 338 0
-72 210 -269 0
-62 -78 79 0
-149 312 -130 0
-12 -203 -333 0
-383 -70 47 0
278 321 58 0
393 184 258 0
-214 -310 -167 0
258 197 398 0
-80 -481 437 0
22 104 -282 0
-330 445 -27 0
208 310 228 0
94 185 -278 0
-121 346 -306 0
-323 -391 -118 0
328 -15 122 0
-487 454 345 0
-433 -333 -423 0
-413 201 319 0
-245 396 48 0
-335 -378 246 0
458 -128 -418 0
-344 278 231 0
168 -481 86 0
181 454 275 0
-498 -294 337 0
-137 -189 -125 0
112 61 90 0
-227 -444 -246 0
434 49 -42 0
-111 -8 -379 0
-195 111 260 0
-1 42 -49 0
-415 -65 -68 0
-166 141 -486 0
-28 -320 69 0
-249 -270 474 0
-381 451 -172 0
49 -235 -406 0
498 -44 467 0
136 159 -60 0
442 -176 -317 0
-444 -344 478 0
318 99 -390 0
277 418 484 0
-87 -267 431 0
38 -471 473 0
323 -452 -335 0
-272 -227 294 0
428 91 -43 0
46 -16 349 0
327 -185 330 0
-429 -207 -434 0
-354 -346 180 0
-491 -196 58 0
-421 -251 -241 0
357 -214 157 0
101 22 296 0
156 -69 -285 0
-489 -17 -377 0
-235 -280 282 0
-210 -271 366 0
-318 93 -24 0
-248 8 -5 0
466 -38 -226 0
-129 -214 205 0
-219 -312 -217 0
212 -114 51 0
357 134 247 0
289 218 -326 0
-271 415 -268 0
43 -219 419 0
323 -30 -105 0
47 7 434 0
452 -82 42 0
493 -109 -343 0
231 -442 -281 0
244 -404 -212 0
-76 -496 -201 0
-70 237 -197 0
487 171 -319 0
-43 384 418 0
-421 -79 -428 0
-187 -120 -376 0
-37 368 356 0
110 485 164 0
-268 -150 -145 0
-114 446 -323 0
-343 140 223 0
-139 44 -273 0
444 242 205 0
207 -208 227 0
334 -130 -124 0
-99 133 -402 0
250 -181 393 0
417 398 243 0
286 -292 135 0
-37 -30 26 0
247 484 5 0
-242 414 -415 0
354 8 -166 0
61 498 -54 0
36 -206 -382 0
-187 -348 298 0
263 -121 -416 0
47 485 -179 0
-482 197 -322 0
275 -212 -455 0
-204 -35 270 0
-173 -359 -211 0
379 441 -39 0
8 88 317 0
-176 -288 -283 0
-455 -228 461 0
280 -231 56 0
-316 134 -402 0
13 58 -321 0
443 195 342 0
-190 216 -284 0
-400 -221 -260 0
294 -386 314 0
142 152 -207 0
-44 372 -414 0
379 -235 -245 0
446 56 -219 0
-258 -156 320 0
-174 -478 309 0
-444 -287 -446 0
149 -378 -363 0
-475 188 468 0
148 178 -395 0
-440 199 -342 0
379 192 479 0
188 433 -439 0
-95 366 -494 0
356 -5 226 0
261 -22 -96 0
-402 -110 289 0
-467 -124 -217 0
172 -26 279 0
-138 -161 -42 0
268 -381 -37 0
-305 293 438 0
-464 -181 -185 0
-427 -488 378 0
214 143 -67 0
-86 379 140 0
-417 429 -500 0
-177 397 -199 0
-392 224 419 0
1 -44 352 0
371 -90 209 0
263 352 -449 0
381 -14 -307 0
-223 13 -142 0
97 -264 122 0
-362 329 -252 0
-425 36 -65 0
362 -343 311 0
-329 -43 318 0
42 -113 -52 0
-383 132 -111 0
-480 271 104 0
462 173 -95 0
255 122 -137 0
51 -87 142 0
-158 365 -191 0
334 190 299 0
-128 -226 -454 0
-478 33 347 0
-117 -263 253 0
-242 373 -389 0
338 -273 85 0
407 99 231 0
275 162 113 0
500 -469 -368 0
280 -165 122 0
-154 -161 205 0
-112 -50 167 0
-139 77 -236 0
-50 -321 215 0
142 -283 -295 0
-124 -103 -201 0
-295 412 -58 0
-253 -359 307 0
64 170 -277 0
181 349 7 0
-469 -329 -297 0
452 -141 -263 0
-284 -159 137 0
-126 399 199 0
-107 249 190 0
323 -461 -354 0
353 -385 481 0
-327 -20 -154 0
354 383 476 0
75 -172 389 0
455 -84 -207 0
-149 -27 293 0
427 95 74 0
367 -283 294 0
449 385 414 0
-281 -114 208 0
-415 -314 470 0
334 -210 148 0
165 -356 149 0
166 161 -356 0
421 322 12 0
-443 248 -247 0
218 58 323 0
-449 269 -185 0
229 68 323 0
-380 35 15 0
-137 471 144 0
-376 -466 -73 0
79 344 100 0
-288 252 265 0
365 374 -283 0
406 331 349 0
-221 401 312 0
418 -213 -438 0
-401 -209 309 0
499 460 234 0
399 362 75 0
-225 296 416 0
180 64 187 0
-285 129 -231 0
-276 -49 490 0
237 -274 416 0
-237 435 361 0
-11 -99 -78 0
378 278 140 0
203 437 302 0
-6 149 426 0
-99 87 484 0
-297 -42 -273 0
-348 404 -321 0
-1 -348 2 0
78 193 102 0
-379 -255 491 0
-368 40 393 0
133 7 418 0
-4 -360 -99 0
353 31 314 0
-419 -313 -221 0
251 -411 -124 0
325 389 307 0
286 -47 258 0
370 -464 117 0
461 -489 -268 0
249 -126 -113 0
-311 140 253 0
377 -8 -75 0
-169 -352 495 0
-191 -16 -302 0
145 97 425 0
-303 -439 417 0
-397 51 -416 0
-53 178 -92 0
-232 -478 -173 0
-261 -94 168 0
-79 -179 -267 0
377 -200 280 0
-424 7 -396 0
384 -201 60 0
-314 398 147 0
241 301 -6 0
154 315 -141 0
-484 351 -301 0
-221 -227 43 0
-252 -138 185 0
-108 238 457 0
110 -118 28 0
-116 62 -143 0
-355 69 277 0
499 56 276 0
-24 -436 -61 0
-416 216 42 0
-327 -5 -219 0
49 5 283 0
80 175 86 0
-435 -372 387 0
-142 -355 294 0
307 373 50 0
-215 -453 51 0
330 -381 -100 0
-346 -307 -451 0
33 162 -325 0
-473 155 445 0
-246 226 271 0
154 -377 458 0
460 228 166 0
-362 -198 -326 0
79 -158 -116 0
-174 59 -385 0
-297 -349 -194 0
93 -498 -440 0
-253 -463 435 0
-231 235 284 0
-385 -120 401 0
-484 381 -201 0
-242 -375 40 0
-435 152 -266 0
-448 -430 -419 0
-316 303 157 0
-8 86 -240 0
-257 478 429 0
-239 -261 450 0
97 185 430 0
-387 -403 -273 0
-34 -160 211 0
-207 402 -465 0
494 -28 -383 0
-332 -269 -353 0
-409 -162 429 0
-178 -375 196 0
-181 373 -116 0
-209 69 -150 0
276 -247 -355 0
-209 47 244 0
-110 -25 236 0
400 -304 -51 0
-395 307 -309 0
439 340 500 0
-372 -437 101 0
-351 -270 80 0
252 -1 311 0
269 -336 -472 0
-190 -457 285 0
-191 -215 182 0
-326 374 -394 0
-352 419 244 0
-18 105 -178 0
71 -169 399 0
-351 -78 255 0
41 -313 380 0
-418 -384 -54 0
-102 -160 405 0
-56 99 -97 0
489 94 388 0
-281 -243 -272 0
383 -406 -97 0
-26 204 -154 0
-157 -469 -428 0
-85 -481 136 0
-291 254 363 0
244 478 193 0
152 -2 489 0
-223 -112 -322 0
-82 -8 -204 0
272 442 464 0
-89 -455 411 0
-476 62 -479 0
-227 280 -185 0
271 -222 307 0
300 -442 64 0
183 187 -215 0
71 -333 81 0
489 137 190 0
142 417 -328 0
-54 -352 365 0
159 -430 269 0
78 362 34 0
-342 -344 -104 0
-255 -203 189 0
-128 439 250 0
221 -307 -377 0
436 464 -328 0
279 -439 -455 0
235 -481 -96 0
108 217 167 0
475 -288 133 0
-265 -371 -187 0
144 150 338 0
157 372 222 0
-297 426 -314 0
-129 348 -414 0
295 -438 -23 0
-339 -179 -417 0
-42 306 -320 0
298 -185 490 0
-21 416 160 0
-294 -180 227 0
-238 134 49 0
294 -191 357 0
-36 -453 -265 0
-424 -458 -326 0
467 24 -111 0
-153 107 254 0
371 -158 309 0
443 -332 370 0
454 221 -475 0
53 492 -271 0
-188 -259 -242 0
-141 -235 72 0
-300 -84 85 0
396 -114 -247 0
284 245 -306 0
160 79 126 0
370 84 448 0
-225 329 -273 0
145 128 418 0
100 73 -164 0
6 443 235 0
-237 191 -374 0
-324 -347 -433 0
270 -388 -247 0
201 466 -257 0
-193 -254 220 0
-437 256 -255 0
399 394 422 0
145 -364 376 0
-268 -169 129 0
-154 368 321 0
350 -425 -455 0
311 -175 218 0
-481 158 -245 0
-416 -251 -3 0
-484 -367 -131 0
-22 -54 -390 0
-202 -64 195 0
-253 364 313 0
-117 286 308 0
60 280 -470 0
-452 384 261 0
12 -17 -454 0
200 -401 145 0
83 -19 24 0
-21 -151 253 0
86 -242 -497 0
-430 338 366 0
42 -250 443 0
479 -74 278 0
-472 430 -395 0
-131 119 -152 0
-220 463 -218 0
254 360 230 0
207 151 229 0
-101 449 214 0
113 -104 -290 0
69 -171 -249 0
422 -220 -358 0
-72 -205 123 0
-28 -236 -276 0
-71 -458 -2 0
-277 -56 -488 0
319 320 486 0
-159 -419 385 0
435 181 115 0
362 477 -257 0
-187 195 488 0
296 82 -307 0
177 366 -321 0
8 2 -427 0
75 -80 -247 0
80 -478 -325 0
76 150 151 0
-208 -416 204 0
3 -202 347 0
-315 -384 -132 0
-233 473 -51 0
-333 271 -494 0
-77 345 102 0
-307 431 166 0
481 121 355 0
34 470 384 0
-171 -294 -151 0
-410 -340 274 0
51 -180 -145 0
417 358 343 0
157 -253 -176 0
-149 -468 118 0
23 -183 -209 0
-413 282 320 0
-74 -98 102 0
-274 415 -323 0
119 -437 2 0
-29 491 237 0
16 -27 -235 0
-293 459 -110 0
229 -198 371 0
-193 103 -269 0
156 391 -397 0
107 -115 400 0
269 130 43 0
-237 357 442 0
174 324 42 0
323 391 -1 0
-281 57 -78 0
-258 14 -177 0
-225 -79 -94 0
131 -184 -404 0
-35 -249 143 0
-270 420 -407 0
99 487 155 0
-436 485 150 0
256 -368 -486 0
-213 -203 318 0
244 5 -395 0
-441 52 33 0
-452 483 -298 0
-47 -69 219 0
-36 -476 320 0
431 -1 477 0
-141 -492 170 0
-162 -306 -99 0
-227 303 -289 0
-17 1 341 0
-24 -385 -486 0
-131 382 -361 0
-139 -321 200 0
392 -294 -110 0
-333 -75 -130 0
-500 -412 257 0
-125 52 -241 0
347 362 -408 0
-198 -129 -359 0
-70 -410 65 0
24 494 205 0
-123 -104 -355 0
214 261 243 0
-475 469 -381 0
-478 -122 -306 0
-36 -113 451 0
-178 -338 366 0
289 -83 -149 0
-139 456 161 0
286 -130 -436 0
10 -107 -387 0
175 359 -495 0
439 385 73 0
202 -92 54 0
198 -60 -377 0
-263 152 100 0
-300 -470 -266 0
95 231 332 0
18 303 -123 0
241 58 483 0
-46 438 -494 0
-5 393 417 0
274 424 26 0
-371 -193 137 0
-170 52 168 0
-447 373 13 0
-297 -77 23 0
-495 457 418 0
213 243 -126 0
-410 188 483 0
-326 350 134 0
12 -304 409 0
-24 -500 131 0
456 138 313 0
-294 418 -130 0
-62 -388 -70 0
-19 -438 379 0
-281 -321 -367 0
-213 -61 -404 0
-309 -290 -98 0
296 -220 -255 0
-484 245 -275 0
-459 -497 46 0
155 162 103 0
9 254 -217 0
334 13 159 0
-401 453 115 0
-61 -495 -104 0
132 -321 -35 0
-117 -267 45 0
-219 -405 50 0
-481 -117 29 0
347 55 -494 0
-110 -46 -423 0
61 -113 -177 0
14 284 -302 0
401 369 417 0
387 235 231 0
160 301 309 0
-401 -195 -201 0
271 -51 297 0
-497 308 -116 0
73 351 125 0
402 -318 259 0
237 -70 -186 0
-61 135 -412 0
442 81 -53 0
393 471 318 0
14 -473 25 0
325 -320 -471 0
396 -300 -91 0
376 201 -79 0
-406 -242 447 0
406 54 -169 0
318 48 197 0
393 -157 -269 0
461 379 -130 0
-341 215 -420 0
-313 -86 -397 0
-212 338 -474 0
-316 -78 -350 0
-54 -287 199 0
300 219 334 0
412 -479 368 0
283 -128 -206 0
-323 -311 352 0
-341 -116 -245 0
453 379 363 0
-85 -45 305 0
-133 95 -269 0
108 471 -339 0
165 -55 64 0
36 -32 317 0
491 -279 -448 0
-448 -222 -496 0
248 196 -328 0
-219 196 263 0
136 -64 -264 0
194 104 -55 0
-486 229 -398 0
483 223 -487 0
-222 191 55 0
-252 324 -232 0
341 -99 80 0
20 33 141 0
183 -172 195 0
-42 -329 -85 0
-449 -204 444 0
16 375 -334 0
465 -56 272 0
-154 -387 -6 0
-108 -489 -284 0
430 -191 399 0
362 196 88 0
61 168 -195 0
228 90 419 0
-202 140 -287 0
-352 -169 489 0
155 112 -143 0
-324 237 314 0
349 -317 -380 0
-413 -43 -290 0
256 151 -474 0
-251 442 462 0
422 -254 -234 0
81 -18 -97 0
-253 106 -276 0
-275 143 254 0
-26 -278 296 0
-422 -207 -72 0
-350 467 113 0
-131 -236 -226 0
78 118 -89 0
-447 -43 3 0
-411 188 -300 0
-161 -233 -44 0
-453 405 -64 0
-255 -108 343 0
118 76 194 0
371 -480 295 0
-109 -320 210 0
-387 -244 433 0
373 267 282 0
248 112 -341 0
-412 -404 25 0
-180 -148 -171 0
20 -307 136 0
29 311 -307 0
-482 -132 -222 0
-101 -424 -466 0
351 -137 371 0
-372 258 -492 0
-24 -429 -287 0
427 -354 -136 0
389 -393 -327 0
243 -52 124 0
185 -213 -97 0
358 7 206 0
-251 -144 -393 0
370 -117 368 0
-362 -341 163 0
-117 470 -98 0
-98 178 342 0
400 290 87 0
308 -267 194 0
-173 296 250 0
-168 -320 -331 0
-128 -486 375 0
25 -140 373 0
-194 -107 -212 0
-130 -136 368 0
-435 396 85 0
471 406 288 0
306 312 147 0
74 -316 -391 0
-383 -291 -38 0
-371 418 -182 0
463 -299 392 0
-246 -112 -148 0
-158 -278 -364 0
465 -279 -389 0
322 258 -419 0
472 -113 341 0
-24 -104 -444 0
-314 347 445 0
-470 235 -239 0
112 -291 448 0
480 434 166 0
247 327 -359 0
-247 246 231 0
-496 -149 484 0
-219 302 -461 0
338 449 61 0
-400 -9 172 0
435 177 -302 0
-199 500 21 0
-397 -387 -93 0
247 336 -234 0
-247 -495 -308 0
-230 -449 -218 0
404 -397 -280 0
-251 -96 -106 0
-42 -220 -114 0
-22 -281 -387 0
-329 104 407 0
448 -350 -304 0
-363 -166 180 0
196 178 -419 0
-381 -194 204 0
109 -466 378 0
17 285 -410 0
-356 174 486 0
362 149 -175 0
373 -46 316 0
329 112 141 0
-162 126 314 0
-448 -180 388 0
-395 -180 270 0
63 -201 34 0
-365 -129 -421 0
363 -38 41 0
96 -305 -178 0
94 206 384 0
-272 -65 29 0
88 -171 -482 0
382 -499 -368 0
496 493 -384 0
305 -406 -17 0
433 497 -105 0
-270 -409 125 0
-356 -300 97 0
-175 341 -23 0
217 -213 364 0
187 204 -97 0
203 157 128 0
-261 -26 272 0
-228 -462 -293 0
-284 154 140 0
86 -419 -156 0
171 394 -257 0
49 484 -367 0
466 418 -410 0
468 181 281 0
-491 75 145 0
-35 456 208 0
-329 72 37 0
497 283 17 0
213 335 400 0
73 -372 -364 0
289 123 -29 0
377 -266 26 0
-103 -243 -377 0
-26 -69 -308 0
-165 -141 -298 0
474 219 264 0
335 -94 455 0
-183 488 267 0
445 -238 -81 0
-487 -103 -485 0
252 -8 296 0
-323 231 342 0
89 -358 -105 0
245 386 -449 0
15 382 -88 0
225 135 27 0
219 134 202 0
-136 252 -388 0
47 -229 211 0
246 -383 -48 0
-226 -67 227 0
-292 -226 150 0
103 -68 -331 0
-270 -461 192 0
22 -353 -356 0
-472 111 -415 0
281 -21 -30 0
360 -182 412 0
-403 -58 454 0
349 32 337 0
87 371 426 0
475 -20 -346 0
398 103 -353 0
400 -330 -52 0
160 -424 218 0
-393 212 285 0
-207 137 -249 0
488 342 -386 0
-461 291 405 0
-477 97 69 0
-233 -41 -99 0
-236 305 319 0
-212 444 -238 0
-155 -258 -4 0
106 -183 206 0
-377 -353 -475 0
-253 385 -500 0
-445 225 54 0
7 481 177 0
303 -464 118 0
139 -129 -40 0
-145 436 332 0
220 144 -65 0
92 90 -250 0
-408 -360 -249 0
387 -139 -292 0
-330 -362 -161 0
386 -12 165 0
-56 -485 -195 0
65 34 417 0
-196 -319 -417 0
-10 258 60 0
49 -431 -41 0
-424 436 15 0
-402 -383 -121 0
-79 -375 268 0
-412 -449 442 0
-309 -180 -19 0
309 275 -126 0
-473 131 418 0
141 77 449 0
468 481 249 0
-225 335 9 0
350 196 -268 0
229 211 194 0
-215 -160 -127 0
404 488 -248 0
-100 99 -355 0
145 341 401 0
204 199 227 0
-179 -345 336 0
215 -422 -23 0
-146 340 419 0
148 131 -389 0
-193 -498 -260 0
-117 132 -482 0
-77 -8 85 0
-114 -251 366 0
443 -440 118 0
-126 -80 219 0
431 385 27 0
-358 -189 -253 0
174 24 159 0
-387 -72 -92 0
-452 379 -165 0
-27 -275 -183 0
340 -378 233 0
-489 -162 351 0
168 111 -222 0
132 152 -411 0
-162 -39 -425 0
-84 -385 107 0
71 289 429 0
-398 206 124 0
104 413 -375 0
282 -414 -225 0
406 -125 40 0
-346 228 132 0
-256 445 -394 0
-408 -441 -45 0
-431 -343 -328 0
315 498 -314 0
-446 307 -284 0
43 149 -322 0
240 -181 342 0
-496 148 -403 0
-103 -339 -37 0
419 -290 48 0
-329 -269 229 0
-310 336 373 0
59 185 66 0
437 -403 55 0
-172 -34 -314 0
-105 443 264 0
336 181 -332 0
469 209 -32 0
-419 -451 -288 0
-454 -163 -4 0
-128 -185 -318 0
260 -430 -365 0
-310 312 -240 0
-370 -212 438 0
341 397 -34 0
-89 -376 124 0
399 194 314 0
268 175 -47 0
251 -115 -127 0
-183 -405 -492 0
237 485 -24 0
-278 198 357 0
-270 177 -408 0
5 -145 131 0
107 -169 -66 0
120 384 -488 0
-354 362 -125 0
428 -467 -358 0
324 386 244 0
440 4 -343 0
265 170 115 0
32 -377 -55 0
149 -365 -246 0
-66 125 494 0
-458 167 168 0
-485 157 -51 0
95 357 -329 0
42 471 -36 0
258 -111 -314 0
40 -196 -500 0
-129 252 -393 0
388 58 -430 0
-401 364 232 0
199 328 -167 0
-216 261 297 0
-497 125 -32 0
-405 -315 415 0
55 197 143 0
-239 -489 -466 0
111 -217 -20 0
-190 -319 -204 0
493 392 487 0
263 207 135 0
-209 284 -307 0
66 146 293 0
350 286 -123 0
117 249 -246 0
-464 434 256 0
-187 -52 -488 0
-471 226 489 0
-387 75 -145 0
-230 -321 -354 0
-68 -45 474 0
497 -313 -375 0
50 -184 -364 0
24 -70 202 0
23 318 188 0
-471 132 443 0
-348 -317 12 0
-333 -265 -237 0
243 207 292 0
299 -221 172 0
-353 -155 -329 0
29 -98 -63 0
-7 10 -445 0
45 235 -271 0
-341 488 -97 0
-19 -472 447 0
131 -316 -245 0
-189 -28 171 0
-155 -416 -41 0
-341 358 446 0
407 123 -413 0
125 -453 -31 0
285 34 -494 0
-305 -138 340 0
394 -165 -97 0
10 -318 -144 0
418 376 -293 0
-138 -271 181 0
-122 -151 197 0
427 39 237 0
-427 372 -137 0
-105 454 -170 0
-35 -487 58 0
-258 -196 204 0
337 455 -230 0
168 -340 298 0
6 391 388 0
-37 421 -48 0
-48 122 306 0
261 -291 -337 0
300 419 128 0
-104 -268 262 0
-82 160 -412 0
476 -257 409 0
-90 203 -325 0
295 121 445 0
29 -441 -149 0
428 -499 340 0
-280 -325 -226 0
-320 27 364 0
72 96 -425 0
-390 -97 323 0
-178 -268 -463 0
468 -186 406 0
-379 -219 375 0
432 89 150 0
-440 -444 -328 0
-267 411 -404 0
-192 219 461 0
-12 -424 198 0
-434 -144 63 0
63 -136 146 0
75 -444 297 0
-281 56 -14 0
104 -258 181 0
333 165 -442 0
71 -326 149 0
117 -223 268 0
-433 -476 -82 0
-322 -454 175 0
-271 -354 -478 0
330 -54 2 0
204 -284 -213 0
333 211 -36 0
-434 -437 375 0
-326 97 -394 0
499 -199 422 0
-392 -316 241 0
262 334 19 0
-11 137 -405 0
1 -289 217 0
479 482 -113 0
-264 24 -256 0
427 303 397 0
103 468 496 0
-174 145 258 0
36 -15 370 0
370 -20 -31 0
-2 -57 -420 0
276 226 -361 0
-151 302 -416 0
-388 80 -50 0
-240 -327 204 0
456 105 103 0
-388 -90 116 0
86 -17 317 0
-219 -43 132 0
314 -357 -257 0
107 -51 -380 0
490 148 -162 0
442 133 402 0
153 283 161 0
11 485 -58 0
481 337 21 0
-493 26 345 0
-378 464 -292 0
-288 -346 -231 0
257 -276 59 0
-100 -36 -316 0
364 -179 -473 0
-36 -80 133 0
-210 -182 -98 0
-91 -206 25 0
193 62 370 0
88 323 -105 0
-376 -379 340 0
382 418 205 0
207 -208 378 0
436 -12 -303 0
-280 269 -252 0
-272 -166 -19 0
211 420 40 0
-470 433 19 0
-11 -158 -499 0
453 392 217 0
-383 182 -263 0
426 -168 -52 0
328 -40 168 0
-67 -25 -407 0
323 8 163 0
-242 -21 300 0
-436 88 -9 0
211 420 -260 0
108 302 16 0
-127 228 -178 0
-151 -377 39 0
159 -155 225 0
-222 173 326 0
329 -311 113 0
-469 -237 -283 0
-102 -482 -104 0
1 -68 -451 0
11 241 132 0
-240 -68 -333 0
234 -63 28 0
-112 -466 -401 0
51 -36 -108 0
32 -433 377 0
418 34 245 0
6 -140 51 0
272 291 260 0
323 -221 -214 0
123 359 -174 0
56 61 24 0
196 394 -234 0
-195 331 483 0
-59 326 -477 0
79 20 -370 0
-418 -50 -230 0
239 -413 120 0
359 337 -156 0
-313 -91 97 0
-378 60 248 0
394 -28 430 0
-299 -323 4 0
430 4 -104 0
282 -346 20 0
-385 -150 149 0
-192 -403 -353 0
-35 97 -453 0
-363 423 -480 0
380 196 -71 0
-64 396 342 0
-361 -407 -9 0
-140 344 -409 0
213 242 89 0
60 -104 386 0
-12 89 306 0
441 -244 214 0
491 -359 80 0
95 -395 101 0
-34 -121 -312 0
-83 -30 -496 0
-33 255 488 0
486 -396 381 0
131 41 478 0
257 -481 298 0
444 -478 491 0
176 -385 -127 0
-144 -302 -389 0
-220 291 -279 0
-236 -175 -165 0
65 400 172 0
-156 24 -390 0
-35 -130 178 0
274 221 -380 0
237 70 477 0
490 -488 -453 0
492 -200 -410 0
190 51 104 0
-228 107 -245 0
462 -346 317 0
329 -154 -6 0
471 -185 -383 0
423 336 465 0
52 -453 372 0
-295 465 -451 0
-105 102 -343 0
-335 134 267 0
-272 -234 155 0
322 494 444 0
-163 107 312 0
-438 -82 315 0
-92 -354 -21 0
295 319 -189 0
-83 -187 -89 0
-282 -466 -439 0
207 -393 -126 0
-85 339 124 0
10 -71 208 0
-54 121 312 0
115 -144 -470 0
459 295 33 0
-71 426 3 0
-246 -472 183 0
195 356 158 0
-18 -105 29 0
-435 -243 236 0
419 -56 -488 0
-436 60 -284 0
153 11 45 0
199 315 232 0
-271 276 -166 0
-19 479 -149 0
-168 237 -70 0
-235 396 -27 0
-480 -56 446 0
62 -224 110 0
363 -158 -125 0
-206 -220 333 0
131 -139 -83 0
-259 196 -371 0
65 81 -415 0
308 40 -228 0
-54 395 -348 0
347 219 -201 0
241 455 451 0
-318 498 399 0
-377 -414 -400 0
-199 -465 423 0
184 115 -34 0
106 -139 37 0
-26 -412 395 0
484 -70 -457 0
-217 225 65 0
57 91 458 0
-170 125 -360 0
-415 56 -274 0
65 187 -122 0
-64 165 -260 0
245 411 -2 0
176 -285 409 0
230 -278 312 0
-133 -371 253 0
-265 -274 -279 0
268 -277 60 0
-378 434 192 0
440 -144 221 0
288 -432 -421 0
-220 309 -223 0
36 -151 -452 0
374 201 366 0
-164 -9 -330 0
482 -272 -422 0
42 -208 351 0
-122 391 48 0
-34 25 159 0
473 -242 -31 0
-135 -164 -88 0
-41 415 -454 0
-274 15 -282 0
-270 -314 395 0
461 421 -306 0
-305 -188 135 0
-324 36 -390 0
-247 415 29 0
-273 499 24 0
-428 -91 497 0
57 -74 -216 0
238 255 -310 0
317 356 -294 0
23 -162 488 0
-234 -281 174 0
-217 470 293 0
222 -462 -163 0
-72 -79 243 0
146 457 -20 0
-189 -170 210 0
-346 190 242 0
95 475 -222 0
-201 -487 -221 0
286 -309 -142 0
122 22 397 0
-308 273 453 0
364 452 -61 0
219 332 36 0
191 44 -457 0
468 -369 -218 0
166 -320 339 0
-488 -171 264 0
220 180 5 0
-252 -259 411 0
-316 355 -284 0
74 -123 -252 0
-444 442 277 0
40 117 -307 0
492 281 -150 0
-249 466 42 0
192 -21 156 0
-469 -203 -29 0
-96 161 -348 0
-150 -111 370 0
293 322 295 0
245 -440 -56 0
-120 10 452 0
338 -469 170 0
-236 -140 -314 0
-439 -230 -51 0
126 104 109 0
-35 19 -468 0
361 246 377 0
138 211 420 0
264 22 -456 0
-72 124 -385 0
-301 491 463 0
-334 -189 -220 0
-40 433 414 0
416 -304 196 0
-196 -6 371 0
-313 -222 -215 0
-331 -370 71 0
-377 -95 479 0
442 -397 117 0
-49 161 -111 0
-401 74 -295 0
-213 26 495 0
311 245 -377 0
-478 31 113 0
158 -259 -449 0
-85 -130 -306 0
331 -447 306 0
-234 260 462 0
-313 30 -352 0
381 448 -61 0
489 464 -24 0
-485 433 189 0
298 -285 406 0
391 -47 -404 0
-492 305 307 0
287 360 395 0
206 -427 167 0
359 -210 -150 0
451 214 251 0
-372 -155 402 0
-161 489 -46 0
157 321 177 0
-168 305 -403 0
411 318 41 0
-489 -270 -491 0
-20 441 -356 0
275 295 -268 0
-354 283 -333 0
216 -436 -236 0
413 471 -347 0
245 337 -96 0
19 -273 236 0
456 50 -438 0
-26 -129 -112 0
-455 -361 -296 0
-3 346 431 0
-218 27 216 0
482 455 134 0
368 361 15 0
29 -153 -292 0
128 54 233 0
-412 112 -487 0
-127 428 -203 0
-434 -266 -252 0
299 281 100 0
-62 -298 288 0
-444 -120 -256 0
157 439 -18 0
-370 311 305 0
61 204 -56 0
203 -299 -141 0
-257 170 -55 0
-383 -286 268 0
437 218 -346 0
420 -415 82 0
106 -186 -308 0
-455 -336 -70 0
310 154 -159 0
-184 123 -252 0
-180 458 -452 0
342 -3 142 0
-180 194 -109 0
357 389 107 0
-345 -461 38 0
-470 -221 56 0
-332 104 202 0
-268 292 -149 0
470 -84 171 0
-318 -95 -384 0
-22 -473 386 0
-63 150 294 0
83 -57 64 0
-50 -467 -298 0
-87 -226 -455 0
-499 316 -334 0
-211 83 354 0
101 71 -377 0
351 113 -492 0
-437 209 -184 0
-2 -110 487 0
318 -342 -359 0
415 -55 277 0
254 151 196 0
-77 -471 -315 0
399 28 125 0
-106 207 -120 0
364 -331 -398 0
395 -260 -167 0
173 45 -164 0
-61 471 495 0
-438 304 -293 0
-182 -59 196 0
393 341 82 0
-323 335 -286 0
-124 -275 -358 0
311 -349 396 0
-389 240 -269 0
340 -198 -243 0
447 -429 389 0
-112 446 -369 0
-242 -227 431 0
-289 -124 -14 0
-279 -282 -33 0
-1 275 -188 0
171 -255 -133 0
-403 315 -23 0
82 411 -388 0
194 -303 -283 0
-393 464 218 0
16 -11 -321 0
10 218 366 0
406 -292 -67 0
-269 7 135 0
450 -168 119 0
-12 377 124 0
-277 -247 -99 0
148 -491 -370 0
307 449 6 0
-208 326 -245 0
62 -138 -162 0
-140 -438 -254 0
318 65 -24 0
224 376 420 0
-71 217 86 0
180 -277 148 0
-385 -474 135 0
-72 -161 264 0
-53 -117 293 0
124 102 -45 0
99 50 447 0
-110 368 -13 0
122 -492 -123 0
199 -380 -161 0
261 -198 80 0
-461 -10 -1 0
-129 428 21 0
-470 -120 -310 0
485 -61 -65 0
-259 17 -64 0
194 -384 134 0
438 -431 319 0
485 -130 -355 0
81 127 108 0
-408 -385 151 0
-382 -392 403 0
406 -215 281 0
98 -490 40 0
-374 192 -474 0
-431 -113 -379 0
339 -275 -142 0
-342 276 -233 0
-34 -142 -31 0
-50 357 187 0
-429 -291 427 0
388 442 344 0
218 282 -1 0
130 -205 -112 0
-290 16 334 0
-62 -426 85 0
207 459 289 0
240 130 2 0
15 421 159 0
420 292 39 0
388 -197 341 0
-447 207 498 0
-162 -21 -270 0
479 -113 -53 0
456 -349 69 0
175 -395 296 0
226 54 -265 0
6 18 321 0
384 -349 -49 0
-477 -408 -247 0
-481 475 189 0
6 -163 -171 0
435 -292 137 0
474 -221 -413 0
-491 26 68 0
410 40 -330 0
-135 50 173 0
-153 -438 -107 0
146 -283 -216 0
-290 173 -74 0
430 268 312 0
114 4 -229 0
-68 402 -184 0
-453 239 325 0
-83 -365 242 0
220 26 478 0
-263 -362 418 0
-101 -92 -398 0
-135 -205 157 0
-4 494 -313 0
-234 -452 453 0
428 394 139 0
221 295 -308 0
-91 -277 -70 0
-257 -357 -291 0
-88 61 -364 0
29 38 386 0
198 -297 -410 0
-172 -434 -2 0
-59 -213 -120 0
357 174 493 0
-439 -361 397 0
464 3 -484 0
-102 470 465 0
-184 80 199 0
42 -444 -329 0
-334 290 -374 0
149 -127 -435 0
-183 302 -349 0
173 324 -381 0
-80 82 -159 0
-338 -90 -127 0
176 179 -279 0
-248 -6 338 0
270 203 76 0
-263 147 320 0
-124 144 -380 0
49 287 -66 0
52 119 -162 0
-330 -326 209 0
395 -149 -200 0
438 -369 -195 0
214 -72 -370 0
66 -204 417 0
-448 -472 436 0
-380 63 141 0
-28 124 126 0
16 -434 57 0
297 -498 176 0
-49 449 78 0
-25 -234 -23 0
149 -361 -464 0
155 215 420 0
427 -474 325 0
457 127 -352 0
-335 490 -363 0
420 253 15 0
132 73 -131 0
-77 243 -340 0
329 -278 277 0
-88 345 -113 0
77 99 -482 0
364 383 -120 0
-324 89 -40 0
-311 -110 298 0
-484 -349 250 0
-239 18 238 0
-440 269 -222 0
-424 -210 -156 0
140 -264 -465 0
321 -388 -121 0
-87 89 -105 0
-256 -17 12 0
381 -261 -480 0
-173 342 -360 0
-61 439 238 0
61 -166 77 0
-157 -23 317 0
121 -473 221 0
109 328 348 0
374 -173 499 0
295 -408 -20 0
314 376 220 0
82 116 -386 0
289 -285 -189 0
-271 -349 436 0
-201 -229 -465 0
78 252 169 0
420 -335 -5 0
10 -99 199 0
-270 130 -339 0
62 -125 266 0
329 -80 365 0
160 -430 279 0
191 -185 43 0
210 232 -85 0
452 -454 234 0
-34 467 376 0
375 70 405 0
-61 99 176 0
-324 210 214 0
-451 -219 150 0
-440 -389 87 0
208 -261 84 0
-91 364 -225 0
-217 126 -151 0
154 15 -346 0
163 359 -184 0
-131 -192 -194 0
-393 -149 -119 0
445 22 94 0
353 -142 149 0
-483 -96 16 0
356 -442 -135 0
316 78 128 0
439 149 -92 0
-79 -143 -226 0
-134 -102 -435 0
-321 182 483 0
233 283 352 0
432 255 -246 0
-59 334 225 0
458 111 217 0
-368 -291 361 0
379 177 -480 0
-322 -3 -25 0
-107 116 290 0
-86 480 432 0
-449 337 -69 0
318 -105 -458 0
484 -222 258 0
44 -492 247 0
63 365 209 0
-262 -461 126 0
56 394 109 0
-324 -37 -422 0
362 -128 -218 0
-345 190 284 0
-370 455 -306 0
-35 189 -157 0
19 -365 -138 0
195 -315 60 0
-109 -203 478 0
19 176 260 0
316 -87 318 0
381 -288 -483 0
-275 -104 -98 0
-312 401 -477 0
4 -36 213 0
-203 224 85 0
304 397 150 0
-437 276 -489 0
17 382 -358 0
-426 -214 220 0
-158 -89 -3 0
-107 -191 -479 0
