p cnf 500 1225
189 -180 -312 0
446 -195 296 0
-422 261 -348 0
-405 397 64 0
487 220 -69 0
-378 -370 -230 0
-415 483 372 0
-379 -95 13 0
173 16 -454 0
-320 -239 108 0
-134 -57 399 0
486 474 -329 0
337 25 -22 0
227 -224 -378 0
425 258 152 0
-229 67 -479 0
251 479 21 0
286 32 -417 0
-85 250 -425 0
-16 -116 -240 0
469 140 476 0
-459 296 -370 0
-334 94 -438 0
-15 -228 -439 0
182 346 440 0
205 -177 327 0
-283 -361 -221 0
196 243 398 0
166 -34 244 0
76 397 428 0
-281 46 18 0
-195 -174 -478 0
-328 11 111 0
-22 91 379 0
86 432 22 0
-218 -316 368 0
5 72 165 0
230 489 25 0
-422 461 323 0
-97 -361 148 0
-452 -45 32 0
381 -10 -402 0
-51 -139 -464 0
81 114 340 0
338 331 -146 0
-78 280 -443 0
174 -480 -160 0
61 -443 155 0
180 118 -46 0
92 39 174 0
-463 -403 298 0
166 -203 -102 0
105 -217 -349 0
127 -21 110 0
-191 369 132 0
159 -271 -74 0
-32 -381 -273 0
448 131 260 0
-356 -54 -487 0
-66 -380 115 0
-181 61 290 0
417 -282 428 0
-331 -407 423 0
46 -139 296 0
325 295 203 0
438 -253 58 0
429 -283 -497 0
367 23 318 0
-158 172 -10 0
-430 107 11 0
-128 474 393 0
39 -9 369 0
350 144 22 0
112 266 -334 0
-202 -121 -446 0
-126 -471 -490 0
480 355 -136 0
-237 466 473 0
264 -162 78 0
-295 -84 -184 0
191 272 356 0
388 485 -104 0
107 -414 -390 0
69 285 456 0
-17 -316 441 0
-242 -359 -243 0
391 449 -367 0
-254 -405 210 0
420 -111 56 0
-87 329 169 0
-75 395 -389 0
187 130 275 0
279 -50 381 0
-31 462 -430 0
447 185 430 0
-201 -19 260 0
-365 407 -479 0
137 -175 -68 0
5 -438 -402 0
-368 475 42 0
329 90 282 0
159 425 118 0
-315 126 100 0
-406 -77 255 0
235 -7 259 0
-445 301 -427 0
378 -73 -431 0
-193 264 -197 0
9 -137 343 0
-469 176 -443 0
-207 236 161 0
485 365 -200 0
-312 451 -300 0
-336 359 -372 0
-452 87 114 0
53 366 -162 0
-239 -113 -337 0
-198 486 100 0
201 385 -460 0
238 -51 289 0
405 423 -60 0
14 381 -149 0
-357 -42 270 0
61 360 -405 0
158 -120 -209 0
184 -18 228 0
62 182 -280 0
-472 -91 18 0
28 -283 -225 0
-428 -17 44 0
-315 128 131 0
88 -160 -497 0
-24 7 178 0
411 -190 -426 0
-404 484 2 0
400 -368 -298 0
-74 -478 221 0
177 190 157 0
-167 286 -257 0
393 -417 121 0
65 -417 -98 0
-464 -179 -330 0
233 161 262 0
-242 -155 38 0
-33 -414 205 0
274 172 -317 0
-151 460 -198 0
-289 85 -157 0
48 -332 285 0
222 448 106 0
-279 -428 -343 0
102 -284 -201 0
-360 -78 72 0
215 224 493 0
-9 349 78 0
93 301 243 0
238 61 389 0
-302 -457 -269 0
-41 -147 -444 0
-149 114 176 0
400 497 -441 0
22 -348 -204 0
-176 63 102 0
304 470 329 0
-402 -229 -36 0
-109 -27 26 0
-397 138 390 0
-418 402 -213 0
-457 55 28 0
430 263 -298 0
-301 -345 -163 0
-277 414 345 0
-315 101 437 0
-296 397 -127 0
303 232 -343 0
481 387 64 0
-177 30 -452 0
-446 -320 7 0
164 70 -427 0
142 -317 118 0
-67 367 320 0
-257 489 65 0
56 -245 -342 0
-315 -35 85 0
177 -105 -428 0
24 -76 392 0
232 11 172 0
-175 473 -499 0
436 -183 -329 0
-464 -258 -98 0
415 -96 114 0
-134 99 -197 0
-51 171 240 0
-154 369 395 0
330 -294 457 0
-390 -200 43 0
75 -445 164 0
-306 65 -382 0
-111 321 183 0
417 114 450 0
-252 389 19 0
471 -85 -313 0
432 488 -210 0
-389 -65 327 0
-20 -338 -489 0
449 262 258 0
374 -468 -231 0
112 -263 211 0
-149 100 257 0
-317 91 -27 0
-441 414 -323 0
426 360 17 0
-422 30 98 0
229 314 435 0
69 -432 -81 0
498 286 -280 0
280 360 -71 0
112 -53 -203 0
-258 333 484 0
54 -45 486 0
-388 -498 122 0
139 286 283 0
236 -27 190 0
425 252 178 0
-294 -454 -26 0
231 74 -433 0
-7 288 70 0
-20 168 329 0
291 -260 -371 0
-215 93 411 0
-463 96 -397 0
-406 -192 235 0
-215 398 122 0
-167 -289 307 0
433 485 448 0
413 -159 319 0
-92 494 445 0
-111 183 166 0
-276 210 314 0
286 216 372 0
-429 299 -396 0
-197 89 386 0
462 114 4 0
-129 -311 -290 0
-189 6 354 0
-435 -82 -387 0
-332 25 -358 0
-258 -262 427 0
-258 112 401 0
-126 54 -469 0
267 412 377 0
-286 -469 133 0
258 -128 -465 0
-390 -133 342 0
292 -151 493 0
-483 -324 425 0
7 335 295 0
223 4 -373 0
-70 -405 -297 0
-101 -500 -129 0
223 74 -292 0
-398 -352 241 0
-222 -94 15 0
406 94 -294 0
101 161 -241 0
127 -216 472 0
-499 80 497 0
308 149 314 0
368 441 -334 0
180 -403 324 0
-216 334 500 0
-444 -174 -364 0
-313 -258 242 0
-359 302 -336 0
-371 -168 -99 0
-272 -27 -149 0
125 -420 -242 0
174 -131 196 0
-497 137 -252 0
12 183 -222 0
150 432 -350 0
124 487 449 0
-265 -360 -371 0
387 -213 49 0
-53 39 426 0
314 412 152 0
-405 69 187 0
-306 -70 -495 0
-253 129 -438 0
-402 -408 -83 0
475 499 315 0
365 247 -488 0
228 203 -325 0
166 -294 26 0
366 488 -494 0
-86 246 -224 0
252 484 -364 0
187 -128 -499 0
-269 95 124 0
253 -236 110 0
24 223 476 0
-453 468 11 0
-405 -303 -332 0
2 -230 -142 0
-27 -246 379 0
324 124 21 0
-89 412 -464 0
-247 346 350 0
-447 -301 -247 0
-77 210 -183 0
-327 475 -190 0
-429 -281 357 0
-481 -479 -315 0
129 212 336 0
360 -181 -467 0
-431 356 -16 0
-314 106 -389 0
-296 33 -104 0
-28 -221 458 0
-141 64 499 0
-70 -169 138 0
-147 -421 316 0
169 -152 122 0
218 -441 -152 0
134 -203 -249 0
33 -47 268 0
127 280 197 0
-119 -230 -364 0
27 309 454 0
-387 -295 425 0
265 407 376 0
-89 139 -317 0
198 -193 -248 0
340 482 -138 0
-298 -231 -210 0
433 363 -349 0
-417 72 -294 0
-457 84 446 0
-391 471 315 0
99 338 -335 0
88 477 -282 0
365 -439 344 0
-454 -156 219 0
-338 449 424 0
416 -380 -240 0
321 81 390 0
172 392 -91 0
-207 278 87 0
144 -170 196 0
296 -490 179 0
-363 388 -274 0
-45 -20 438 0
-20 211 81 0
21 102 -368 0
465 9 -458 0
-367 168 305 0
-248 -366 -269 0
199 24 476 0
-459 284 -401 0
129 251 30 0
149 -119 -209 0
227 320 460 0
335 38 300 0
127 417 195 0
-302 61 -406 0
-264 -79 131 0
-261 -284 46 0
301 -2 -314 0
177 22 203 0
-170 80 307 0
239 211 437 0
-373 286 195 0
78 19 -435 0
-293 -158 44 0
-246 135 -297 0
293 277 -224 0
-67 -82 184 0
-80 -124 -435 0
-79 129 -276 0
-287 -296 306 0
-58 69 -186 0
460 396 178 0
176 -494 299 0
-231 -151 -471 0
108 406 -385 0
-356 -246 -286 0
191 -4 469 0
-137 -497 451 0
247 -344 -440 0
-449 188 -206 0
-229 -21 -455 0
290 334 -141 0
107 -170 498 0
-422 406 -157 0
485 -192 377 0
335 -402 448 0
359 66 -267 0
-39 494 -346 0
-412 -370 196 0
295 19 -178 0
-12 357 401 0
-322 192 102 0
95 122 -268 0
-474 -367 404 0
1 -492 433 0
-221 51 -190 0
417 22 21 0
-175 76 -193 0
-196 348 -423 0
-452 -354 314 0
178 320 411 0
183 322 422 0
304 377 123 0
-279 -380 268 0
-402 202 409 0
387 -158 -282 0
293 264 142 0
-81 95 -244 0
-305 301 -436 0
-240 -455 -98 0
-470 62 14 0
-465 137 -184 0
-449 -258 443 0
476 -98 312 0
-21 167 -463 0
67 -426 -164 0
313 -248 -398 0
498 -375 132 0
-380 100 -312 0
152 207 296 0
32 132 -196 0
-279 -85 -16 0
-490 266 -143 0
-103 489 -421 0
-203 276 206 0
311 373 -3 0
-447 439 -359 0
435 -240 -343 0
201 330 38 0
332 -365 -212 0
71 -25 -388 0
421 470 -375 0
153 252 -335 0
332 -430 89 0
344 296 -499 0
-194 -280 71 0
-280 -118 -88 0
-149 -134 81 0
-9 -133 -293 0
-279 26 298 0
-88 27 438 0
194 -116 -153 0
-142 -128 -373 0
-313 -322 -344 0
-49 459 499 0
222 -114 91 0
237 430 -69 0
-306 341 -370 0
-377 497 20 0
-415 -76 181 0
362 -425 304 0
-172 -102 338 0
-468 -138 -317 0
371 260 -422 0
-246 194 -31 0
-482 466 34 0
375 -346 323 0
202 472 312 0
311 -259 -392 0
-258 -369 165 0
115 -268 -349 0
-136 -46 -459 0
-251 -126 -70 0
-281 90 -479 0
261 372 -442 0
-361 271 -483 0
-14 391 69 0
277 -395 -95 0
-10 -115 168 0
108 -251 257 0
-251 126 342 0
-412 -304 -33 0
-395 451 -313 0
-378 245 -396 0
-458 -324 -445 0
-35 -159 461 0
188 -334 420 0
425 333 303 0
-327 465 -92 0
192 379 -157 0
333 -3 499 0
263 -201 267 0
-337 -255 -231 0
489 339 -333 0
-166 -22 -218 0
-173 -461 490 0
-431 89 202 0
77 306 236 0
-243 -168 -59 0
-388 -117 -405 0
156 -344 32 0
-379 352 -469 0
-250 41 -165 0
-411 -81 93 0
201 -138 257 0
-89 -78 -367 0
72 -243 -366 0
17 -263 464 0
236 -210 -319 0
93 -35 -240 0
111 -56 -178 0
-292 -186 296 0
-386 138 428 0
286 88 -366 0
-497 -411 -481 0
-154 -342 158 0
394 -375 -495 0
-234 57 210 0
444 12 -73 0
483 -181 -213 0
-388 120 -305 0
26 -383 -129 0
-478 190 -406 0
306 -398 -299 0
297 -424 -195 0
-22 -31 201 0
-107 254 -398 0
348 -43 -250 0
304 -138 114 0
436 467 395 0
214 277 193 0
-110 239 -390 0
7 470 -79 0
-45 37 -367 0
-370 -32 115 0
415 232 -194 0
-207 483 469 0
44 -194 -352 0
-181 -13 168 0
-345 -90 217 0
-440 -94 177 0
289 382 196 0
-394 -438 73 0
-139 424 281 0
-321 354 297 0
3 -15 -426 0
429 -373 9 0
-134 183 -481 0
344 -350 -320 0
-376 235 277 0
-19 -491 -308 0
-227 143 -180 0
-127 -278 -242 0
-118 6 472 0
335 -360 -294 0
94 -118 -321 0
102 -35 393 0
221 -478 248 0
-353 -12 -325 0
-69 -219 228 0
-391 11 -333 0
136 357 325 0
-151 -164 75 0
-26 -275 -43 0
-178 -173 157 0
-362 -144 -228 0
417 -325 -21 0
-244 77 488 0
315 -405 58 0
-332 495 -160 0
313 -287 98 0
-218 209 -381 0
-218 -101 66 0
283 18 17 0
-476 -450 331 0
242 -165 -140 0
-56 115 -417 0
214 -466 122 0
-141 500 357 0
442 -306 -463 0
-375 84 55 0
-404 284 -311 0
-87 363 -148 0
-324 190 -255 0
293 62 -273 0
-412 400 -189 0
-113 94 -290 0
92 50 -321 0
61 133 479 0
52 -56 384 0
-16 493 494 0
118 -127 -284 0
-292 -475 308 0
-81 500 6 0
-359 89 -426 0
-156 -495 -216 0
-136 -346 -127 0
135 -243 139 0
-348 -340 246 0
-77 263 138 0
437 -140 -481 0
-117 -114 -15 0
46 -90 -408 0
-451 11 -250 0
-385 325 -153 0
-430 366 139 0
485 491 197 0
-214 -91 -177 0
56 60 -495 0
187 -248 -136 0
-488 -276 434 0
-214 -221 432 0
-326 188 12 0
151 65 46 0
337 41 -6 0
442 -245 -316 0
-485 -100 475 0
358 -245 -452 0
-285 -481 193 0
6 -268 -278 0
-29 462 305 0
-322 -376 289 0
100 151 456 0
362 233 220 0
-349 -61 214 0
398 225 -263 0
-267 -58 405 0
110 161 326 0
53 -58 256 0
-481 -420 -242 0
-109 -450 -195 0
25 -206 -365 0
500 -478 -76 0
-107 80 -237 0
-428 42 -408 0
425 -373 -40 0
2 -215 267 0
-293 -259 353 0
260 -24 90 0
-417 144 -373 0
352 -227 83 0
-97 70 -163 0
157 -374 -436 0
-269 -140 -220 0
421 -457 -80 0
411 277 -96 0
53 86 -177 0
-99 -249 228 0
-11 62 -244 0
137 -270 -476 0
-411 -253 446 0
-90 -484 315 0
332 -80 283 0
38 -54 -33 0
-4 372 411 0
332 -487 -342 0
489 331 389 0
33 -472 -34 0
-311 237 -84 0
326 -112 88 0
1 -401 160 0
446 -421 -283 0
457 -56 -5 0
371 51 -270 0
302 468 170 0
-405 -364 191 0
-201 -282 303 0
-459 118 313 0
-406 -184 -94 0
-310 -111 -441 0
-451 395 -336 0
-381 -51 20 0
471 395 -296 0
342 -414 221 0
137 397 340 0
241 -234 192 0
260 -481 -226 0
-20 -280 -477 0
282 499 98 0
-55 -207 484 0
-405 106 -246 0
375 117 -288 0
-32 98 -135 0
381 19 280 0
165 192 -338 0
-256 94 -415 0
471 198 -486 0
89 343 279 0
310 23 -435 0
-55 -463 -80 0
431 -329 -48 0
165 148 -220 0
208 -135 395 0
-146 -353 -342 0
343 229 -438 0
173 34 -474 0
109 277 -17 0
-105 -86 -314 0
-87 58 354 0
-486 -63 -316 0
-92 142 -343 0
178 -342 -134 0
-48 197 -342 0
-78 -185 -407 0
-15 -362 -134 0
-125 -308 486 0
-303 476 -153 0
123 462 -189 0
-130 73 -175 0
447 468 259 0
125 -284 229 0
427 266 353 0
234 86 89 0
146 -398 161 0
-361 -357 -379 0
-493 -371 -471 0
-325 9 -213 0
-270 380 -292 0
49 232 -346 0
68 165 -488 0
-162 224 154 0
243 413 -499 0
-39 131 12 0
-60 153 253 0
-57 -264 -9 0
247 -299 -310 0
223 339 198 0
298 174 -493 0
-247 243 316 0
303 -222 -138 0
-80 414 -299 0
-348 253 150 0
201 -492 103 0
-297 -416 -136 0
433 -296 -3 0
64 -489 -343 0
-216 -337 -203 0
-375 -224 5 0
-154 101 17 0
-281 -233 406 0
328 374 -136 0
355 -245 61 0
-100 -152 358 0
-279 173 -490 0
-133 17 -445 0
484 -100 -170 0
347 -385 -130 0
-132 207 -236 0
-486 -329 -433 0
-432 -244 277 0
378 420 -177 0
-386 394 -85 0
261 379 290 0
401 -145 -228 0
-365 74 491 0
97 300 -469 0
26 -479 -480 0
25 -364 444 0
127 -496 -337 0
-13 217 -302 0
58 -11 227 0
-490 7 425 0
22 -149 -476 0
-472 178 -331 0
326 296 -497 0
-25 242 -57 0
-37 23 242 0
-206 481 -417 0
-62 475 -281 0
-445 -359 369 0
-392 334 346 0
329 84 -202 0
-184 329 96 0
-101 -339 291 0
326 50 -333 0
242 133 -357 0
186 27 253 0
-74 -330 -21 0
-120 -48 -346 0
-500 -219 -400 0
-126 -427 -162 0
190 67 -416 0
-53 -337 -418 0
-322 290 -139 0
-470 133 -444 0
43 88 -337 0
459 223 89 0
-32 -193 173 0
230 43 132 0
301 -134 -207 0
363 -309 -22 0
122 441 343 0
-103 -236 356 0
-241 -275 -248 0
-305 42 -475 0
155 422 167 0
-112 385 58 0
-212 -383 -363 0
-498 352 -98 0
62 -245 -333 0
-118 -306 -27 0
-24 23 348 0
-164 -309 438 0
223 -397 141 0
-466 133 -342 0
-264 459 244 0
-271 148 500 0
87 348 -190 0
-55 433 -342 0
454 -460 340 0
68 -93 497 0
272 40 127 0
-359 24 281 0
-415 378 493 0
-374 -426 -492 0
-371 -103 297 0
278 -433 -486 0
332 -431 -212 0
-120 -127 -480 0
88 -68 -301 0
294 -381 -253 0
-86 238 -7 0
-281 324 297 0
-117 209 162 0
-169 488 -259 0
-178 67 305 0
-271 353 199 0
-165 382 372 0
-303 346 298 0
6 -473 -468 0
-145 328 -150 0
463 22 179 0
-276 384 -283 0
149 -402 133 0
494 20 337 0
429 -284 335 0
-363 78 357 0
198 324 152 0
402 321 -23 0
197 328 458 0
193 -217 -325 0
387 413 494 0
-260 -263 131 0
419 160 -131 0
387 -7 447 0
-292 242 481 0
-267 -461 92 0
476 76 109 0
266 332 -401 0
271 338 65 0
-208 97 -164 0
413 -132 411 0
-419 56 20 0
-132 -277 -361 0
-139 427 -388 0
21 322 -206 0
379 -288 -457 0
-196 65 122 0
400 392 -435 0
69 290 -122 0
-88 160 -323 0
157 -369 117 0
-463 297 -204 0
-18 416 455 0
268 115 -90 0
-401 321 89 0
-12 -485 -223 0
-158 438 -392 0
180 416 -104 0
458 416 252 0
121 118 -49 0
225 -294 -123 0
395 109 -448 0
438 -452 -186 0
-101 199 60 0
353 -35 -57 0
414 117 -49 0
-362 454 -267 0
-45 -328 -291 0
356 71 421 0
-434 -143 423 0
-319 -426 178 0
-285 229 75 0
232 272 98 0
-434 298 387 0
299 -461 477 0
-431 492 -85 0
202 139 491 0
-314 -497 -94 0
98 276 -498 0
381 464 -430 0
228 36 -316 0
-334 244 230 0
-450 -114 194 0
-134 91 -306 0
-189 222 491 0
414 420 488 0
259 25 147 0
-98 445 431 0
386 -211 156 0
442 -1 -62 0
-141 -327 191 0
61 -310 -474 0
-303 274 197 0
-477 -219 -491 0
-10 -6 -240 0
-127 59 -41 0
364 320 -441 0
-318 -301 110 0
177 -129 -233 0
499 -494 -412 0
422 -181 -190 0
-373 220 348 0
-142 165 405 0
-8 144 -171 0
-110 386 134 0
-453 257 -35 0
437 215 -300 0
-360 -122 -460 0
-449 -268 -286 0
-420 293 -433 0
87 485 75 0
174 -336 111 0
254 -344 -313 0
-181 428 143 0
426 69 -115 0
-278 367 -291 0
369 -385 399 0
451 -6 122 0
-237 471 -489 0
300 -134 171 0
21 160 -493 0
-21 -375 -495 0
-415 -466 -269 0
155 -439 288 0
222 -396 498 0
-471 -372 -21 0
236 200 360 0
-168 318 198 0
189 -431 -462 0
-182 449 -160 0
-299 188 55 0
234 -351 -94 0
475 399 -180 0
60 291 -379 0
102 14 -106 0
-469 -350 169 0
207 397 329 0
430 239 -94 0
-295 312 -57 0
-70 245 -305 0
-357 -108 -478 0
-323 -33 175 0
-228 -176 -33 0
36 -459 -180 0
-226 -216 -105 0
394 -28 270 0
-311 230 20 0
-298 -486 333 0
22 354 456 0
-7 -415 -12 0
-410 -348 -173 0
385 -85 -2 0
-164 -413 -211 0
-488 141 152 0
179 357 -323 0
395 361 -369 0
-378 -346 312 0
-269 -213 -50 0
292 -2 -378 0
439 275 187 0
329 163 -461 0
326 -342 -33 0
247 -496 -286 0
-298 -64 -403 0
-465 -414 344 0
-228 -487 -45 0
-425 367 -460 0
-405 111 373 0
122 84 458 0
280 -95 335 0
-487 -332 -207 0
-260 387 -429 0
-181 280 483 0
132 -137 -287 0
-226 495 244 0
-58 89 92 0
220 12 -276 0
-148 366 -38 0
-321 175 442 0
-242 -380 -109 0
-493 15 472 0
-168 -56 279 0
-471 167 -481 0
-83 125 188 0
367 -132 55 0
306 -376 -148 0
277 -446 185 0
-223 305 -79 0
-219 -9 37 0
-381 -182 268 0
-194 -268 -20 0
491 273 -345 0
-170 -37 366 0
68 -10 410 0
117 -418 495 0
389 -236 -219 0
440 129 -420 0
394 121 -233 0
-277 -272 410 0
-395 -314 -493 0
127 309 -236 0
83 407 -393 0
141 -93 113 0
-489 218 187 0
246 -294 13 0
99 355 38 0
-20 -277 162 0
-68 285 105 0
468 196 -110 0
-492 299 227 0
-437 30 -298 0
409 376 360 0
452 -1 66 0
428 289 467 0
-250 106 -207 0
187 286 -25 0
-448 97 -192 0
11 -209 -62 0
285 -447 -171 0
-335 476 -471 0
-293 135 365 0
226 189 -99 0
-165 141 166 0
-45 -440 -176 0
278 213 -457 0
297 224 -257 0
101 13 398 0
-303 393 -8 0
307 331 282 0
365 15 -166 0
-233 -54 194 0
-153 -178 -72 0
-485 -379 302 0
-69 54 -37 0
-219 309 162 0
-65 163 292 0
244 86 349 0
-416 86 -33 0
24 -147 427 0
-87 -367 207 0
451 -340 -311 0
22 264 -267 0
-460 -494 -134 0
474 286 158 0
-7 105 23 0
336 358 -326 0
350 -440 174 0
31 -88 342 0
-49 -355 236 0
-33 -70 77 0
-216 245 -103 0
-167 -295 200 0
128 -36 343 0
-341 -375 308 0
438 418 212 0
-231 166 430 0
-142 43 -28 0
200 16 -100 0
-144 -276 -312 0
-87 -175 -239 0
-402 473 -418 0
-98 -305 -424 0
-20 -29 -486 0
-114 -43 71 0
-175 -243 136 0
-271 -8 -442 0
-431 -425 409 0
351 464 426 0
57 -137 -386 0
180 -154 263 0
418 -29 -449 0
74 117 -185 0
-355 488 138 0
-104 -286 314 0
195 289 134 0
-447 91 -141 0
-118 7 153 0
38 427 -63 0
-345 154 -454 0
-387 -147 -274 0
37 -202 -254 0
370 244 -193 0
289 -430 -335 0
325 341 -230 0
-325 396 394 0
-106 -425 113 0
-370 447 -116 0
-309 -458 -104 0
-408 -393 -173 0
-313 -16 -363 0
-98 -163 258 0
201 227 -62 0
-471 183 -23 0
-187 -320 -141 0
-323 308 357 0
360 269 11 0
8 453 -300 0
436 163 -225 0
-83 -98 -448 0
-491 377 445 0
-337 448 377 0
-406 255 -266 0
389 -166 -409 0
95 -371 -454 0
-105 414 49 0
25 235 371 0
375 411 425 0
-383 246 -384 0
-434 -73 316 0
270 460 -468 0
-434 -40 496 0
-453 278 -164 0
-433 4 207 0
-416 -293 -405 0
72 -155 210 0
199 211 364 0
-482 -44 252 0
-417 -264 266 0
-57 -405 131 0
-436 -163 96 0
-74 296 15 0
135 -481 154 0
-491 484 319 0
402 117 45 0
256 -22 128 0
376 -136 -222 0
-224 -88 6 0
-28 454 31 0
-402 283 350 0
-79 -374 -229 0
-428 -178 452 0
-361 -359 460 0
467 -26 -281 0
-383 -446 476 0
375 423 412 0
401 -295 345 0
-61 -10 228 0
156 -231 189 0
-466 424 206 0
-464 -135 -190 0
165 -406 -237 0
-119 348 -471 0
297 -309 310 0
-218 367 460 0
87 326 69 0
443 -152 225 0
-399 402 116 0
-458 2 312 0
211 -267 -373 0
55 33 290 0
7 113 432 0
-191 -324 340 0
-130 477 -50 0
-279 -75 -60 0
13 -459 491 0
-299 -490 -321 0
441 39 298 0
-320 404 290 0
-182 287 -103 0
231 250 -190 0
154 -105 -32 0
-100 -426 382 0
175 74 63 0
28 -415 290 0
-165 -161 -461 0
-451 28 417 0
3 -237 -415 0
-194 390 48 0
-70 -299 351 0
-109 -223 284 0
-41 225 248 0
262 -441 47 0
297 -48 28 0
-143 45 -341 0
5 266 29 0
-413 82 -226 0
403 133 -258 0
-330 198 -352 0
383 444 396 0
456 138 213 0
113 54 -307 0
444 -334 86 0
-354 411 -301 0
137 -126 -464 0
387 -80 -187 0
-101 -387 302 0
-386 -409 305 0
-14 478 165 0
-193 -94 -297 0
-44 -381 -182 0
-349 156 -132 0
109 453 264 0
-96 -82 55 0
468 -290 -381 0
408 -176 130 0
336 418 -380 0
-308 -59 334 0
-284 -421 228 0
-94 395 337 0
152 -236 -389 0
272 -446 -88 0
-355 7 140 0
180 326 144 0
260 -340 -176 0
5 25 -426 0
388 -236 82 0
123 -235 -182 0
-306 237 -174 0
119 -19 486 0
-492 -229 127 0
407 289 91 0
184 498 -36 0
-275 -205 -182 0
-360 -296 495 0
