p cnf 100 210
57 -62 -29 0
100 52 -98 0
-64 17 -100 0
-35 -98 -92 0
-15 -55 34 0
-15 -94 10 0
20 67 77 0
-58 52 -96 0
-30 -10 -78 0
-45 -54 -71 0
-56 43 55 0
35 -12 90 0
-51 -20 -2 0
58 -49 -22 0
-2 84 44 0
15 50 -98 0
68 96 86 0
-63 23 -39 0
22 -25 -99 0
-75 39 -67 0
-76 -20 -46 0
-85 95 59 0
3 74 46 0
67 -61 7 0
-73 65 8 0
10 75 46 0
83 21 76 0
75 10 77 0
-36 -27 23 0
71 76 64 0
91 -67 21 0
28 71 21 0
95 44 61 0
13 -52 3 0
49 -2 -71 0
-16 -100 -66 0
-64 -91 19 0
-58 -80 -30 0
-69 58 -73 0
24 14 -97 0
82 -60 -41 0
-50 87 84 0
-62 87 -84 0
97 82 -96 0
4 66 -41 0
-49 -28 -21 0
-72 20 17 0
-21 -85 69 0
95 -2 -40 0
-44 -1 -45 0
-71 -1 66 0
-45 -23 -74 0
50 37 97 0
41 -65 -56 0
-33 72 -6 0
90 15 -16 0
-41 -51 67 0
-85 78 39 0
58 -33 5 0
99 51 -33 0
-73 -98 -93 0
-65 50 52 0
23 -78 -45 0
-28 100 86 0
8 54 42 0
-22 2 57 0
-64 69 77 0
-97 43 48 0
68 96 -15 0
-74 -2 65 0
82 -26 -86 0
-81 33 19 0
80 60 1 0
-55 -52 -28 0
8 -19 50 0
-28 44 -4 0
-83 95 39 0
25 19 78 0
96 20 -73 0
54 -45 90 0
-42 -19 -46 0
-36 -28 41 0
-5 32 66 0
-68 57 -90 0
-94 -18 8 0
-83 92 13 0
41 -70 17 0
-6 65 30 0
29 -5 -20 0
22 -65 -70 0
-56 -33 41 0
6 75 -13 0
68 55 73 0
-77 37 -50 0
41 1 -5 0
-60 90 12 0
-40 -49 -17 0
43 93 -23 0
-66 -63 -85 0
-42 46 -1 0
-16 4 17 0
-56 -77 -8 0
82 55 37 0
9 -60 -4 0
-57 -40 -24 0
-63 40 -43 0
61 85 -79 0
-8 -64 -65 0
-71 -19 16 0
-57 -31 14 0
39 -86 5 0
36 47 50 0
-27 -66 -13 0
89 -22 -50 0
57 13 84 0
-48 5 -100 0
57 21 42 0
35 89 86 0
-42 -55 94 0
-3 -13 -48 0
49 93 -18 0
48 -5 -56 0
-79 -50 37 0
-51 8 -35 0
-34 19 -82 0
76 -39 -100 0
97 25 -34 0
100 52 66 0
89 -2 -46 0
-71 -7 -100 0
27 89 -64 0
88 56 51 0
-90 92 -53 0
25 65 4 0
-43 15 -25 0
71 3 -1 0
-41 100 -91 0
-37 80 25 0
35 43 -12 0
29 -13 -48 0
89 18 37 0
-1 96 -87 0
-49 4 -2 0
-44 -29 -15 0
50 -10 -22 0
65 -24 51 0
-56 48 78 0
87 -36 81 0
47 70 31 0
-9 90 16 0
-56 -40 -61 0
-19 -86 -11 0
-9 -17 -73 0
-5 -32 90 0
78 -60 -16 0
-38 78 -96 0
73 -93 26 0
-83 -71 48 0
-38 -26 -48 0
45 31 -61 0
72 -8 -11 0
-29 71 64 0
71 -75 -20 0
89 -86 -94 0
-23 -83 69 0
-77 -98 60 0
84 56 44 0
92 14 68 0
30 46 71 0
81 -100 -77 0
27 10 -50 0
48 -100 -15 0
39 -30 -79 0
-45 -28 43 0
-33 41 27 0
-74 -58 76 0
-85 1 27 0
60 30 -47 0
36 10 33 0
-44 52 17 0
-54 93 55 0
13 -31 82 0
-1 -10 -47 0
-54 -12 13 0
-20 48 -33 0
83 52 59 0
15 -71 37 0
-64 -20 21 0
63 20 39 0
-33 -57 -55 0
-23 -7 -100 0
60 -90 -81 0
44 66 12 0
-40 -31 -2 0
57 -5 -93 0
-82 -70 8 0
-81 12 -4 0
33 -100 39 0
53 49 -30 0
-29 60 63 0
-14 64 -15 0
-94 51 -83 0
42 38 70 0
-21 27 -80 0
66 -69 -48 0
-82 59 -42 0
-10 -31 15 0
-8 -32 55 0
100 -84 95 0
-84 92 96 0
