p cnf 1000 5000
559 675 99 0
267 -270 146 0
-606 493 165 0
-444 772 -610 0
300 -848 -472 0
145 -539 88 0
265 -63 737 0
-16 -691 263 0
-5 240 785 0
-408 -429 979 0
282 -439 54 0
-1 -415 455 0
487 849 -202 0
-600 312 -628 0
771 -647 569 0
483 -940 212 0
-817 218 875 0
-601 -207 -709 0
-23 715 -961 0
74 519 366 0
515 134 -780 0
495 749 -484 0
233 183 357 0
-183 889 824 0
-568 706 55 0
-754 -870 -963 0
52 933 -669 0
-426 290 -114 0
405 664 -193 0
-454 -814 -801 0
768 245 555 0
952 -203 724 0
-813 -605 240 0
-438 177 229 0
216 -693 840 0
-135 -990 -663 0
933 259 677 0
619 -875 -278 0
687 -54 -968 0
127 914 874 0
892 199 304 0
852 -307 -183 0
-790 521 833 0
650 273 375 0
-540 -164 -248 0
-793 135 450 0
-300 586 919 0
-517 198 -809 0
-658 -931 -769 0
445 467 781 0
-90 -899 276 0
571 131 428 0
-858 915 -119 0
-412 -569 -984 0
546 -284 791 0
866 -548 -277 0
-478 342 92 0
-255 139 843 0
-777 973 -507 0
449 -331 617 0
-565 -384 -234 0
-408 -478 -205 0
-427 168 933 0
-288 369 -277 0
-28 -744 -962 0
551 346 835 0
925 828 809 0
-752 300 -872 0
-743 -278 769 0
957 247 -398 0
-424 591 -859 0
903 180 -751 0
728 404 -891 0
612 -898 254 0
617 691 525 0
-596 508 -723 0
-168 23 -123 0
-379 -773 -726 0
-361 -389 245 0
819 225 -932 0
185 -440 -972 0
-772 -946 395 0
-925 24 -914 0
-543 -18 -627 0
-707 16 -374 0
-343 224 -404 0
653 833 204 0
-667 577 374 0
958 443 699 0
165 -735 367 0
-695 938 52 0
676 -134 -768 0
-275 868 386 0
-279 502 304 0
-485 -791 376 0
-835 -79 807 0
474 -483 365 0
960 808 -763 0
25 -833 -714 0
-877 793 -791 0
293 -782 -20 0
-169 -582 670 0
-876 125 657 0
41 848 -680 0
779 193 290 0
-387 -146 -337 0
-725 681 501 0
-1 153 703 0
-311 46 110 0
-666 -512 386 0
957 -990 88 0
-658 -474 239 0
-585 -169 -206 0
834 -939 -856 0
-696 -499 -556 0
-233 -133 394 0
735 -357 -278 0
76 822 -850 0
-279 663 965 0
-893 211 107 0
-370 -573 426 0
-140 626 -32 0
-531 -905 597 0
-969 331 902 0
-17 -887 -232 0
-339 938 -41 0
821 657 288 0
-520 -31 998 0
-856 251 -81 0
85 163 -577 0
-883 679 -820 0
-4 -539 -20 0
612 536 719 0
-462 -101 251 0
425 710 468 0
449 -387 -473 0
290 586 -553 0
-739 124 -306 0
-302 -775 20 0
-250 40 -138 0
266 -728 144 0
998 482 309 0
423 666 -988 0
-417 -34 -383 0
-876 776 -549 0
-807 667 -987 0
-678 636 140 0
-302 -564 210 0
-813 347 308 0
-242 891 341 0
12 -71 177 0
-244 -116 374 0
639 -653 605 0
919 -85 -562 0
-423 108 -451 0
-629 933 -283 0
770 848 22 0
225 -4 -387 0
-336 150 -748 0
328 -935 -916 0
-102 421 -589 0
-433 -187 377 0
570 761 -663 0
993 84 977 0
-508 412 663 0
213 -500 -244 0
246 141 -313 0
-28 -705 567 0
-752 561 -322 0
923 -369 -203 0
-362 -602 -947 0
-999 -867 49 0
-975 436 -146 0
714 -297 -316 0
-449 -492 267 0
828 173 -45 0
-911 215 -966 0
101 224 -109 0
426 -795 -561 0
-813 -528 325 0
266 -461 823 0
950 -1000 -778 0
362 -999 -293 0
-567 -612 -631 0
653 679 453 0
-33 -271 636 0
-985 260 -692 0
603 366 -151 0
140 93 -381 0
-542 -962 14 0
-433 567 -472 0
39 550 706 0
-247 -947 -53 0
-534 792 -510 0
713 -174 -948 0
308 -912 469 0
-114 -194 -483 0
90 346 174 0
-932 -135 796 0
-937 -572 539 0
938 831 904 0
-701 -365 -890 0
434 230 -538 0
-600 868 -662 0
432 -684 717 0
472 417 -832 0
-108 -327 41 0
-766 970 276 0
-517 -792 -707 0
-940 -709 -971 0
937 242 -277 0
487 -846 587 0
268 256 106 0
649 27 69 0
563 658 -974 0
-781 360 995 0
537 855 -136 0
-507 892 -344 0
-881 543 -415 0
439 -367 737 0
-598 -550 448 0
463 -61 -240 0
-83 448 -1000 0
-712 -650 -173 0
-912 -1 397 0
309 999 252 0
-450 -308 379 0
-184 -249 10 0
735 -958 159 0
-756 606 507 0
-36 622 -701 0
-578 -124 351 0
824 341 864 0
959 495 -171 0
-499 385 964 0
-434 -234 -446 0
-226 -665 67 0
830 211 63 0
-904 834 105 0
-886 -341 466 0
-136 608 -137 0
-38 742 39 0
-663 -324 -185 0
5 -430 141 0
778 316 284 0
-306 328 186 0
-28 -913 867 0
-835 391 568 0
-65 -11 899 0
25 445 -563 0
714 -549 -439 0
578 650 887 0
279 343 -652 0
-357 506 1000 0
237 -117 325 0
205 490 -912 0
-705 471 792 0
-163 -790 -430 0
-419 969 -605 0
746 -958 913 0
-718 93 -565 0
700 807 861 0
-300 101 -354 0
-126 933 34 0
-754 661 718 0
-989 -645 60 0
-333 -986 978 0
27 254 392 0
-892 -522 76 0
582 942 502 0
-834 -221 314 0
137 864 -245 0
449 602 236 0
-274 -616 30 0
-584 799 -458 0
573 501 -937 0
199 -692 291 0
-155 -411 -856 0
-593 105 -855 0
909 -921 934 0
262 726 82 0
-186 599 -612 0
61 34 -183 0
395 802 48 0
-301 683 -665 0
520 554 -350 0
-771 -808 360 0
-431 -388 -249 0
659 -138 717 0
-401 743 73 0
-722 609 -849 0
-731 -723 264 0
203 169 287 0
-8 444 -822 0
-698 -936 223 0
838 -743 -266 0
-699 576 -990 0
996 -852 -479 0
-524 -973 369 0
-7 -142 605 0
-526 709 461 0
760 -695 -430 0
456 -834 502 0
-257 559 -92 0
885 -255 -230 0
-42 741 -773 0
-501 -49 895 0
643 -887 -968 0
-349 -766 -667 0
970 653 59 0
945 -593 -523 0
-831 771 171 0
-410 -995 -285 0
616 -447 -453 0
-784 -429 -939 0
798 -783 -147 0
82 -677 -684 0
-726 800 846 0
-881 -258 -516 0
-23 -445 -554 0
390 387 10 0
747 -920 950 0
-589 -275 -604 0
252 320 -622 0
412 120 -830 0
-227 611 -691 0
-539 -286 -834 0
-792 -472 -641 0
336 -525 -282 0
-717 421 -815 0
-475 732 897 0
550 -333 -180 0
209 -303 117 0
-497 -302 206 0
491 -154 -329 0
-711 -324 334 0
-875 939 -19 0
-35 764 -444 0
683 -515 -116 0
141 21 -261 0
-261 627 650 0
-960 329 897 0
-598 -695 364 0
554 -18 -671 0
-201 -838 540 0
-686 398 191 0
127 -893 175 0
-400 -715 -169 0
175 155 154 0
61 241 -203 0
-222 -314 -162 0
-639 816 496 0
987 565 591 0
-507 516 -940 0
-220 591 -502 0
-746 929 -655 0
675 -614 480 0
177 365 894 0
-538 666 527 0
-650 136 -277 0
-978 -603 -27 0
-390 -376 -975 0
284 781 -854 0
849 479 -713 0
133 -755 831 0
816 -962 -994 0
-355 957 734 0
54 930 825 0
692 59 -606 0
864 -894 -53 0
842 -154 749 0
-866 -239 -905 0
184 199 639 0
-113 221 -731 0
-115 -1 -794 0
786 655 450 0
439 -526 542 0
-360 -133 449 0
307 -863 -925 0
586 192 -320 0
177 867 -900 0
-511 809 -408 0
-658 848 246 0
-349 -956 -947 0
-906 687 -160 0
-946 244 16 0
-244 968 458 0
-614 218 -219 0
520 -196 533 0
-26 -910 440 0
-376 -880 -820 0
220 -513 -568 0
467 -804 -671 0
522 -308 -490 0
55 -829 -274 0
298 -414 994 0
540 -59 959 0
-657 585 -413 0
-298 830 -423 0
924 -490 381 0
-929 58 540 0
-65 -752 -706 0
-98 -238 -122 0
-196 609 291 0
-583 -273 40 0
105 -365 -463 0
923 930 -747 0
818 566 -756 0
-761 651 616 0
-891 393 646 0
-410 908 890 0
-683 329 526 0
-319 58 883 0
502 -507 -993 0
-326 993 -617 0
853 829 -704 0
-774 -973 -598 0
-358 -990 385 0
304 -591 -248 0
-608 -883 -713 0
959 103 -439 0
683 122 -335 0
-104 -798 -784 0
664 687 -936 0
-238 -962 620 0
403 690 -850 0
-492 -726 -574 0
-279 -921 337 0
451 -793 265 0
862 -737 620 0
508 -709 -462 0
114 -316 -953 0
326 -979 96 0
761 -357 -85 0
-703 518 -8 0
408 -88 781 0
-755 85 740 0
-23 687 837 0
-23 844 132 0
-513 295 -202 0
931 759 544 0
-810 139 -454 0
801 -172 543 0
563 373 944 0
-775 -541 -1 0
-822 310 -643 0
-475 -189 -764 0
559 -401 806 0
-957 726 -584 0
302 -787 843 0
-506 -137 215 0
-550 951 -309 0
-320 -503 -513 0
34 108 727 0
487 -420 -800 0
807 -789 833 0
-670 435 -39 0
85 826 -42 0
387 -3 371 0
-537 -561 653 0
928 -292 -498 0
805 625 -936 0
-558 -399 -466 0
-33 -484 -80 0
630 2 996 0
-226 342 478 0
658 -214 474 0
-835 -844 858 0
-695 827 -530 0
314 229 759 0
149 -81 -675 0
702 863 -417 0
748 488 -616 0
-985 -584 -42 0
-905 497 178 0
748 -172 -67 0
950 893 -476 0
738 460 -208 0
306 585 -773 0
222 -825 89 0
-772 -315 509 0
813 -767 -545 0
249 588 572 0
676 -11 -264 0
319 614 636 0
-256 -853 -519 0
-255 788 -959 0
314 894 132 0
500 -174 821 0
-965 862 -721 0
-903 652 417 0
779 772 -160 0
-61 -160 -188 0
-310 -350 -312 0
-316 -698 -941 0
988 -71 -764 0
277 -456 -219 0
956 55 -251 0
490 625 468 0
-420 -82 -987 0
-613 -917 -220 0
-476 -350 584 0
-151 658 905 0
-164 351 -436 0
701 611 785 0
85 -945 57 0
-12 -642 110 0
-584 -71 -459 0
263 -607 735 0
-273 276 -981 0
179 33 -988 0
880 -653 29 0
-631 792 -930 0
-568 671 134 0
57 369 21 0
-584 300 -164 0
-919 -595 834 0
266 -682 621 0
666 -484 -670 0
-951 -727 823 0
-769 101 -137 0
689 -834 47 0
627 -352 462 0
389 -677 -404 0
-580 819 -284 0
-322 -656 69 0
874 711 -460 0
350 88 778 0
-917 -928 422 0
99 -753 -814 0
-762 -487 -380 0
-578 173 522 0
216 687 -858 0
-875 124 508 0
-52 -617 996 0
-7 267 -125 0
-1 -268 -997 0
634 -93 226 0
-943 -387 239 0
-279 -917 -651 0
-224 -589 690 0
-967 807 82 0
714 -671 113 0
-192 -194 -183 0
-80 436 883 0
-178 502 923 0
-544 -480 -967 0
201 446 816 0
-799 50 -830 0
-970 -228 -313 0
57 12 -568 0
357 -129 -462 0
-510 850 -409 0
-733 28 95 0
995 791 -293 0
106 236 -22 0
-294 -57 -160 0
-853 686 -387 0
381 -288 24 0
-229 -787 985 0
756 -832 367 0
-252 117 73 0
73 -290 -741 0
585 989 -405 0
277 30 356 0
590 332 -857 0
-185 -909 4 0
-164 -349 825 0
-953 325 284 0
-294 -834 768 0
-705 -883 -312 0
930 -905 772 0
89 -119 159 0
311 5 -475 0
-838 -632 841 0
-573 875 876 0
254 139 -869 0
-362 -505 760 0
-35 -990 -169 0
-593 746 123 0
666 -334 -550 0
462 -318 397 0
884 -62 -681 0
-490 -195 517 0
582 584 711 0
-207 725 -3 0
202 702 -809 0
616 361 216 0
649 -460 -859 0
-825 899 246 0
583 -465 711 0
-85 -415 -130 0
157 495 299 0
376 -885 -809 0
819 -229 -531 0
368 -944 973 0
273 -556 869 0
-970 37 575 0
-597 -999 -176 0
122 485 -836 0
-392 292 -121 0
231 198 -21 0
-299 -852 -968 0
-472 200 924 0
159 925 960 0
-104 812 481 0
801 831 25 0
382 80 -854 0
-229 652 812 0
947 -65 757 0
884 -372 711 0
880 411 643 0
446 639 583 0
-655 839 838 0
-157 -827 263 0
61 -399 652 0
-156 311 248 0
118 504 -483 0
353 -862 985 0
902 -687 -206 0
-90 583 255 0
-191 -4 623 0
887 -316 359 0
-671 -911 -974 0
617 862 -584 0
893 -28 -467 0
398 754 172 0
-247 -623 502 0
458 -311 -336 0
114 -133 230 0
-398 997 131 0
-56 661 -266 0
-312 184 878 0
-639 757 138 0
546 -870 55 0
583 -437 717 0
949 24 -939 0
-226 -808 -246 0
-172 -403 433 0
-459 -524 679 0
564 -48 85 0
550 -441 951 0
-175 862 -815 0
414 -698 -197 0
-769 274 -8 0
694 189 710 0
-719 882 337 0
923 -779 964 0
-174 701 631 0
721 -189 -120 0
830 33 799 0
749 -76 715 0
226 274 994 0
-86 312 -454 0
621 -630 -584 0
639 707 634 0
-243 -4 -26 0
870 -915 561 0
-677 764 396 0
665 489 -90 0
544 -494 -238 0
-951 -457 -414 0
-786 -141 -531 0
-989 -349 -552 0
-413 -896 -971 0
-70 -188 723 0
642 -926 -180 0
-538 -564 341 0
384 477 770 0
728 1000 -230 0
580 361 669 0
473 -884 949 0
-810 -967 385 0
901 445 447 0
-395 115 -377 0
-976 417 -406 0
711 -641 -569 0
678 -2 118 0
927 222 -997 0
222 -903 -683 0
152 1000 -275 0
658 350 503 0
196 148 -511 0
-601 -762 -412 0
-224 -236 993 0
661 -625 -197 0
977 -771 465 0
979 -188 653 0
-823 -810 -551 0
-589 76 183 0
763 176 671 0
57 -855 -72 0
866 240 566 0
-23 -316 -942 0
-18 573 512 0
-204 -277 -490 0
-57 634 -222 0
778 -132 612 0
-609 186 358 0
528 119 -561 0
946 517 -862 0
-654 421 471 0
-223 150 -832 0
88 -904 503 0
225 -737 -302 0
-681 697 26 0
901 -51 -907 0
-501 613 762 0
749 -723 361 0
-3 -436 127 0
189 -445 79 0
-445 374 -854 0
746 971 387 0
81 564 -720 0
508 827 25 0
-249 238 756 0
-533 -661 271 0
586 -343 851 0
689 788 845 0
476 645 498 0
-612 677 915 0
414 949 152 0
-435 56 -519 0
530 368 721 0
-937 458 -226 0
-494 -42 306 0
624 551 -763 0
-397 251 970 0
-165 -862 109 0
-824 537 18 0
-795 -491 322 0
804 -571 -655 0
-525 -232 -816 0
43 -757 978 0
-846 64 437 0
819 -598 608 0
-561 -706 502 0
178 -924 -190 0
868 -555 467 0
659 26 503 0
-532 -854 -941 0
-346 932 160 0
-750 114 334 0
-763 -823 272 0
-179 -271 938 0
975 120 -785 0
697 319 -583 0
395 37 423 0
979 465 -584 0
731 459 661 0
677 -928 538 0
-30 382 302 0
302 322 831 0
43 -517 985 0
209 906 396 0
-932 -596 -396 0
-687 -593 858 0
-826 -975 -940 0
301 890 -26 0
-470 -34 -705 0
34 -597 133 0
-487 -759 919 0
-912 -489 939 0
106 108 -36 0
635 -275 -832 0
448 530 481 0
107 771 498 0
883 -534 -262 0
-20 451 -112 0
24 909 315 0
398 -472 -416 0
-422 -390 807 0
342 -85 650 0
-438 -165 -189 0
-353 -359 -116 0
197 263 -898 0
525 -689 -940 0
-665 454 -788 0
-702 -964 415 0
-706 -773 -390 0
-423 -774 -124 0
-350 -554 -609 0
-32 996 -317 0
240 802 -930 0
330 458 -268 0
-197 -164 114 0
-898 -839 -29 0
-676 671 -417 0
726 -989 262 0
295 -292 -290 0
-808 -368 -163 0
928 131 -290 0
-412 -434 201 0
-835 823 568 0
-405 -849 -620 0
688 -87 -84 0
669 -683 -214 0
-256 152 140 0
-530 -23 -201 0
-471 -873 -372 0
-575 424 471 0
528 492 -606 0
-938 202 -239 0
-360 50 -463 0
49 656 -651 0
-954 -317 -583 0
947 -83 401 0
76 314 -174 0
-773 278 -93 0
-800 -374 -907 0
559 894 -806 0
-379 -423 -902 0
667 -698 -234 0
642 -817 -239 0
-125 826 -810 0
442 -564 -676 0
-342 727 -249 0
-408 -973 -578 0
931 -306 -164 0
844 71 922 0
-437 -895 -464 0
174 447 -176 0
-398 132 -453 0
-336 -195 -376 0
-480 779 -744 0
-519 43 740 0
-302 344 -35 0
-450 -502 716 0
472 -90 -562 0
-320 613 -102 0
-904 90 803 0
-514 -254 -635 0
-340 50 -263 0
159 184 -715 0
-509 -11 750 0
827 -600 -845 0
952 -724 9 0
725 -726 119 0
-379 -44 -202 0
159 -982 -92 0
-956 812 526 0
-888 433 -158 0
-377 -78 973 0
-549 875 768 0
-647 94 -742 0
934 222 -962 0
318 954 525 0
819 -629 822 0
246 786 843 0
-842 53 290 0
883 -604 -456 0
-573 -125 57 0
-959 670 299 0
-70 320 358 0
374 -775 -873 0
597 528 956 0
-797 -699 -178 0
6 290 -956 0
-284 -840 -101 0
741 -241 295 0
-574 255 -349 0
-568 464 -764 0
-71 237 -232 0
-718 -143 -38 0
-797 -495 -672 0
-140 -320 -718 0
883 -443 -957 0
348 -767 910 0
416 10 -840 0
-897 5 556 0
122 181 -745 0
858 -883 890 0
-681 824 -342 0
693 -739 194 0
947 -279 702 0
565 -383 115 0
-132 -21 -170 0
-908 480 688 0
-624 195 967 0
82 -804 -791 0
839 489 639 0
-269 -683 -128 0
-353 266 -432 0
-777 21 198 0
-570 -796 -433 0
843 720 914 0
-389 65 104 0
442 -140 775 0
926 820 -670 0
221 -67 663 0
600 -654 -999 0
-254 741 924 0
-267 608 448 0
-585 -378 815 0
192 91 605 0
305 477 -922 0
-525 827 416 0
940 -848 -312 0
-145 -191 -439 0
894 449 -152 0
573 796 375 0
-861 -686 -563 0
-422 792 -253 0
344 -158 -380 0
987 -635 -380 0
476 -442 -172 0
-313 -858 785 0
-252 249 -741 0
235 -767 521 0
-375 994 178 0
-991 586 -4 0
964 568 -730 0
-741 313 -2 0
-282 424 870 0
811 -947 -714 0
506 464 906 0
308 467 -500 0
171 -478 387 0
965 -166 -318 0
-946 -898 121 0
-52 -386 344 0
-231 998 995 0
-604 830 169 0
828 -670 -542 0
-687 -926 100 0
96 -558 960 0
467 -681 481 0
422 -660 -794 0
-797 -529 872 0
264 -415 -963 0
410 -190 694 0
184 291 -563 0
-599 558 55 0
553 580 492 0
566 -951 -768 0
-120 903 700 0
-482 371 138 0
329 698 87 0
-931 767 -339 0
-798 398 329 0
144 423 -701 0
355 -776 -732 0
909 -100 -220 0
-190 -504 -35 0
-400 -3 -898 0
-751 -350 -483 0
862 768 704 0
-814 381 -876 0
384 -484 601 0
-779 -509 -174 0
-64 358 465 0
466 989 593 0
-498 -474 -691 0
-539 212 -353 0
-516 -609 -533 0
-608 -105 -672 0
-436 803 -389 0
-510 -440 -329 0
-694 -86 -521 0
-418 696 -808 0
338 349 295 0
253 -694 -238 0
-641 -29 673 0
-145 -978 367 0
78 -266 492 0
539 -202 879 0
240 -967 -705 0
176 -775 -587 0
-213 -562 223 0
185 895 53 0
-897 -75 933 0
-395 201 681 0
-108 929 325 0
848 609 520 0
385 848 -802 0
764 -356 582 0
-676 866 -281 0
-862 554 -137 0
338 -302 369 0
-267 836 464 0
-658 246 75 0
-42 754 -616 0
948 -800 338 0
-292 -575 -232 0
959 -529 -774 0
-349 829 174 0
303 159 -811 0
-561 751 790 0
-674 -343 -819 0
-852 -273 -314 0
703 -47 537 0
-393 -998 -13 0
-310 -783 -507 0
-631 -81 846 0
445 -294 -472 0
-407 -138 -342 0
-105 347 -286 0
76 -70 -743 0
-933 159 -135 0
921 -302 -719 0
-651 779 -217 0
357 808 -744 0
-721 355 -647 0
-17 308 -762 0
-707 -330 -669 0
-44 -45 -247 0
777 -181 458 0
100 586 460 0
-255 -67 -820 0
-739 -224 -392 0
-675 837 -344 0
624 -731 523 0
-340 497 -248 0
-806 894 -990 0
104 544 493 0
495 550 702 0
506 678 -636 0
902 793 672 0
601 722 163 0
723 492 86 0
778 326 84 0
333 55 -792 0
153 934 -714 0
440 74 -212 0
-653 -929 849 0
-784 -133 718 0
-164 -196 832 0
341 -353 512 0
428 961 464 0
-699 235 739 0
-46 959 590 0
-727 242 -495 0
358 -400 -921 0
-75 -74 -765 0
694 -675 -373 0
-218 491 -939 0
309 -615 699 0
-907 698 867 0
-966 843 -231 0
-124 702 594 0
-402 -460 635 0
-597 -908 -151 0
-528 476 -407 0
494 -605 687 0
482 848 -575 0
-698 -991 -688 0
-885 -448 -338 0
644 339 -695 0
638 642 -447 0
329 26 -641 0
612 -463 601 0
638 -564 217 0
8 368 676 0
-194 715 104 0
523 -552 600 0
548 147 -460 0
660 902 -62 0
410 643 -829 0
44 -351 440 0
-714 199 7 0
334 228 -463 0
-792 -986 -142 0
-712 -136 833 0
-616 243 -356 0
957 585 -449 0
-171 -961 -31 0
378 -817 -58 0
-736 40 506 0
-579 -743 515 0
-374 -219 -783 0
-42 501 197 0
-224 782 -742 0
-673 -642 443 0
-71 -979 162 0
765 438 -863 0
-804 -595 -957 0
-266 -203 -928 0
-649 -918 -586 0
-784 63 -983 0
-639 -338 -871 0
-566 537 493 0
954 -872 488 0
856 413 158 0
-163 739 546 0
86 372 512 0
229 791 196 0
1 -867 -318 0
448 -207 240 0
971 934 149 0
922 -963 -304 0
-245 237 -227 0
-578 -384 516 0
853 651 -546 0
162 434 -963 0
-639 833 438 0
541 -554 244 0
-706 -422 77 0
808 860 -969 0
-867 745 -543 0
224 230 -367 0
-742 145 -699 0
575 -797 -130 0
5 -873 459 0
840 -854 -195 0
-455 -89 -54 0
-815 -625 -310 0
-189 -759 -207 0
985 -515 -457 0
159 -383 -211 0
499 -864 596 0
274 26 -649 0
407 545 -966 0
871 -52 846 0
874 172 635 0
-458 -290 -277 0
-324 533 54 0
837 555 457 0
-895 -789 687 0
-842 290 879 0
-284 -968 714 0
482 311 -577 0
-504 752 390 0
-539 421 508 0
192 677 -454 0
999 -307 -660 0
-519 -869 -945 0
848 -342 776 0
-221 560 -498 0
468 -635 -853 0
857 70 478 0
731 52 574 0
-843 -456 -829 0
-765 -963 -699 0
-602 582 -253 0
-811 674 -531 0
694 -415 566 0
265 907 -489 0
-923 787 -74 0
-256 151 266 0
-667 -95 -318 0
6 -182 629 0
-324 766 -755 0
33 -273 300 0
478 -130 145 0
-29 -814 -913 0
-278 791 -162 0
-655 -176 -720 0
901 452 826 0
716 462 436 0
842 260 -142 0
-215 272 -255 0
184 892 -988 0
-234 361 -168 0
28 826 -961 0
-979 -939 -430 0
-794 753 195 0
-468 -341 15 0
-27 -810 694 0
428 -52 -286 0
555 -892 427 0
797 347 715 0
449 -883 76 0
890 -217 -759 0
181 25 889 0
65 673 431 0
469 118 810 0
898 -295 -365 0
-934 131 -701 0
-690 587 191 0
-798 451 463 0
-610 -612 -826 0
-400 -546 753 0
-877 -524 -429 0
-567 457 -1 0
128 797 -257 0
-778 813 -560 0
110 -779 -648 0
-234 673 446 0
54 -366 711 0
-493 -215 650 0
-48 1000 -553 0
-533 887 -299 0
-951 -245 760 0
422 868 -852 0
567 -900 -254 0
-25 311 626 0
-860 723 752 0
905 -88 -342 0
442 473 322 0
-399 -58 -753 0
-118 286 401 0
554 601 933 0
-663 -175 -72 0
869 -853 149 0
511 996 389 0
174 20 -726 0
752 449 767 0
-124 545 -857 0
-950 95 149 0
-619 205 135 0
-930 -939 769 0
-359 728 682 0
185 868 498 0
-698 -468 -565 0
-769 907 921 0
-483 -420 -407 0
934 241 487 0
-112 -505 617 0
516 -522 -645 0
680 944 -500 0
802 100 383 0
-848 589 -23 0
-344 838 2 0
19 78 240 0
-751 191 -770 0
766 -296 -702 0
440 577 -85 0
-992 275 537 0
421 662 339 0
984 -754 593 0
552 -861 -536 0
670 816 683 0
-830 174 -262 0
912 -956 -60 0
-89 -625 -394 0
750 -181 925 0
-450 -78 111 0
222 453 -98 0
450 -158 330 0
-822 -640 -548 0
968 112 941 0
-858 -921 506 0
-694 -44 252 0
562 -142 375 0
-770 -808 659 0
297 -681 915 0
955 -57 460 0
-923 -739 -229 0
362 -923 377 0
427 -698 -607 0
960 -860 -412 0
-865 -279 110 0
81 -431 -264 0
651 114 -838 0
670 70 -576 0
-62 -685 -690 0
-687 732 -812 0
-445 774 -694 0
914 828 14 0
455 977 570 0
-360 312 676 0
999 -335 -414 0
273 -439 339 0
-523 220 -148 0
636 -37 653 0
-400 -608 -64 0
-868 -476 -502 0
-305 122 756 0
589 427 -220 0
47 -82 971 0
520 -284 -343 0
405 -388 -482 0
561 510 588 0
503 435 -751 0
-144 -712 11 0
434 -272 -917 0
337 -769 -540 0
732 -194 -682 0
207 -283 113 0
187 -911 929 0
537 -431 177 0
-110 -240 -235 0
111 -585 680 0
648 490 246 0
919 -361 928 0
938 -667 664 0
-294 -179 -218 0
800 27 -353 0
-432 -579 593 0
849 -705 527 0
552 -943 240 0
-729 327 49 0
-673 154 -29 0
-76 -886 546 0
-229 -521 809 0
426 855 135 0
144 -496 -340 0
-733 -121 55 0
-308 719 9 0
68 -667 247 0
-843 -18 234 0
-778 930 641 0
-723 -508 -749 0
270 562 861 0
-747 -479 -87 0
923 299 163 0
909 -61 894 0
976 500 747 0
10 44 -934 0
-743 -242 -640 0
-49 -94 653 0
-917 838 -171 0
-481 260 -14 0
576 666 117 0
702 -753 -998 0
361 558 366 0
-282 -960 426 0
552 -656 459 0
325 624 842 0
-359 -468 -330 0
515 65 -633 0
-339 657 214 0
354 -315 -52 0
-864 -304 -279 0
531 -361 -82 0
396 679 843 0
485 140 -666 0
-568 -722 -160 0
-842 403 -985 0
605 -365 716 0
-791 -172 175 0
-277 -73 -135 0
115 636 -188 0
900 444 -913 0
-543 -280 -981 0
989 632 -627 0
-543 273 601 0
133 -481 -305 0
-479 -54 -908 0
-540 864 -70 0
631 943 -794 0
870 -353 622 0
430 929 -106 0
-280 -897 64 0
764 329 -818 0
935 -146 -977 0
-231 -537 739 0
797 -953 -583 0
-96 -166 121 0
-872 -316 -918 0
379 -36 714 0
-719 919 -924 0
-547 158 -715 0
-312 -931 6 0
675 -665 -640 0
-724 -901 -747 0
934 930 -275 0
-577 -673 131 0
-710 586 -137 0
-793 172 -301 0
-161 253 -917 0
-168 -910 -643 0
230 -989 -861 0
-440 130 232 0
413 151 -905 0
-450 697 -581 0
718 -956 -596 0
-875 947 -475 0
-81 105 -347 0
-992 -453 221 0
137 -455 -616 0
491 -252 36 0
-819 289 784 0
-880 -793 -247 0
341 855 447 0
942 -4 -674 0
-726 -156 226 0
-514 188 -838 0
852 100 -692 0
936 511 -365 0
9 10 -436 0
-164 -303 940 0
-590 797 -386 0
-739 28 -314 0
518 372 -859 0
-911 928 -595 0
-517 -292 -17 0
-668 -388 605 0
143 -185 -659 0
-513 84 151 0
-436 -682 508 0
696 -167 -131 0
-945 536 -273 0
438 465 205 0
577 -369 230 0
243 -147 840 0
-302 -933 -245 0
979 -469 -84 0
46 512 -298 0
-917 -128 802 0
-659 673 401 0
661 255 586 0
845 358 382 0
-473 883 361 0
-280 -380 -527 0
-75 70 328 0
5 109 116 0
544 -851 -812 0
285 -426 -249 0
710 367 11 0
-560 274 -91 0
-696 -493 -356 0
675 -723 -521 0
-838 -218 833 0
-129 -23 -247 0
812 815 -488 0
824 219 961 0
-682 -402 135 0
517 134 444 0
965 -485 -36 0
498 -211 -874 0
-757 -200 676 0
207 79 -907 0
-56 123 -721 0
-22 752 559 0
-218 -503 914 0
554 277 918 0
926 -788 -695 0
-451 731 -93 0
597 861 -244 0
-702 892 -973 0
-419 437 -406 0
-759 789 -377 0
753 755 982 0
982 -667 702 0
-977 -920 329 0
546 871 933 0
173 566 797 0
-402 350 -847 0
565 -68 368 0
-376 -126 870 0
99 -492 770 0
-408 604 -583 0
-833 -386 612 0
509 -752 -21 0
773 857 -266 0
-716 -264 670 0
306 -667 -38 0
-379 402 -813 0
-211 925 386 0
318 949 -172 0
621 -425 530 0
698 -757 31 0
874 -392 -430 0
693 276 -557 0
-198 315 32 0
-981 794 -571 0
43 797 -925 0
933 463 -445 0
403 -975 -657 0
348 -583 702 0
-112 73 188 0
-555 638 -69 0
-447 -94 -555 0
-693 160 -249 0
-563 81 372 0
116 -37 -259 0
-239 853 -136 0
32 631 -915 0
200 543 220 0
-353 -313 -582 0
245 -70 995 0
-556 777 742 0
-339 -476 -73 0
-577 -440 922 0
844 363 -52 0
-962 812 140 0
156 384 201 0
167 256 -939 0
41 583 547 0
736 -128 861 0
859 -665 -760 0
814 -752 -878 0
346 266 871 0
767 401 -166 0
295 823 383 0
335 691 382 0
-30 -260 -995 0
100 -592 -203 0
555 429 -572 0
-117 735 367 0
359 193 491 0
717 -505 -488 0
522 -895 -995 0
819 -994 29 0
15 928 -47 0
101 -74 176 0
240 570 545 0
337 296 -290 0
678 -246 -613 0
-327 -77 -101 0
95 995 -881 0
51 -569 567 0
-931 -71 -1 0
65 -448 -285 0
913 874 366 0
684 -305 -152 0
80 426 -182 0
-822 -793 -409 0
781 443 177 0
594 826 518 0
-505 -13 -844 0
697 -25 -75 0
-305 -621 147 0
255 -898 215 0
-683 -19 -251 0
325 -700 212 0
891 232 70 0
-920 300 623 0
83 -281 143 0
637 447 706 0
-713 -188 527 0
123 -285 -727 0
571 -26 -724 0
-731 -357 63 0
407 502 -69 0
112 -675 -77 0
700 807 -997 0
323 654 -815 0
375 -571 861 0
549 -195 -623 0
-70 -701 504 0
-744 -325 193 0
-778 553 -969 0
931 231 604 0
-439 26 930 0
992 258 6 0
968 811 354 0
-659 665 210 0
-674 -624 -678 0
502 714 -680 0
-481 -902 205 0
-140 164 996 0
-488 -355 -764 0
-957 -645 40 0
-936 -781 -168 0
276 -999 -678 0
422 445 375 0
651 -969 898 0
881 933 989 0
-184 -255 824 0
734 -670 888 0
183 -954 -385 0
807 -946 -433 0
-976 -504 590 0
618 -713 31 0
935 -539 -119 0
242 977 810 0
600 284 -737 0
-89 75 -981 0
860 156 143 0
-240 456 -581 0
-733 737 165 0
-871 762 -545 0
-774 -376 170 0
663 -546 997 0
-189 291 -599 0
737 165 872 0
-248 562 -795 0
477 -915 938 0
338 782 -414 0
379 -331 894 0
487 -611 -142 0
-887 547 -248 0
748 104 -432 0
-938 -380 394 0
5 -905 607 0
-170 -89 174 0
64 -929 -761 0
-245 -147 -448 0
91 409 935 0
372 -611 -693 0
-753 -346 -183 0
-979 442 141 0
-165 756 678 0
-745 26 325 0
-176 513 -121 0
-861 121 -106 0
-92 -844 584 0
-152 313 -983 0
-479 -297 -661 0
456 304 -300 0
-419 -426 -807 0
-908 -139 80 0
-16 -71 941 0
-281 -769 500 0
614 -864 601 0
-14 935 430 0
-781 280 -145 0
-881 -948 -859 0
474 -973 884 0
-800 293 -826 0
-70 268 -981 0
785 -439 422 0
108 -687 319 0
-719 -386 962 0
868 -447 895 0
-241 773 166 0
-374 -946 -403 0
78 -75 763 0
750 961 965 0
-900 991 -187 0
-780 -674 680 0
382 149 -27 0
448 -397 672 0
-523 -42 -411 0
-965 -179 9 0
-2 230 239 0
-687 -503 -560 0
-22 -942 -608 0
-217 384 -778 0
-636 -163 129 0
108 769 338 0
-774 401 204 0
-292 -546 -696 0
-993 697 194 0
880 -107 -326 0
872 -641 717 0
88 193 299 0
-917 263 -276 0
-869 -606 -9 0
-854 -318 911 0
-528 467 -248 0
714 725 -791 0
-884 128 -108 0
-514 407 -610 0
-473 -302 578 0
184 -121 -605 0
-657 258 -747 0
-255 58 -198 0
-204 3 -401 0
125 -713 -908 0
238 -564 -579 0
-273 -808 -433 0
457 -618 -845 0
808 773 232 0
-136 -963 37 0
993 -998 647 0
798 860 853 0
333 -151 538 0
-837 379 239 0
-27 -491 -684 0
-265 743 -729 0
307 391 711 0
-834 528 618 0
-338 -658 366 0
-327 384 -551 0
-867 9 -103 0
330 -758 362 0
719 153 769 0
-784 -463 -57 0
-867 915 -473 0
250 -712 892 0
515 123 589 0
-301 -242 -842 0
-734 825 804 0
-130 837 -699 0
180 638 -83 0
-548 -457 -896 0
-72 -35 179 0
-394 -242 -176 0
303 -324 990 0
-185 -749 -594 0
773 118 -13 0
-419 180 -747 0
539 -661 -394 0
-363 -117 355 0
91 507 39 0
170 -203 -271 0
-302 352 127 0
361 -1 482 0
-688 985 -26 0
582 -203 856 0
-465 -229 -999 0
-600 -384 -438 0
-338 -702 -392 0
271 151 -343 0
-493 -320 -563 0
-206 -332 541 0
-240 755 621 0
-459 347 -960 0
24 670 862 0
-348 -36 37 0
476 -957 -486 0
-494 261 708 0
625 -171 -787 0
-561 868 853 0
374 -53 484 0
377 -786 -187 0
-42 130 -737 0
-789 -797 599 0
-323 255 -155 0
277 597 -504 0
561 3 593 0
-476 208 -735 0
-766 -554 -417 0
-991 626 -12 0
-819 -369 -856 0
-453 -619 886 0
-400 655 154 0
-886 421 327 0
-492 946 -589 0
-928 125 776 0
-332 -532 750 0
-993 -179 574 0
-557 -609 -385 0
-366 250 186 0
641 -393 811 0
-477 268 -857 0
310 -281 689 0
-405 567 392 0
330 -845 412 0
54 816 779 0
-120 958 -289 0
74 -238 39 0
-564 424 -558 0
-34 774 68 0
-620 393 -551 0
-122 935 757 0
215 222 40 0
-39 -97 -6 0
-407 254 782 0
-183 146 -682 0
986 -66 387 0
-471 430 995 0
337 -836 286 0
859 -208 535 0
567 -197 -589 0
-509 640 -779 0
982 710 296 0
-587 -878 203 0
-285 39 -417 0
-790 -89 543 0
286 -459 702 0
-401 111 -709 0
708 78 478 0
522 -70 127 0
-987 -165 373 0
-437 -726 -438 0
-107 -486 292 0
-332 -894 -482 0
449 587 -199 0
-917 -842 474 0
555 64 -566 0
-23 632 -116 0
-574 -807 579 0
-27 780 -5 0
-855 -817 444 0
222 -415 -633 0
-219 949 701 0
554 519 -489 0
791 985 388 0
676 307 -210 0
56 842 -544 0
-323 -361 -939 0
157 -833 489 0
-516 207 650 0
929 -333 909 0
657 916 542 0
978 -945 464 0
109 809 454 0
719 675 961 0
981 825 -363 0
-109 92 -197 0
152 -573 -391 0
-351 -341 -688 0
-177 -5 -437 0
195 999 77 0
504 217 166 0
-293 715 823 0
12 -683 -591 0
-182 -710 263 0
-888 872 -455 0
322 -595 -950 0
-49 -913 -120 0
-73 -771 291 0
385 -697 181 0
244 367 -675 0
511 -373 445 0
998 -915 -14 0
597 -800 109 0
906 -244 151 0
-895 -994 -760 0
-780 338 612 0
615 351 228 0
433 -234 424 0
-251 885 782 0
-959 233 -399 0
351 716 -990 0
-344 -45 168 0
689 657 -591 0
-429 -17 -730 0
-971 312 -522 0
-429 303 -369 0
94 -579 461 0
861 578 287 0
824 -34 273 0
480 509 752 0
325 77 322 0
518 10 297 0
586 137 349 0
538 -327 -427 0
781 357 590 0
-189 668 -833 0
-14 -456 576 0
-450 -752 -126 0
842 278 -472 0
172 109 -345 0
469 465 757 0
170 331 963 0
768 -432 -580 0
920 -30 -955 0
-53 -774 -678 0
-154 -240 874 0
158 546 -645 0
-121 899 398 0
-294 996 -513 0
-384 861 283 0
-681 -926 -57 0
592 496 842 0
300 -352 997 0
-104 -90 -387 0
-938 748 422 0
-760 -727 155 0
-236 41 -238 0
83 -118 -950 0
-557 204 39 0
767 127 -137 0
-62 -957 248 0
155 91 106 0
-976 110 625 0
884 -921 -82 0
256 -549 135 0
338 -643 431 0
-683 -469 428 0
504 -789 892 0
-433 724 -270 0
-735 -745 271 0
-301 152 894 0
-551 -387 543 0
534 -381 -66 0
127 -672 -612 0
-528 -58 803 0
506 861 -618 0
-487 479 886 0
624 396 -172 0
-147 -421 -991 0
-517 -484 281 0
-362 -582 -476 0
-252 -533 583 0
468 -246 610 0
316 -673 229 0
757 -750 430 0
743 -226 596 0
-897 -572 -124 0
665 730 225 0
373 -782 238 0
-607 -631 -131 0
-285 974 -326 0
-630 -71 -209 0
-104 307 751 0
-697 117 929 0
47 -277 487 0
108 643 250 0
-198 -543 -723 0
-44 364 -856 0
58 -783 -255 0
-271 821 624 0
-857 -806 -446 0
-370 -764 446 0
526 -590 278 0
954 -661 -269 0
60 229 875 0
402 771 203 0
-711 -554 443 0
-638 -317 -148 0
941 158 11 0
-720 -527 368 0
336 -154 243 0
-691 226 118 0
-932 404 527 0
-157 600 934 0
67 -560 -261 0
404 -344 -388 0
-824 -523 166 0
994 400 754 0
904 -493 -168 0
-593 -153 804 0
808 405 394 0
-975 -485 -930 0
963 -664 768 0
544 82 -168 0
-535 -284 135 0
-248 -267 92 0
140 350 -113 0
200 930 998 0
152 222 -685 0
-496 659 -447 0
395 101 -302 0
805 918 -295 0
-112 498 -15 0
443 -359 542 0
238 56 245 0
693 -391 -214 0
218 771 347 0
819 857 117 0
-15 460 -508 0
-696 278 67 0
402 898 486 0
44 389 -230 0
486 -833 134 0
33 579 -442 0
-16 317 638 0
-224 -448 -293 0
-703 -104 515 0
782 448 548 0
-432 925 -802 0
665 959 711 0
900 62 -467 0
338 -120 334 0
-77 -881 -383 0
151 -159 302 0
906 521 -629 0
535 -606 -89 0
-670 631 155 0
777 -117 -708 0
868 -596 -223 0
318 810 445 0
-36 -625 -689 0
-76 508 505 0
-370 -507 995 0
225 652 -473 0
280 776 -747 0
74 -403 896 0
-952 -954 788 0
705 685 -334 0
683 971 626 0
-126 -501 788 0
890 -850 -58 0
258 -569 -200 0
467 -65 -278 0
866 702 125 0
43 -361 -273 0
295 -152 335 0
-515 -181 396 0
-201 948 -880 0
486 268 971 0
-278 72 700 0
-464 -10 735 0
-654 254 274 0
153 -269 463 0
843 750 667 0
-573 841 -69 0
586 131 838 0
789 958 -80 0
268 -329 -398 0
-330 -500 -261 0
-91 501 987 0
357 -304 675 0
-580 657 467 0
-449 206 -435 0
-319 -382 -434 0
309 661 -61 0
-293 -911 -567 0
-786 -461 16 0
-380 -709 593 0
-935 524 -517 0
774 -930 -87 0
108 956 176 0
297 -559 726 0
796 -906 924 0
115 -489 578 0
108 -453 334 0
-208 -381 944 0
-628 196 -224 0
327 -233 -935 0
154 216 179 0
769 -364 -690 0
-514 -422 43 0
926 943 989 0
794 501 -203 0
-170 -785 -680 0
721 -137 247 0
-204 903 -999 0
-630 -304 753 0
-154 336 -619 0
-343 242 308 0
449 -920 690 0
812 -25 -61 0
-146 777 -847 0
-363 -556 635 0
925 957 912 0
953 -381 -679 0
-98 -403 -788 0
-377 657 -719 0
-901 53 -343 0
-634 694 33 0
-679 625 -847 0
700 -659 93 0
-159 -967 -227 0
-255 882 226 0
451 163 989 0
210 -896 649 0
339 -698 93 0
708 -611 -701 0
503 -594 163 0
-666 -239 175 0
539 296 -86 0
-971 210 -871 0
387 -378 -876 0
-101 23 -458 0
-526 195 508 0
-454 -604 693 0
-867 260 -492 0
138 895 -696 0
-351 -778 -900 0
-585 319 -164 0
-663 184 687 0
-78 787 313 0
696 625 -538 0
-667 918 605 0
237 371 383 0
-958 344 -931 0
476 -575 115 0
-151 996 -291 0
594 -475 886 0
-614 -640 -362 0
690 -698 771 0
-581 442 625 0
-306 157 -191 0
-78 574 460 0
231 730 47 0
645 89 329 0
900 86 -234 0
189 -455 -207 0
-165 431 -530 0
-13 234 -193 0
-831 284 17 0
982 -237 -502 0
-287 702 -918 0
384 -338 344 0
-485 651 587 0
-509 439 -994 0
-786 -959 -435 0
-623 -911 -442 0
-418 -248 -350 0
287 399 -390 0
716 139 -406 0
174 -220 701 0
696 49 438 0
673 -712 -189 0
850 -975 310 0
-217 814 245 0
123 -138 387 0
-258 108 -105 0
-253 689 -731 0
-436 379 208 0
7 599 742 0
-92 -63 52 0
765 -671 -389 0
184 -980 996 0
818 872 -326 0
564 -969 -763 0
-817 -165 -489 0
19 345 698 0
-213 -484 -180 0
944 583 474 0
803 -955 -848 0
491 -908 -320 0
972 745 -118 0
392 994 332 0
-808 -115 166 0
564 -290 809 0
-46 -207 -637 0
183 496 343 0
-777 762 746 0
191 429 -193 0
-744 22 -643 0
-368 185 -546 0
86 974 -134 0
-881 768 196 0
-369 -162 -996 0
-122 721 -488 0
-414 -60 222 0
-804 912 575 0
-741 895 929 0
-750 139 -671 0
875 865 -315 0
637 538 -837 0
-826 -855 -948 0
974 869 -927 0
639 216 5 0
-958 -920 660 0
11 -285 826 0
790 -211 466 0
80 543 -262 0
4 -422 985 0
-361 -27 -697 0
94 610 144 0
-54 416 -555 0
-412 -560 370 0
-664 876 -837 0
-186 823 -225 0
-703 815 -683 0
-991 796 -976 0
-472 -887 160 0
378 118 -519 0
627 687 -536 0
-943 -965 -247 0
933 144 -452 0
-431 -780 -964 0
981 242 -116 0
-39 550 6 0
-561 282 533 0
655 473 -239 0
-746 507 752 0
-948 31 284 0
-580 874 -534 0
298 -310 192 0
334 -174 -143 0
-728 -70 851 0
-906 845 455 0
-304 -893 448 0
-439 938 -981 0
-963 17 823 0
-699 -413 996 0
136 516 -771 0
296 -996 873 0
954 710 947 0
706 434 -841 0
252 -504 -470 0
-681 -900 451 0
63 985 306 0
-921 -165 -964 0
-384 -559 -44 0
674 174 -153 0
-440 90 -1000 0
-821 -884 866 0
301 -85 846 0
-561 973 -443 0
-969 -2 -280 0
-634 497 26 0
-7 -156 302 0
4 -321 5 0
310 -325 49 0
-830 340 280 0
-698 -327 -911 0
-980 -303 -702 0
124 -168 -191 0
-88 637 -135 0
-217 -793 331 0
-203 -992 -466 0
112 -997 56 0
-24 130 -674 0
-833 180 700 0
-47 -882 -467 0
-287 -270 -633 0
-702 177 771 0
175 -65 -918 0
-392 -584 629 0
-148 -351 338 0
-455 711 80 0
-472 -885 -918 0
916 759 -960 0
790 -972 -693 0
-507 -148 883 0
-717 325 955 0
982 -243 385 0
110 346 -930 0
-740 -174 500 0
703 552 -926 0
290 -437 -177 0
709 62 158 0
-618 619 -700 0
-46 -384 -349 0
636 -52 524 0
-548 -579 682 0
-165 652 -72 0
753 -553 -264 0
507 168 -888 0
635 882 624 0
-411 -470 -791 0
25 87 649 0
-896 442 976 0
981 134 634 0
-940 47 155 0
-506 -486 18 0
414 427 283 0
990 649 -798 0
-119 -561 -261 0
475 -767 -783 0
367 -181 -434 0
-994 417 -873 0
-176 -424 108 0
171 -605 -224 0
286 254 310 0
-904 -622 -66 0
-530 558 -97 0
138 10 -708 0
-582 133 -875 0
571 -839 -97 0
305 285 210 0
-377 400 -297 0
102 -844 490 0
-549 199 -946 0
-647 -53 -502 0
-854 118 726 0
812 -76 -585 0
-440 -584 502 0
-137 496 -957 0
-376 -246 760 0
88 -396 637 0
740 -45 -974 0
355 -360 234 0
238 519 -702 0
561 -285 -853 0
-175 241 -762 0
592 -604 559 0
86 933 922 0
-533 323 -679 0
780 -653 288 0
338 -192 -909 0
728 -996 -443 0
339 467 878 0
529 -989 -634 0
710 -290 -494 0
-704 -967 -676 0
301 -298 -426 0
875 553 293 0
598 -1000 -245 0
-776 768 285 0
328 -349 723 0
492 -303 123 0
118 895 974 0
286 232 -76 0
328 579 19 0
421 528 -877 0
-787 246 -649 0
182 -807 -41 0
-760 -678 627 0
767 -140 323 0
-505 352 -496 0
-211 -214 -510 0
-64 -98 -649 0
30 -490 26 0
898 -282 -107 0
-531 521 -953 0
-118 587 -968 0
-536 700 -716 0
439 -396 187 0
737 -598 -577 0
-330 43 -229 0
428 69 891 0
-130 -491 -585 0
390 -9 -738 0
907 -867 -607 0
349 293 98 0
813 20 932 0
-17 -610 -406 0
876 -727 647 0
576 514 -472 0
844 -336 -236 0
-233 -350 622 0
631 -819 -880 0
607 801 -854 0
-534 -22 858 0
-853 841 823 0
531 624 -226 0
-922 -123 -376 0
-985 -902 372 0
-205 775 -254 0
-379 -870 175 0
-3 -661 -487 0
550 -164 368 0
-825 670 151 0
759 180 -32 0
974 -766 -301 0
-113 -785 -500 0
999 737 -666 0
387 -412 -744 0
-572 -22 -587 0
174 465 -782 0
-351 -684 682 0
50 299 -434 0
-295 -933 -475 0
-256 901 -226 0
-151 -86 -860 0
-201 983 393 0
173 -709 -739 0
627 -737 183 0
-642 -614 -73 0
-824 111 -716 0
223 -481 656 0
819 -853 -145 0
717 -4 423 0
626 501 480 0
-901 -314 173 0
-951 -365 664 0
-393 -411 -734 0
-428 -419 868 0
-365 -614 -916 0
46 -81 -786 0
28 -509 -92 0
-598 -29 425 0
-799 537 747 0
440 -397 7 0
578 -136 647 0
-801 175 953 0
-71 -25 -627 0
-79 824 -77 0
-370 677 391 0
817 280 -648 0
38 769 -766 0
421 698 -412 0
732 360 363 0
-33 884 721 0
324 -175 -367 0
234 -111 674 0
-367 321 878 0
-701 -206 -584 0
-704 -781 -651 0
-123 980 302 0
770 -277 58 0
988 -768 -656 0
870 -135 -938 0
-388 -410 -966 0
-878 481 -640 0
-921 400 -575 0
-410 -433 -496 0
305 -845 -928 0
83 790 -881 0
-983 259 787 0
520 -812 -756 0
-980 194 258 0
279 -7 -897 0
41 328 -359 0
-413 926 23 0
-720 -370 -962 0
123 -764 -687 0
-153 354 -323 0
-895 -396 -853 0
15 -873 723 0
765 439 942 0
178 -177 69 0
894 590 307 0
721 -992 -121 0
777 -510 -509 0
353 761 -452 0
61 594 -351 0
379 965 -747 0
-992 -281 591 0
21 -345 795 0
666 -718 456 0
-26 -966 -821 0
-106 -512 776 0
-927 965 -288 0
541 430 750 0
754 124 -244 0
356 -313 184 0
179 -491 -898 0
833 -958 -711 0
558 75 -350 0
-722 905 -709 0
422 452 272 0
374 115 272 0
688 884 359 0
-481 230 -167 0
-807 -628 23 0
-142 -480 -513 0
-232 -178 -239 0
627 -436 -829 0
941 554 426 0
-170 458 -653 0
-213 593 693 0
-897 -146 -161 0
485 993 628 0
-864 177 -106 0
39 283 751 0
933 234 -567 0
389 919 583 0
478 517 -166 0
510 -498 -222 0
446 -77 -246 0
536 -273 131 0
888 290 -374 0
-338 88 -936 0
-229 546 906 0
60 -299 940 0
-712 -725 68 0
377 62 -638 0
680 843 178 0
-767 712 926 0
959 -19 607 0
66 712 234 0
-138 -989 -957 0
276 -566 -539 0
-973 927 -1 0
-916 480 -119 0
904 139 586 0
626 559 693 0
-767 101 -471 0
-835 599 -86 0
-27 519 142 0
-66 126 884 0
124 -603 661 0
604 6 -70 0
-849 609 516 0
-914 20 -535 0
691 710 107 0
-621 407 -310 0
575 -974 654 0
-840 -172 -103 0
-320 -920 -344 0
-246 -719 261 0
534 -437 335 0
569 -798 -678 0
-665 -402 -716 0
-691 884 -465 0
-37 300 868 0
308 889 -521 0
-961 136 53 0
914 -349 -628 0
699 99 969 0
421 -246 155 0
240 259 -857 0
739 641 30 0
-605 -199 -879 0
-169 784 -373 0
367 -441 47 0
244 953 -561 0
780 -280 -902 0
682 266 399 0
113 718 -411 0
-669 -966 -235 0
-268 -156 983 0
-261 350 94 0
-440 484 -534 0
-372 -140 923 0
-275 399 30 0
249 115 935 0
-212 7 492 0
-216 -211 301 0
-140 -652 976 0
-511 -681 -888 0
-517 -198 823 0
-427 -199 439 0
9 935 100 0
-923 -24 -938 0
-850 -256 252 0
-147 -347 -32 0
240 842 206 0
88 763 898 0
646 321 -540 0
991 582 900 0
216 832 -329 0
-436 -159 -118 0
784 -33 150 0
206 -266 -688 0
-779 819 782 0
136 -324 744 0
-611 -344 672 0
-7 -592 519 0
-394 748 38 0
650 95 86 0
-92 172 915 0
-592 157 -468 0
984 218 -413 0
-675 329 785 0
-614 -109 434 0
-411 558 433 0
-805 -926 -3 0
-938 386 -448 0
555 -689 656 0
517 937 80 0
38 336 56 0
-894 -286 635 0
-121 -299 232 0
-926 -246 451 0
482 338 891 0
-270 154 -828 0
-9 870 -878 0
589 -504 255 0
-818 -355 782 0
527 312 255 0
-792 673 252 0
-590 -555 985 0
529 -826 596 0
-683 -591 253 0
-435 -990 423 0
526 560 -723 0
891 472 -999 0
415 386 -445 0
208 -772 707 0
-751 -448 856 0
457 -151 -723 0
475 -94 -290 0
-811 111 516 0
631 -5 -820 0
-526 -286 310 0
735 -997 -23 0
-83 -528 -209 0
-154 418 879 0
374 -444 -338 0
928 -358 -357 0
689 80 -504 0
998 -599 -177 0
-467 588 -425 0
325 -153 579 0
-73 666 -864 0
-485 329 768 0
474 -353 8 0
548 -89 295 0
276 -16 811 0
-948 829 -757 0
750 309 960 0
-581 633 -380 0
-673 455 643 0
-970 83 737 0
-2 -563 -491 0
646 980 752 0
749 829 241 0
814 -397 -520 0
-295 -440 -311 0
-140 102 257 0
-463 630 -38 0
785 -637 278 0
582 614 302 0
-59 660 790 0
-930 -933 -817 0
-556 442 -290 0
-844 -333 44 0
708 -531 12 0
14 -690 597 0
-984 95 -148 0
594 109 -388 0
-809 626 567 0
-885 -348 321 0
-522 -672 -871 0
-997 -672 370 0
414 -950 35 0
391 183 611 0
428 -977 -547 0
-580 -387 758 0
-115 -132 389 0
52 402 -33 0
131 458 -162 0
-768 -26 -22 0
237 -247 -210 0
-243 -787 -988 0
-53 596 622 0
520 772 -425 0
678 900 -742 0
-200 510 -818 0
-211 -538 -219 0
707 -46 -350 0
-926 -40 -421 0
-742 518 723 0
-699 572 377 0
431 -311 -771 0
-531 -540 330 0
686 -220 -927 0
990 610 -837 0
187 -123 177 0
604 321 -7 0
-998 -960 -608 0
883 66 -254 0
871 912 -536 0
31 -42 -178 0
309 656 -181 0
-539 -462 -275 0
-437 719 -482 0
979 35 767 0
444 11 -114 0
445 -978 745 0
288 -177 384 0
339 -45 483 0
-78 90 -638 0
-394 -566 612 0
732 -336 609 0
623 672 -587 0
415 20 -958 0
645 -411 -509 0
-549 175 -877 0
-178 -608 484 0
842 303 340 0
-493 938 -560 0
-238 328 -533 0
-332 -766 275 0
-538 -881 -395 0
-590 644 -970 0
763 -126 -831 0
144 36 -194 0
-741 -297 564 0
496 333 -55 0
-711 -109 -549 0
-510 -83 -350 0
965 -570 217 0
188 -2 -640 0
-290 833 297 0
465 124 -994 0
975 364 -175 0
-510 523 -144 0
550 -718 893 0
-919 731 -773 0
358 154 274 0
555 362 -275 0
711 365 -321 0
82 513 -435 0
941 501 -201 0
-615 -207 -848 0
288 -191 484 0
389 -478 -685 0
-601 -560 243 0
75 -241 -161 0
-58 -727 -341 0
179 -821 -952 0
-409 -12 -323 0
-461 13 -17 0
440 -149 960 0
925 423 -952 0
484 -440 526 0
499 52 151 0
805 823 -132 0
280 -272 -423 0
174 158 139 0
-790 -416 -338 0
-806 895 -166 0
-750 248 -675 0
-353 154 315 0
-790 -738 72 0
306 222 952 0
277 -394 87 0
-931 458 898 0
-953 -203 -698 0
558 721 -286 0
800 -145 -720 0
-575 644 991 0
-781 18 -842 0
-526 327 -822 0
-482 -994 345 0
864 290 -725 0
-419 -523 -946 0
95 669 -333 0
-607 103 600 0
317 305 -13 0
-941 -460 -522 0
231 30 749 0
-315 884 652 0
770 75 -190 0
762 -189 -706 0
-978 -481 -429 0
-812 -390 -809 0
943 -511 836 0
-953 -394 -366 0
-870 346 -699 0
-154 776 -311 0
-853 343 -101 0
84 715 -934 0
551 -101 721 0
444 -569 -806 0
-829 -762 -163 0
32 643 17 0
850 -951 -346 0
-386 -163 779 0
218 558 -630 0
143 -489 -950 0
607 994 251 0
525 -486 745 0
676 26 508 0
745 876 291 0
767 -233 -931 0
783 330 -13 0
-779 -245 -289 0
-974 577 43 0
998 564 661 0
875 -556 423 0
487 293 913 0
372 -993 454 0
224 117 901 0
-84 774 -93 0
265 -266 -965 0
607 -301 -439 0
289 314 315 0
-931 219 59 0
-236 169 763 0
239 299 583 0
693 104 868 0
41 -825 -93 0
956 -636 253 0
-45 548 137 0
127 -58 980 0
-287 429 246 0
401 684 14 0
-674 -337 -303 0
282 -247 236 0
61 731 377 0
-351 806 -306 0
-876 737 -971 0
-68 -902 -474 0
67 876 488 0
-737 63 -622 0
-547 -863 -641 0
885 162 -190 0
148 447 907 0
36 219 604 0
434 -91 418 0
-665 289 -186 0
483 639 -392 0
-801 789 -458 0
-608 92 665 0
624 957 -875 0
251 203 338 0
124 -258 879 0
692 958 82 0
879 -243 -701 0
-42 775 145 0
429 159 -837 0
773 732 476 0
-298 -743 220 0
527 -8 -202 0
-456 100 712 0
-327 456 -858 0
301 -215 -304 0
805 -108 -149 0
558 923 -264 0
294 -853 689 0
-832 -968 759 0
-35 -517 -170 0
-434 201 -587 0
-740 603 618 0
956 462 -853 0
-646 659 951 0
-396 568 -366 0
13 -42 -123 0
301 499 948 0
-263 756 953 0
726 -486 -558 0
-529 579 157 0
745 -637 135 0
527 42 -915 0
-410 339 -301 0
-983 -231 -656 0
-775 88 -803 0
-579 406 -247 0
606 269 412 0
-220 -97 -427 0
90 334 -89 0
58 832 306 0
981 -180 968 0
-929 -761 373 0
657 -769 351 0
-778 608 -286 0
-821 205 412 0
-974 -213 925 0
-622 420 531 0
-619 -328 -989 0
190 753 194 0
-990 -504 -389 0
781 577 272 0
-1000 678 325 0
-766 -247 -330 0
-27 545 157 0
117 -572 -964 0
-122 872 629 0
-930 641 638 0
-698 763 590 0
959 -979 40 0
365 730 -345 0
283 833 -305 0
338 15 -802 0
-334 -861 817 0
925 461 -618 0
-675 -756 391 0
-343 -809 -202 0
-158 97 -50 0
750 777 -766 0
-327 -523 -335 0
536 -369 988 0
425 995 -845 0
-752 586 -339 0
-41 -265 -972 0
573 99 966 0
-263 931 616 0
765 539 -687 0
-285 791 -546 0
863 -271 -646 0
989 316 -752 0
663 -73 631 0
-438 471 563 0
205 -899 -669 0
13 -691 323 0
371 968 640 0
-782 717 520 0
-935 597 -847 0
458 -42 207 0
94 -582 -36 0
-649 -888 -751 0
933 830 -502 0
576 337 848 0
857 647 453 0
-396 -468 995 0
-42 -753 -565 0
-704 635 281 0
90 951 41 0
-986 303 -770 0
692 38 793 0
-315 39 620 0
874 -116 529 0
486 -989 474 0
639 160 841 0
-834 6 -895 0
702 -95 136 0
-640 676 431 0
53 590 -107 0
-946 384 177 0
-876 -929 -214 0
995 658 -134 0
431 -840 -802 0
765 -577 -110 0
170 542 -580 0
459 391 -589 0
782 434 -940 0
-666 -790 -162 0
-407 -721 -296 0
-790 356 -614 0
-824 710 -349 0
-388 -572 295 0
135 -967 -240 0
-639 889 -706 0
-104 530 689 0
-559 -246 338 0
304 651 -752 0
999 -498 -413 0
-95 811 -436 0
16 -894 -659 0
50 655 -291 0
-454 -111 977 0
936 -83 -62 0
26 -359 -241 0
364 -53 345 0
-12 393 -750 0
886 -346 -191 0
-820 -29 -653 0
790 645 107 0
-809 -266 136 0
-531 -565 -346 0
-180 -918 137 0
537 29 -708 0
247 -462 800 0
359 183 703 0
730 593 658 0
383 -560 716 0
70 -931 -999 0
443 -22 914 0
-434 93 -902 0
209 -622 -534 0
-437 -12 986 0
880 972 707 0
711 382 573 0
768 -206 965 0
-603 277 -852 0
-379 -146 -227 0
688 998 405 0
-549 699 -430 0
-987 -918 855 0
729 -172 805 0
-70 297 492 0
446 148 785 0
820 -59 -119 0
-444 38 -812 0
81 30 -448 0
461 337 560 0
-153 484 -297 0
-372 711 866 0
691 -233 228 0
355 -719 -907 0
-270 310 442 0
695 842 551 0
270 -280 -946 0
-793 232 131 0
-645 -700 50 0
-845 -785 870 0
-389 212 111 0
32 -521 -862 0
-260 154 -657 0
677 -192 704 0
916 -222 34 0
467 208 919 0
298 891 291 0
544 -534 945 0
-914 -854 -589 0
752 -766 -443 0
-586 -760 -592 0
-768 56 539 0
-120 452 -172 0
24 242 740 0
230 -538 -818 0
529 -217 894 0
304 893 683 0
707 -45 -514 0
-853 290 -511 0
120 908 818 0
-562 303 -625 0
-804 623 -543 0
-950 -459 -876 0
-578 -517 524 0
59 933 299 0
101 -43 -829 0
992 321 -420 0
603 -125 -355 0
-261 991 -407 0
282 117 476 0
-289 531 144 0
-492 -518 47 0
396 154 -457 0
-501 -394 -59 0
-878 -955 -11 0
-136 88 316 0
-457 1000 -286 0
763 886 -228 0
955 928 775 0
-434 74 -294 0
-465 -625 527 0
171 503 158 0
666 487 -57 0
426 976 35 0
-8 821 12 0
-886 839 -954 0
547 923 -345 0
-622 -918 930 0
864 792 866 0
-619 -19 -412 0
-21 235 -838 0
-484 572 -644 0
450 179 -897 0
322 373 132 0
590 -318 -91 0
-324 468 913 0
-315 900 -362 0
400 305 -697 0
-941 -752 895 0
-960 -899 667 0
-827 536 -87 0
-374 21 508 0
365 -514 867 0
917 185 -521 0
-908 688 710 0
660 -94 -254 0
-878 668 395 0
-150 648 -469 0
-576 418 -820 0
922 -319 75 0
662 -395 143 0
962 -349 930 0
921 420 -381 0
-790 71 -825 0
24 -462 797 0
784 -340 553 0
597 -460 154 0
-231 -855 -761 0
-429 -636 -812 0
-23 943 414 0
266 -847 -309 0
-373 732 631 0
873 -835 -201 0
-117 167 -163 0
-93 -665 240 0
-822 539 61 0
-75 520 31 0
-883 641 572 0
997 193 -402 0
-799 190 699 0
51 942 -752 0
467 -364 -720 0
-300 -476 -454 0
839 -146 214 0
859 479 -844 0
986 -38 -167 0
136 -18 -778 0
-550 771 511 0
-816 992 501 0
-345 888 -640 0
-402 460 864 0
103 -207 -406 0
-734 394 229 0
-16 -108 780 0
-417 725 -475 0
-883 462 -718 0
-41 -561 -78 0
553 727 912 0
-20 -404 416 0
-126 244 -266 0
204 565 187 0
-180 333 -722 0
126 545 138 0
-326 107 -192 0
447 -710 198 0
713 132 559 0
51 -92 -153 0
-232 -163 395 0
-430 282 291 0
-251 -550 -718 0
346 253 83 0
-132 310 -308 0
-931 -645 745 0
648 190 -148 0
890 -427 -885 0
189 275 -78 0
188 469 826 0
-907 -609 717 0
322 -790 224 0
-674 989 170 0
-502 498 591 0
-997 -821 -684 0
547 -201 -672 0
118 71 211 0
24 -269 395 0
881 175 289 0
-194 119 -558 0
-808 -713 893 0
-689 877 -841 0
-620 -791 228 0
-161 456 601 0
-754 918 -592 0
-327 -999 883 0
986 198 194 0
709 -63 238 0
-404 267 -129 0
742 -384 -567 0
552 -557 -185 0
851 246 -611 0
-960 -320 416 0
454 -65 -566 0
622 -823 40 0
659 499 -388 0
524 -644 310 0
-725 -635 -851 0
-632 340 308 0
398 688 -461 0
846 -372 -877 0
448 712 -430 0
151 830 537 0
375 -458 261 0
519 770 -395 0
-576 655 -836 0
372 501 651 0
231 772 -863 0
802 201 -389 0
114 167 -127 0
126 -807 448 0
220 -713 693 0
-263 -668 497 0
229 19 970 0
-885 954 231 0
-433 -436 -414 0
635 -566 846 0
-799 -356 616 0
257 169 345 0
364 -439 147 0
484 -424 -932 0
928 605 640 0
450 -736 -518 0
997 -467 -728 0
807 128 185 0
77 44 10 0
768 958 -852 0
346 597 835 0
-987 -684 172 0
48 -432 -311 0
919 29 -259 0
700 -813 -363 0
-350 500 -653 0
413 720 221 0
644 762 731 0
531 -669 413 0
-393 -28 587 0
-427 -163 293 0
-382 -644 980 0
652 -630 386 0
-925 90 269 0
892 -543 -549 0
-378 -167 314 0
612 487 -425 0
577 727 -82 0
-283 817 463 0
-96 176 -103 0
686 949 245 0
-774 -899 -547 0
-88 302 -334 0
731 652 -701 0
912 -928 -29 0
679 186 36 0
-524 21 579 0
-306 36 -110 0
984 311 881 0
-381 -771 460 0
-344 526 -748 0
-524 487 770 0
-228 -694 353 0
-334 -326 318 0
453 -526 283 0
-402 133 -753 0
-127 574 154 0
-913 -459 886 0
-586 509 139 0
-826 388 978 0
-12 273 265 0
371 -244 -711 0
-995 -823 101 0
-151 307 -274 0
373 -77 405 0
539 758 558 0
92 -422 29 0
578 675 80 0
-256 695 -801 0
527 -158 588 0
94 -428 -150 0
-650 -594 -225 0
287 221 618 0
-273 -722 53 0
265 319 -859 0
-855 -47 -175 0
707 -192 -39 0
-524 199 131 0
-638 833 -940 0
653 -234 -128 0
-130 -714 435 0
213 376 903 0
-896 224 748 0
-798 831 -821 0
6 276 -341 0
597 -136 -517 0
-499 -546 -82 0
23 367 183 0
-180 788 31 0
110 -364 -832 0
-178 6 816 0
85 761 -466 0
-490 727 -840 0
145 -781 794 0
48 -708 -574 0
-899 -250 -447 0
-53 278 805 0
790 457 -670 0
73 28 634 0
-536 216 951 0
-307 728 -464 0
-984 -386 881 0
882 735 -623 0
363 -295 570 0
-517 158 -156 0
319 -678 480 0
-885 275 640 0
185 495 555 0
-556 -889 586 0
-412 602 -628 0
-62 759 -445 0
658 179 -108 0
-307 992 -833 0
431 -379 -1000 0
158 -279 -132 0
480 203 691 0
327 566 937 0
-590 -919 311 0
908 -393 -660 0
-990 593 -884 0
-740 114 119 0
-181 -830 553 0
167 507 666 0
-659 -744 335 0
756 295 -119 0
598 904 -493 0
583 -456 -41 0
-847 400 590 0
-483 300 -241 0
600 -669 -294 0
-655 -906 -953 0
-406 219 -323 0
83 345 -115 0
621 -850 -503 0
-414 -66 803 0
406 916 -99 0
993 -839 833 0
-209 673 -384 0
127 194 140 0
653 -337 381 0
-879 -748 -228 0
856 244 -229 0
422 379 -227 0
438 810 -664 0
995 -717 33 0
-528 -101 236 0
852 -57 361 0
169 -591 -256 0
-677 761 -803 0
498 -697 293 0
232 250 -49 0
-481 970 -299 0
-225 -410 538 0
-699 94 -75 0
42 -124 -915 0
625 -768 -96 0
734 -413 362 0
-818 577 520 0
-101 -187 475 0
112 -252 -544 0
-151 433 325 0
-480 -122 -435 0
765 128 900 0
152 -559 -336 0
721 718 768 0
730 -460 -510 0
-540 876 829 0
927 827 19 0
539 -219 -452 0
-697 -168 -227 0
-484 -297 -866 0
-177 758 -138 0
-365 -745 586 0
798 827 966 0
-571 -931 -977 0
626 905 403 0
-5 -427 894 0
135 731 241 0
-403 -489 -671 0
-130 -406 538 0
289 -122 159 0
-650 -684 944 0
879 -114 -288 0
891 -447 708 0
789 486 975 0
-708 969 728 0
-632 -674 -801 0
-299 -877 103 0
-998 -313 -231 0
-45 111 -312 0
116 634 836 0
-845 294 409 0
515 -372 219 0
608 443 31 0
501 313 33 0
-144 302 -871 0
454 379 883 0
-106 780 521 0
-139 -751 -189 0
-338 -742 473 0
-543 358 -980 0
497 -863 534 0
-457 572 720 0
630 -289 960 0
-553 702 694 0
212 432 933 0
422 198 110 0
-446 -14 188 0
501 140 47 0
123 -378 803 0
-508 105 978 0
-506 -171 -775 0
-184 -229 129 0
-270 -469 734 0
122 -740 -223 0
-599 -803 299 0
-955 -800 -360 0
839 979 -505 0
711 586 579 0
-912 -831 845 0
-4 162 898 0
-28 -634 -819 0
172 -206 -585 0
-166 -83 -126 0
482 -468 -658 0
333 64 246 0
340 -95 -848 0
836 -280 947 0
287 -575 389 0
305 -256 416 0
-646 -884 246 0
958 -364 -255 0
864 -155 639 0
-486 88 -55 0
-159 -142 -109 0
-474 -74 -661 0
-517 -221 385 0
-10 139 427 0
-254 -963 -443 0
-820 737 715 0
-217 -899 186 0
710 -660 -596 0
-579 -926 182 0
-184 709 -660 0
-401 -457 893 0
-174 940 -783 0
460 -215 -148 0
-267 -954 116 0
-89 -461 -64 0
745 769 -606 0
127 716 -570 0
-730 -238 -868 0
-960 -710 892 0
-385 135 -637 0
-843 203 983 0
497 393 -626 0
219 -777 -443 0
-716 -319 -192 0
-413 -754 -630 0
858 -475 -10 0
976 -753 201 0
-744 -705 -123 0
948 449 163 0
781 595 46 0
594 -355 -697 0
-365 -405 319 0
-143 -174 -160 0
-145 -775 737 0
-305 555 280 0
931 504 973 0
731 935 995 0
558 -358 -514 0
300 947 492 0
-722 883 -964 0
-880 801 580 0
-268 -248 -628 0
23 151 -501 0
-261 -627 -274 0
697 -211 -231 0
-365 709 969 0
-22 -884 -588 0
649 480 -299 0
970 580 -919 0
-786 956 -507 0
65 639 614 0
544 -822 -728 0
-343 882 -678 0
699 -355 747 0
248 -798 -675 0
122 -903 157 0
-288 -930 216 0
265 913 -909 0
-664 -66 -531 0
-702 458 698 0
-632 704 360 0
454 756 -465 0
-902 -69 558 0
-96 -532 767 0
372 -623 27 0
-708 -882 -510 0
-692 -770 306 0
793 337 421 0
680 127 87 0
-611 702 -68 0
-302 -54 -478 0
-682 367 -891 0
-770 -979 -740 0
-714 -925 575 0
-771 913 -65 0
-230 560 870 0
-716 30 -220 0
-119 -235 -713 0
-348 -307 -447 0
-121 -853 -223 0
55 515 -960 0
639 690 103 0
620 -555 556 0
-86 122 12 0
256 -205 473 0
565 -515 -497 0
-569 -906 -437 0
247 -219 -670 0
-202 424 807 0
-145 165 650 0
30 549 420 0
448 4 -68 0
-184 17 -900 0
-160 933 -900 0
919 -79 102 0
-627 -927 23 0
-142 183 -694 0
756 -445 117 0
-695 -56 477 0
185 -422 -594 0
-436 -324 869 0
9 -966 732 0
-489 -742 338 0
602 977 662 0
-432 -640 -803 0
408 -495 -536 0
-122 -673 167 0
693 -499 -828 0
-23 -219 981 0
53 -168 874 0
-507 -974 -637 0
-12 -389 409 0
-390 473 353 0
451 -627 882 0
230 741 814 0
721 -179 243 0
26 -886 -355 0
-332 823 -19 0
198 479 605 0
223 -534 965 0
-988 -182 -337 0
523 -465 861 0
562 -478 -221 0
137 -630 872 0
796 348 -352 0
588 -89 -463 0
-343 456 660 0
-106 237 449 0
441 700 358 0
501 -680 -222 0
-978 215 -372 0
-536 445 771 0
739 28 186 0
-346 498 584 0
638 -154 -558 0
-645 -258 215 0
-397 -656 -9 0
736 -205 630 0
596 171 991 0
-301 -538 149 0
633 -129 -520 0
-352 -617 -22 0
284 -536 113 0
-112 32 652 0
646 900 979 0
-212 -839 -96 0
891 827 -181 0
-55 787 354 0
920 -988 860 0
732 329 -773 0
-276 964 634 0
579 -324 -97 0
-319 -444 -490 0
972 797 -417 0
-815 328 530 0
167 -434 481 0
-650 701 963 0
-265 -754 -797 0
802 485 417 0
-40 -934 -10 0
-772 -918 -90 0
-706 114 844 0
-132 -225 741 0
-372 -171 -917 0
237 640 805 0
-926 -608 628 0
367 923 146 0
341 731 -730 0
-379 -638 782 0
-754 -330 -653 0
168 970 -72 0
492 -444 645 0
108 904 544 0
548 -265 536 0
454 -770 637 0
523 65 -280 0
-949 108 -192 0
57 989 570 0
842 439 19 0
711 738 -198 0
-537 -759 658 0
566 919 -783 0
-770 -225 8 0
336 696 -993 0
-340 -986 -215 0
837 -225 650 0
-749 -250 521 0
-560 240 660 0
-168 -720 -315 0
503 -508 174 0
-121 -341 548 0
283 490 -234 0
392 -697 836 0
668 263 911 0
-66 -387 -856 0
-771 -188 647 0
967 594 687 0
240 -733 -200 0
-1 -330 380 0
131 989 -230 0
847 594 -455 0
31 -222 111 0
811 829 -493 0
-852 961 -514 0
-275 304 -404 0
-841 912 223 0
604 316 269 0
-501 -599 -596 0
567 744 -95 0
359 198 -436 0
-485 -990 -192 0
922 -625 -810 0
-574 386 737 0
554 15 862 0
946 -731 -826 0
846 282 435 0
84 -412 50 0
-990 -188 620 0
-345 753 -542 0
-718 158 519 0
172 -230 -120 0
-186 -223 808 0
-539 195 -758 0
-630 371 704 0
987 830 -528 0
911 -399 233 0
-691 -997 950 0
-894 142 -111 0
-839 849 207 0
227 293 -163 0
-210 512 -740 0
-15 259 653 0
570 705 772 0
-843 562 416 0
736 579 170 0
-377 235 -42 0
-128 -868 -13 0
172 -893 388 0
219 927 -529 0
473 199 715 0
898 -938 -956 0
736 277 -752 0
-63 -433 -708 0
397 744 -481 0
719 325 -700 0
100 -940 555 0
454 -809 664 0
675 992 -208 0
583 254 715 0
612 994 -858 0
959 204 57 0
-644 484 141 0
464 -617 -952 0
650 -480 696 0
504 -640 -962 0
342 478 -26 0
-856 -578 -991 0
-296 -453 981 0
-209 857 -651 0
-23 979 921 0
-82 -382 -889 0
-838 -384 994 0
-669 -488 534 0
-619 -314 -346 0
122 502 -413 0
-731 565 -255 0
44 -338 156 0
-202 496 746 0
956 109 502 0
-192 770 109 0
-635 85 -288 0
698 -53 495 0
235 -933 -596 0
295 -186 332 0
-159 -54 -847 0
457 696 -207 0
5 -846 830 0
534 -767 -813 0
-982 648 -675 0
241 -207 232 0
-532 -353 -276 0
701 -70 247 0
-749 -990 914 0
199 -366 409 0
449 712 -952 0
-43 105 -707 0
138 596 324 0
-914 635 909 0
519 -667 526 0
616 -746 -748 0
58 592 -545 0
411 -771 345 0
-717 -259 221 0
81 -979 -863 0
166 26 -385 0
-832 68 497 0
-412 -128 -427 0
229 969 510 0
379 524 618 0
543 258 956 0
979 -114 237 0
989 -364 509 0
-704 -754 -308 0
-605 -448 980 0
-922 620 -295 0
383 -647 645 0
-663 548 674 0
-518 851 -24 0
-161 419 -410 0
-969 -262 786 0
527 834 -456 0
-635 -14 40 0
430 -208 -812 0
-245 249 302 0
924 -628 -650 0
624 -734 -204 0
-671 452 736 0
-767 -386 -833 0
342 968 491 0
-130 826 -750 0
-388 422 -856 0
170 -585 -571 0
-20 -36 82 0
137 778 686 0
-785 -751 -364 0
-194 140 -58 0
535 623 -818 0
465 62 -414 0
612 -19 -980 0
-468 -544 -188 0
240 -473 -3 0
-116 -282 -813 0
-459 -975 -228 0
119 -117 -187 0
-257 299 702 0
810 827 593 0
-54 968 -404 0
525 -535 549 0
83 -758 -322 0
-690 -541 189 0
44 18 -961 0
444 79 287 0
278 295 818 0
170 -210 739 0
-739 823 690 0
328 961 -101 0
-25 -837 -840 0
-392 -14 -381 0
335 883 -129 0
-997 140 -557 0
169 -558 770 0
514 798 467 0
-197 -15 473 0
107 -20 743 0
64 -579 882 0
-250 136 608 0
-856 -443 -307 0
-237 798 879 0
597 251 802 0
137 703 -46 0
-618 908 841 0
-267 478 385 0
899 -399 -847 0
927 814 -774 0
738 -992 -843 0
373 184 -676 0
-802 -636 192 0
999 -347 509 0
382 -62 712 0
-497 -654 275 0
-548 447 -535 0
-56 692 -23 0
-824 435 279 0
85 -840 335 0
30 -800 -564 0
952 -155 -265 0
-112 -695 223 0
-58 672 591 0
-973 70 -522 0
865 -614 676 0
-181 613 15 0
-299 -647 729 0
-239 749 287 0
233 -250 186 0
535 -279 14 0
-105 807 -616 0
-762 35 -880 0
-779 -1 -329 0
505 -376 600 0
-514 40 574 0
-310 -213 445 0
179 -194 -694 0
548 -988 899 0
444 191 -750 0
637 420 -212 0
-234 694 -987 0
-955 -85 441 0
624 399 -919 0
752 923 -36 0
69 560 -286 0
-742 753 820 0
345 456 -510 0
863 -613 -288 0
401 -336 -562 0
-565 -740 -97 0
849 -609 853 0
192 738 -71 0
-529 -689 -764 0
368 -486 -615 0
821 -139 330 0
-793 -890 -143 0
330 488 -73 0
954 485 38 0
-833 650 877 0
-543 -897 -538 0
126 -669 569 0
603 600 -684 0
-398 -730 987 0
-729 92 683 0
777 946 345 0
-354 -676 98 0
-677 381 -102 0
450 209 211 0
-208 -578 -146 0
-433 -874 -568 0
-72 -246 -492 0
116 600 530 0
552 171 697 0
873 -999 -708 0
-519 -718 -985 0
-868 -497 851 0
621 679 90 0
247 941 -85 0
569 -687 190 0
-210 982 -553 0
-574 92 340 0
705 467 -855 0
903 647 -658 0
-729 -309 -407 0
451 -826 664 0
-558 -802 218 0
512 -715 711 0
382 756 -898 0
708 869 -768 0
-954 -31 -551 0
-800 749 -816 0
-872 -442 763 0
-879 -45 -21 0
918 -138 -650 0
-430 512 407 0
291 -708 69 0
452 -672 313 0
-519 478 -43 0
618 75 549 0
-373 -964 734 0
-681 273 -548 0
319 -706 5 0
-226 -302 -457 0
74 299 -269 0
64 471 725 0
-277 -134 -334 0
-793 -679 625 0
781 -839 990 0
36 631 829 0
-408 -594 -28 0
-982 -93 352 0
508 -768 602 0
-670 73 753 0
-751 -280 -766 0
-156 -328 -124 0
969 163 -168 0
-594 -422 -562 0
421 881 715 0
-400 -48 782 0
145 -560 -820 0
-445 -807 -761 0
-836 -336 253 0
258 975 -356 0
-456 115 378 0
952 996 283 0
736 75 619 0
-12 -704 -236 0
-847 -209 43 0
116 302 171 0
200 -405 -778 0
827 -173 247 0
-731 72 754 0
-490 584 831 0
-591 -457 849 0
-261 -865 -751 0
929 -628 -697 0
-477 559 -209 0
-597 -861 -390 0
-12 -878 533 0
290 250 -134 0
545 -781 -585 0
-284 591 750 0
-929 211 -237 0
200 -266 917 0
-852 -948 961 0
-689 337 -650 0
296 -202 22 0
-1 -453 441 0
265 224 775 0
536 -447 -340 0
633 659 311 0
960 170 -435 0
-208 -768 784 0
659 479 -881 0
348 -394 315 0
-255 -384 -44 0
-305 -101 -903 0
-310 -497 -798 0
-98 -781 354 0
264 -274 971 0
-814 -58 -417 0
-33 251 369 0
-472 943 766 0
-652 -514 887 0
-906 729 422 0
672 -279 603 0
-38 -109 -593 0
38 559 454 0
661 -472 554 0
-443 521 346 0
21 384 -131 0
535 107 -203 0
-121 -460 -3 0
809 -181 -412 0
213 -894 905 0
-230 -852 926 0
-680 717 -576 0
-356 -953 -432 0
-520 123 -833 0
488 256 -137 0
543 -384 -691 0
-580 -360 -113 0
-567 406 -458 0
-785 224 245 0
-245 -752 207 0
-180 201 625 0
943 359 884 0
415 260 -112 0
-188 133 -733 0
-998 -776 557 0
733 -747 -737 0
12 -676 -296 0
-729 919 -994 0
-828 -556 153 0
-126 -58 -212 0
-358 709 113 0
-634 467 -140 0
452 -168 -245 0
245 684 113 0
-135 292 -785 0
-525 -36 753 0
-750 -858 -852 0
-827 -140 970 0
-686 158 633 0
1 -673 -607 0
942 -417 797 0
-137 -934 86 0
615 88 -835 0
28 747 -700 0
13 -457 -547 0
385 213 -302 0
453 646 -767 0
736 -855 706 0
-774 202 21 0
699 505 888 0
-913 455 -497 0
-544 -438 334 0
77 61 911 0
-694 219 994 0
405 373 35 0
108 30 605 0
-862 996 575 0
-754 914 601 0
-299 -888 -682 0
61 30 -433 0
31 -496 -490 0
-767 -363 467 0
-898 -338 173 0
-724 385 817 0
519 55 241 0
764 649 201 0
798 860 703 0
953 224 -651 0
-666 -462 -400 0
484 339 -448 0
-708 124 156 0
-167 -745 -785 0
-314 273 581 0
-283 699 779 0
-13 981 -339 0
280 -148 51 0
297 -478 493 0
287 -665 699 0
-841 -146 -86 0
-442 -25 162 0
-950 -277 -827 0
191 294 -74 0
-95 -251 715 0
-26 690 527 0
474 492 670 0
235 -499 784 0
-366 732 169 0
-112 872 -484 0
398 -578 786 0
-209 -192 720 0
60 -338 -201 0
165 307 119 0
-658 -264 -815 0
-670 -455 -501 0
-644 292 279 0
114 478 -882 0
-501 -269 -797 0
-965 489 -272 0
-131 -108 -415 0
-495 519 71 0
812 -471 476 0
903 -480 -637 0
127 -625 -620 0
-864 773 -267 0
-453 273 -580 0
-780 -397 -594 0
730 -53 -535 0
593 -921 219 0
-412 -946 -232 0
-170 -387 -49 0
-541 -864 -461 0
-483 719 190 0
-621 -4 1 0
-745 -480 -196 0
678 498 -886 0
-74 -593 -295 0
427 -904 -130 0
868 -817 -799 0
-562 795 490 0
759 302 75 0
773 112 316 0
912 -713 -360 0
-21 430 -231 0
-999 -269 82 0
-282 -79 432 0
-986 -665 818 0
-519 447 -19 0
277 493 330 0
-796 364 -91 0
152 653 783 0
-875 -21 -498 0
-645 750 -172 0
-67 569 -16 0
-622 -986 -524 0
-404 -744 562 0
86 120 -634 0
-322 -619 104 0
-262 239 377 0
-306 931 -390 0
-17 292 -256 0
-741 433 234 0
-194 -526 967 0
-548 -438 -141 0
-699 -730 402 0
331 -906 -902 0
55 -373 72 0
-313 260 -605 0
-894 -922 767 0
-168 211 86 0
159 398 567 0
341 -732 947 0
746 657 78 0
-867 565 -605 0
-367 752 -414 0
-148 823 -771 0
-681 -447 -778 0
610 313 485 0
-860 -376 -58 0
-216 677 -269 0
174 -229 -609 0
289 964 -729 0
-142 727 -820 0
214 431 -733 0
-998 -576 -731 0
807 650 343 0
538 462 -317 0
741 -378 970 0
-690 668 -102 0
-37 -256 -402 0
-610 199 802 0
-692 693 -76 0
-360 -334 27 0
534 -265 866 0
891 -314 -882 0
161 -322 876 0
569 -544 -44 0
-965 148 24 0
559 780 97 0
432 814 -226 0
338 502 95 0
636 25 934 0
909 307 -139 0
-242 974 640 0
410 208 -232 0
-5 372 953 0
-11 976 -796 0
623 -840 -521 0
791 -499 -636 0
-143 -574 -991 0
195 -308 -248 0
196 -902 -646 0
41 -462 261 0
-632 480 164 0
-235 -49 -213 0
-668 570 565 0
976 250 948 0
-247 -843 886 0
480 885 317 0
-305 261 231 0
-472 713 -749 0
-339 914 951 0
-479 -487 -488 0
-504 660 879 0
-919 -315 -840 0
-593 -509 -301 0
-416 124 -284 0
-535 829 -705 0
842 -346 -383 0
673 385 -51 0
674 347 460 0
923 387 277 0
52 869 -427 0
2 -332 729 0
491 -501 937 0
-637 -771 -449 0
-201 963 -430 0
-696 998 559 0
-733 -529 -137 0
-194 30 -175 0
-978 216 71 0
359 694 296 0
-790 506 210 0
10 219 8 0
-104 -379 488 0
-83 -294 -6 0
-392 -281 554 0
-390 -570 -687 0
-134 -580 553 0
-706 169 909 0
69 684 253 0
-260 -794 730 0
-313 -330 -296 0
972 -834 933 0
-402 982 -36 0
-791 599 -293 0
312 701 -607 0
262 606 -76 0
187 225 912 0
850 583 -659 0
-956 -491 896 0
946 -526 -540 0
516 30 238 0
-946 -409 919 0
816 966 95 0
-622 -141 793 0
369 450 -117 0
797 102 20 0
-717 -952 677 0
-949 848 397 0
640 -622 385 0
-299 -804 224 0
1000 196 -641 0
-929 716 -846 0
-484 -130 28 0
-345 164 284 0
529 177 -555 0
-276 -813 393 0
641 -38 -751 0
-532 -519 810 0
712 339 -815 0
314 573 316 0
-966 -548 -609 0
-595 -702 533 0
648 15 906 0
-419 -923 -528 0
-379 -296 109 0
531 152 533 0
-871 674 64 0
67 -435 -204 0
930 204 -248 0
-18 720 196 0
848 -916 -654 0
287 110 187 0
-654 -122 989 0
-611 -314 728 0
922 -192 -682 0
759 -897 -880 0
343 -907 798 0
-186 -672 -608 0
-374 26 -194 0
-194 370 275 0
-283 -580 986 0
94 -647 -963 0
-284 991 -104 0
-858 -896 88 0
608 918 -962 0
100 488 -48 0
432 559 -901 0
-261 -468 -243 0
898 -263 102 0
49 231 -737 0
-547 -60 -178 0
314 -296 -217 0
644 -284 929 0
-739 -824 -267 0
101 -311 -859 0
906 302 -366 0
985 774 345 0
-552 882 966 0
125 -276 -755 0
77 301 -137 0
429 165 -985 0
51 638 225 0
-247 652 238 0
-993 676 -119 0
332 24 -543 0
-763 -14 8 0
-20 552 809 0
522 -154 -458 0
695 442 -166 0
-860 -837 -779 0
-352 -927 506 0
213 679 -622 0
-689 799 615 0
-768 776 539 0
-481 -39 502 0
767 446 -538 0
276 355 -462 0
-647 -181 683 0
-704 595 111 0
182 615 893 0
130 -202 -554 0
505 681 -584 0
-858 627 184 0
300 -487 -804 0
504 -173 978 0
342 262 -487 0
751 622 700 0
592 937 -112 0
-329 401 -852 0
468 -48 69 0
-787 -506 -381 0
42 544 111 0
302 206 -660 0
492 750 767 0
628 -906 443 0
612 971 -275 0
-503 -570 225 0
-16 360 863 0
-609 399 69 0
-955 -945 -586 0
927 -877 -215 0
455 713 643 0
-169 730 -421 0
-369 -852 -129 0
476 866 788 0
13 -985 -659 0
-700 429 80 0
-498 638 85 0
-171 754 942 0
-967 597 -600 0
-935 -798 124 0
-21 -678 391 0
-229 -114 275 0
-666 334 -409 0
416 289 292 0
-482 402 -551 0
892 -132 -311 0
7 249 582 0
775 546 -383 0
510 860 261 0
-408 351 -79 0
-385 690 -24 0
-785 -524 359 0
-272 -880 -610 0
-329 532 -257 0
-209 -237 766 0
380 -69 -257 0
-31 -165 394 0
696 614 -152 0
175 823 68 0
498 -293 521 0
-230 618 -939 0
133 -835 413 0
-376 -127 -537 0
234 90 308 0
-349 -93 279 0
978 -872 -51 0
539 156 23 0
-134 -444 -476 0
311 607 24 0
277 590 97 0
644 275 -336 0
-598 -726 359 0
842 -530 -511 0
319 -736 -503 0
-348 -491 -367 0
-509 184 768 0
899 -809 -545 0
-117 856 -985 0
-832 170 -662 0
-139 -867 -145 0
-310 -684 60 0
-349 645 336 0
546 501 -333 0
202 -615 -439 0
-831 -969 857 0
-247 -45 -362 0
-93 -45 272 0
162 -268 -878 0
784 -266 -569 0
-768 510 543 0
-732 854 910 0
920 165 -949 0
440 725 -233 0
-823 -468 662 0
-62 -127 49 0
-275 984 -410 0
-325 949 432 0
490 -82 301 0
86 -593 39 0
451 -71 665 0
-949 667 -981 0
170 -644 263 0
404 -19 -573 0
-648 -98 -945 0
-13 -249 -486 0
459 456 -592 0
659 -704 109 0
-261 940 -879 0
606 389 -731 0
-889 -150 584 0
761 -730 203 0
753 141 -271 0
-918 -981 -126 0
427 827 -472 0
552 -489 690 0
163 677 -818 0
-825 336 -739 0
-918 731 -304 0
424 -922 299 0
-967 729 -845 0
95 -703 633 0
709 584 -629 0
-767 -394 -842 0
-125 -238 980 0
-843 931 556 0
326 -102 758 0
240 -176 -854 0
297 -958 729 0
877 939 -639 0
-379 -643 -753 0
-437 -359 -735 0
391 -100 687 0
-512 667 650 0
363 -723 -619 0
338 11 -511 0
901 -994 -327 0
390 -819 -151 0
-963 -964 399 0
932 150 894 0
639 68 456 0
-896 725 40 0
-141 -649 -41 0
-31 -64 -512 0
-397 425 -192 0
-4 317 -463 0
947 -367 56 0
-988 -584 -463 0
295 -294 111 0
-255 -580 -817 0
491 258 268 0
763 17 -846 0
-919 825 548 0
-525 -153 -352 0
-48 180 42 0
845 -747 839 0
654 -819 -547 0
-843 608 -545 0
-82 -808 -624 0
710 539 213 0
21 409 -418 0
365 -789 699 0
-279 186 -119 0
767 439 -807 0
235 -193 42 0
308 -462 -969 0
-309 825 -404 0
-900 -581 -542 0
-252 -524 -132 0
-802 682 -497 0
713 422 425 0
869 138 -61 0
59 -825 419 0
-648 -678 782 0
-247 -482 299 0
-573 -359 -424 0
-708 694 64 0
-563 -981 -50 0
-832 -800 -826 0
-697 136 73 0
-680 -199 -824 0
668 -733 -809 0
-315 -187 -953 0
698 969 92 0
-716 163 -96 0
527 -635 408 0
-991 692 489 0
526 974 -446 0
843 -634 -737 0
340 462 -742 0
29 333 -527 0
136 -356 -243 0
812 611 -284 0
896 -566 -461 0
262 833 -644 0
-907 81 -841 0
212 -869 351 0
-112 400 -419 0
-991 -425 19 0
354 258 -950 0
-281 -101 891 0
918 565 -117 0
-25 521 607 0
-653 222 147 0
482 -424 515 0
832 598 -476 0
-234 -136 601 0
928 -537 -116 0
694 761 -199 0
-491 -45 249 0
-584 857 -202 0
446 811 -592 0
513 705 225 0
830 -300 -276 0
-332 560 -846 0
421 96 428 0
-647 -930 -171 0
651 -554 291 0
-914 -24 657 0
852 -330 602 0
728 835 -484 0
806 109 187 0
-552 -420 520 0
-196 -471 -969 0
102 -877 518 0
5 310 -592 0
-596 -837 -591 0
-363 -334 559 0
-297 996 808 0
116 -568 -269 0
-119 -980 593 0
-419 656 -995 0
-186 390 295 0
990 -772 -666 0
-676 569 164 0
843 835 740 0
546 -210 361 0
28 448 -943 0
-430 592 -118 0
692 -820 -69 0
-120 -381 994 0
-819 -773 -3 0
553 -679 -338 0
-57 -246 525 0
-229 -379 794 0
-590 -86 -965 0
-393 659 937 0
604 944 -288 0
6 -976 -285 0
248 179 -803 0
386 -183 -28 0
872 179 -408 0
2 482 -798 0
608 869 445 0
-463 989 -698 0
-781 -300 369 0
-123 61 -128 0
1 396 -898 0
-356 596 -96 0
-25 607 58 0
-242 69 -383 0
965 281 386 0
301 -93 -389 0
192 688 544 0
575 -112 281 0
-393 762 285 0
820 186 647 0
410 -121 -494 0
-940 179 183 0
-239 244 -90 0
-799 480 -367 0
-887 816 -910 0
-665 -693 -22 0
746 -901 -165 0
27 844 -81 0
633 106 -415 0
-17 751 -87 0
-869 -212 62 0
743 -527 113 0
-488 58 353 0
-391 -171 -207 0
-34 -128 969 0
970 19 -619 0
-384 238 598 0
-731 -640 739 0
-622 830 135 0
528 938 -439 0
190 768 -544 0
92 -36 -9 0
567 -728 -835 0
-343 650 -959 0
-613 -470 500 0
-819 435 333 0
333 -740 644 0
-279 -8 -379 0
-944 -72 -241 0
866 -923 354 0
-51 596 240 0
-118 -301 943 0
-33 703 -585 0
164 -574 -756 0
-769 179 980 0
121 80 837 0
-18 -83 322 0
-226 600 -547 0
981 -596 -368 0
657 -578 -213 0
256 -946 594 0
-153 101 577 0
460 -410 281 0
-365 -781 -44 0
410 -513 -241 0
529 -966 -284 0
-241 633 266 0
-977 -147 191 0
-921 -408 -359 0
198 158 -985 0
-441 380 364 0
14 788 835 0
988 -218 9 0
261 70 -230 0
-999 -81 -9 0
-839 -386 38 0
702 382 284 0
158 -61 374 0
-95 -836 -786 0
708 946 -111 0
-116 -938 568 0
162 99 -145 0
182 -137 -147 0
-192 -297 -647 0
763 942 992 0
-925 -244 -568 0
797 674 -105 0
612 456 637 0
601 511 633 0
328 -151 -968 0
-190 518 166 0
-564 532 -979 0
-110 -926 107 0
-709 -491 454 0
564 991 -445 0
-692 447 -210 0
-862 136 670 0
293 -68 566 0
-251 294 244 0
63 748 457 0
684 472 81 0
760 -387 778 0
430 535 38 0
-369 -366 -544 0
-62 -343 -426 0
891 -345 958 0
685 -759 405 0
-555 -950 847 0
726 -795 -775 0
430 550 -51 0
-67 327 -213 0
-704 -47 -182 0
-832 -579 -522 0
976 297 600 0
-701 720 656 0
-690 -597 -326 0
-152 624 -759 0
49 891 252 0
-60 -281 -365 0
-205 386 -96 0
-261 -542 -354 0
-309 -559 750 0
821 -145 -488 0
-405 810 552 0
-782 319 863 0
-418 681 116 0
656 353 192 0
-704 71 -632 0
771 706 783 0
-232 -233 -362 0
-953 135 -148 0
77 -450 -895 0
292 -359 778 0
648 795 505 0
137 195 -38 0
-723 70 491 0
677 -2 534 0
-378 -911 -764 0
405 -650 -250 0
36 -537 360 0
-677 293 -529 0
-581 -287 -493 0
75 -792 725 0
-946 640 -516 0
895 439 -388 0
-629 912 -577 0
673 -750 -39 0
-572 -830 -897 0
-549 786 815 0
107 -433 -895 0
-698 150 -995 0
-487 598 459 0
553 -317 681 0
967 221 -680 0
3 145 160 0
34 916 -488 0
228 486 205 0
569 -845 527 0
-659 852 -243 0
-608 -71 273 0
813 218 -739 0
33 454 520 0
713 556 -421 0
499 496 -241 0
-708 852 -283 0
79 976 -528 0
877 220 -723 0
-879 -714 -834 0
-807 58 474 0
772 -731 -13 0
-267 -123 55 0
291 -673 -554 0
190 -48 267 0
-634 -764 -182 0
377 -143 848 0
136 -73 282 0
494 -133 -294 0
-183 -259 -203 0
-327 604 -2 0
-256 -779 -266 0
884 356 919 0
658 469 248 0
301 167 -613 0
727 666 630 0
906 -612 444 0
-640 846 -313 0
-730 746 789 0
-939 -392 -805 0
698 -425 799 0
-788 42 -521 0
38 -152 816 0
644 377 -161 0
-225 480 733 0
150 -521 -259 0
-398 -363 -689 0
668 -994 252 0
-662 -969 -226 0
-716 -502 182 0
-638 494 547 0
-911 62 -964 0
-121 16 257 0
117 30 454 0
39 878 439 0
176 -208 320 0
-626 947 -831 0
283 892 -241 0
488 515 -389 0
132 378 364 0
6 693 50 0
182 -441 -795 0
927 489 734 0
227 -93 -349 0
-38 -935 -182 0
-299 502 -309 0
945 -454 419 0
319 -31 -503 0
-530 -37 -773 0
-266 -653 -154 0
583 313 -400 0
534 681 928 0
306 700 530 0
-451 591 989 0
-126 -561 120 0
316 -783 -676 0
861 -318 195 0
661 567 49 0
-429 -119 -848 0
-204 -271 574 0
823 -152 363 0
-544 -983 242 0
-554 463 -751 0
386 112 -984 0
-288 -854 -549 0
-122 -161 -905 0
-568 418 -796 0
539 182 159 0
36 750 -413 0
-874 562 516 0
-807 820 199 0
-884 772 -135 0
693 939 928 0
947 -132 199 0
-358 929 824 0
981 -694 -612 0
84 424 -431 0
828 109 -604 0
143 665 844 0
-591 -361 819 0
37 868 -639 0
921 984 -887 0
-231 810 -258 0
-12 -387 693 0
260 637 -448 0
943 765 539 0
791 22 -235 0
-110 -123 -720 0
194 895 463 0
995 -897 -791 0
-699 157 600 0
384 -367 -21 0
-156 878 478 0
-84 -313 -93 0
-711 -876 -890 0
-851 -629 456 0
830 568 150 0
255 -128 208 0
-265 -567 -18 0
-417 36 469 0
883 -984 16 0
390 -192 -605 0
-146 201 -42 0
-982 -983 193 0
350 -118 -396 0
67 615 188 0
163 -903 -949 0
-190 627 989 0
-763 246 -497 0
-477 -857 -269 0
280 -385 -557 0
-436 368 132 0
962 -70 789 0
-689 659 158 0
312 631 601 0
714 351 -616 0
-42 208 664 0
-933 -756 36 0
-460 561 11 0
631 -934 812 0
-177 -788 -959 0
429 -651 687 0
-492 578 -37 0
918 -724 704 0
-831 -907 552 0
-76 -402 904 0
980 -971 -82 0
-919 -604 -678 0
318 -208 44 0
422 751 161 0
-303 666 317 0
701 458 464 0
-140 -584 -400 0
994 -680 871 0
280 -751 -43 0
313 798 -242 0
-292 -23 -628 0
772 -920 -535 0
273 -395 -470 0
815 543 -910 0
-255 825 631 0
-80 -896 -905 0
486 -10 -326 0
784 494 -454 0
-856 -602 -552 0
707 74 -529 0
556 -615 -353 0
-531 705 14 0
-411 445 921 0
571 43 394 0
-313 -101 620 0
556 648 -956 0
115 635 661 0
784 238 639 0
-789 787 505 0
-249 -678 553 0
480 -703 -597 0
-273 -868 476 0
170 555 -109 0
17 537 759 0
713 -88 -567 0
-597 695 -904 0
-173 -209 741 0
422 916 -801 0
-462 -755 -377 0
-645 187 -29 0
-60 -478 -290 0
298 -281 13 0
728 968 600 0
856 -581 431 0
-245 308 507 0
-345 -784 859 0
615 828 78 0
94 716 -571 0
825 -58 470 0
-553 -136 935 0
669 244 454 0
579 142 11 0
627 -256 -525 0
691 732 629 0
-599 829 486 0
-584 -693 958 0
-819 775 963 0
-513 948 425 0
913 636 406 0
-533 742 -650 0
-874 -173 856 0
-921 442 -414 0
74 -248 -742 0
418 52 291 0
683 -85 -222 0
-382 -459 793 0
163 777 416 0
-872 -445 192 0
-825 616 -414 0
545 -353 393 0
401 -37 794 0
-787 -311 547 0
231 -882 240 0
923 463 -502 0
-680 -571 736 0
-631 903 428 0
177 950 -458 0
-361 767 -730 0
-376 -668 -395 0
-91 -8 142 0
957 -40 -433 0
-362 96 -703 0
-311 -659 -288 0
-892 921 -43 0
779 -491 -992 0
955 915 -47 0
-979 -974 -535 0
513 585 -837 0
727 597 422 0
-745 -779 652 0
-991 -392 -652 0
797 103 591 0
-381 -411 580 0
962 276 580 0
200 676 -580 0
211 -644 -134 0
90 -474 -59 0
-496 945 -224 0
398 -584 -818 0
-72 431 -393 0
-473 -228 49 0
-772 -405 505 0
-55 521 -753 0
284 -320 -684 0
-465 982 685 0
386 -5 -134 0
-493 874 710 0
-452 -137 788 0
786 -320 -465 0
496 -542 121 0
-365 -815 -91 0
395 891 665 0
9 -752 856 0
578 -778 247 0
239 744 -124 0
909 -504 391 0
43 98 77 0
536 526 -743 0
-22 -152 -398 0
-141 797 -982 0
611 -321 679 0
-663 802 -108 0
-107 -258 587 0
-26 -758 -235 0
569 436 -263 0
521 -898 -791 0
805 -960 647 0
645 -638 240 0
-775 -944 -142 0
543 -991 26 0
779 -761 262 0
-820 -604 163 0
-442 606 316 0
945 137 -513 0
-974 719 107 0
-952 363 116 0
-843 -146 395 0
850 -388 -103 0
423 -101 -66 0
163 563 558 0
917 -158 -372 0
689 -977 876 0
82 203 -392 0
-186 -25 -167 0
-588 558 -463 0
295 936 -120 0
-18 -151 42 0
-298 754 833 0
-170 940 20 0
363 -905 -250 0
285 802 992 0
170 906 -644 0
915 -390 -173 0
-381 519 -279 0
-447 -687 184 0
779 481 -935 0
-142 -475 639 0
231 634 -660 0
642 712 721 0
409 959 255 0
-786 -188 783 0
741 -149 -178 0
-576 67 984 0
-621 -936 720 0
23 10 -355 0
-861 757 399 0
-893 -998 -187 0
569 550 -141 0
898 -197 -730 0
-455 436 120 0
-225 -70 24 0
726 685 55 0
586 563 -206 0
-379 137 854 0
324 810 463 0
-216 -392 -559 0
-765 -618 -430 0
19 -481 806 0
-255 -856 -850 0
-373 497 492 0
434 352 42 0
-627 978 -737 0
729 947 600 0
-934 -665 -870 0
-918 312 -844 0
-371 950 751 0
950 -102 88 0
118 -667 -940 0
563 -400 621 0
-493 588 463 0
69 -823 906 0
577 -206 -192 0
648 261 -955 0
125 918 -453 0
-618 -834 169 0
96 -670 55 0
769 -997 159 0
937 -232 -498 0
-850 -214 -782 0
372 -989 -806 0
-808 221 14 0
-647 -666 -432 0
543 520 36 0
305 -161 960 0
227 520 421 0
737 977 -361 0
274 409 -275 0
-824 354 -865 0
-906 191 87 0
398 -68 330 0
-986 -916 917 0
-300 866 -886 0
21 826 876 0
70 -971 762 0
-530 1000 590 0
-214 -742 -43 0
252 693 994 0
-433 144 -292 0
-646 -845 -48 0
325 635 944 0
423 729 -933 0
-521 602 -807 0
-678 -679 591 0
317 714 337 0
-727 -698 -806 0
388 894 329 0
242 338 88 0
-540 -76 120 0
957 255 337 0
-738 15 -167 0
-568 823 16 0
878 564 -687 0
393 170 260 0
-56 -275 184 0
725 683 503 0
-259 -617 983 0
-673 -298 -732 0
748 -927 -26 0
349 -117 -437 0
-714 777 498 0
-113 468 -631 0
-329 -446 439 0
-657 388 -996 0
-780 106 -442 0
694 902 -94 0
-321 -805 -162 0
-371 659 -783 0
589 -663 402 0
-782 -421 265 0
-703 -561 775 0
56 866 711 0
331 378 158 0
-631 739 -866 0
275 -482 -285 0
-943 -604 -469 0
-862 824 -783 0
90 415 537 0
-647 600 35 0
314 -358 -797 0
-427 -695 570 0
-799 991 171 0
526 -372 169 0
182 189 -810 0
-834 -877 167 0
855 -869 -924 0
-323 812 141 0
871 123 675 0
-76 -687 888 0
568 599 690 0
-407 983 -438 0
-633 -169 292 0
-469 816 859 0
511 -798 -979 0
660 312 914 0
-911 615 -861 0
235 844 105 0
562 -380 146 0
379 107 -162 0
964 -27 -191 0
-739 194 -677 0
-953 319 6 0
-690 795 -119 0
298 143 278 0
229 609 -527 0
579 397 -573 0
182 -61 914 0
-650 -823 -730 0
-527 845 -638 0
-549 601 -356 0
179 168 -89 0
345 478 -584 0
-11 -281 -899 0
-977 -714 -186 0
764 846 -734 0
184 936 559 0
361 -48 988 0
687 -383 -67 0
-812 -502 -510 0
-64 -306 -675 0
-618 579 -414 0
721 984 948 0
-215 -138 420 0
64 -187 -997 0
-999 -739 946 0
-706 -7 -984 0
176 -169 -119 0
979 -954 284 0
-482 -99 529 0
-295 -487 617 0
777 767 85 0
452 -926 -388 0
509 -806 387 0
880 -17 -171 0
-459 -858 -943 0
261 -711 -367 0
-158 688 398 0
-709 225 -103 0
-796 449 376 0
-427 -986 -85 0
-465 -895 422 0
-481 455 195 0
-562 -909 188 0
117 -589 916 0
-871 -678 938 0
-896 -670 -12 0
971 952 707 0
37 825 -322 0
894 128 720 0
42 337 110 0
-144 641 -483 0
-498 83 -169 0
339 626 270 0
-458 908 -528 0
557 801 -516 0
963 -772 -275 0
-101 227 -928 0
603 816 116 0
-23 590 29 0
-930 677 -793 0
-697 533 897 0
-930 -377 -948 0
180 -784 -679 0
264 -772 866 0
602 122 593 0
537 -564 507 0
439 587 215 0
-177 -849 278 0
-281 -216 330 0
