p cnf 500 2425
399 -159 -95 0
-374 -100 353 0
-172 -180 -382 0
-255 241 -159 0
224 -152 487 0
-482 -34 -404 0
127 -220 264 0
145 316 463 0
-319 -368 400 0
-473 -56 279 0
239 -489 -7 0
-498 -372 -190 0
-398 305 419 0
160 149 72 0
140 73 212 0
160 -246 -500 0
-282 355 466 0
-9 -319 -92 0
211 415 492 0
337 17 -244 0
-27 -308 -64 0
-80 257 105 0
-292 -384 97 0
-127 18 -477 0
226 -356 281 0
-308 200 418 0
-89 51 161 0
-328 -475 329 0
236 -82 -68 0
165 -76 269 0
208 278 376 0
-297 414 -401 0
135 118 73 0
130 -148 328 0
456 12 332 0
-92 -445 -318 0
-103 353 -18 0
247 -264 242 0
313 363 427 0
-48 -239 390 0
37 -459 -297 0
-131 -169 -117 0
340 -30 485 0
127 59 160 0
-336 -47 -39 0
-434 26 295 0
276 93 -137 0
462 76 -41 0
301 -397 -358 0
-352 -401 33 0
330 88 276 0
208 400 409 0
-326 151 -332 0
176 -48 380 0
415 -207 263 0
36 187 72 0
315 -495 334 0
474 194 -71 0
-124 -411 -98 0
4 82 253 0
315 -412 -139 0
-116 -401 92 0
-327 365 469 0
210 -223 -32 0
-53 294 -100 0
222 -385 172 0
-302 -328 -185 0
478 -325 -76 0
-198 1 334 0
-370 27 317 0
158 -96 340 0
97 -262 267 0
422 -255 -265 0
-482 225 -74 0
419 -251 -246 0
9 109 -47 0
-199 184 -60 0
432 -297 -157 0
221 -418 127 0
-429 27 -130 0
271 -153 -103 0
-425 -385 271 0
7 347 249 0
447 44 231 0
362 397 -449 0
158 -243 -287 0
-398 367 258 0
417 -34 175 0
-218 -3 -234 0
-460 -294 -122 0
8 -330 444 0
78 157 -158 0
110 138 422 0
48 -183 -339 0
-495 21 210 0
-52 -165 75 0
-54 181 -170 0
9 12 -100 0
-275 257 -44 0
-280 -144 375 0
-69 393 -157 0
485 419 410 0
-206 -406 372 0
96 151 285 0
232 55 -24 0
447 15 -275 0
343 147 334 0
235 103 475 0
-62 88 193 0
-73 -256 190 0
181 215 314 0
377 367 -65 0
381 26 -11 0
-412 369 -351 0
4 354 280 0
-391 -424 -450 0
384 248 347 0
-1 -76 -423 0
130 -296 -60 0
465 -260 150 0
96 201 -302 0
174 3 64 0
-180 -122 -42 0
-132 118 250 0
271 172 -245 0
488 117 300 0
-40 28 -213 0
-4 -311 35 0
304 489 -80 0
331 325 195 0
-10 5 360 0
-108 -366 499 0
269 -331 241 0
-448 -398 35 0
-439 341 -399 0
304 -474 -230 0
393 60 -473 0
-226 124 -22 0
6 -32 -279 0
-236 -367 148 0
3 -281 -12 0
-69 -70 211 0
-282 -304 -376 0
280 156 -483 0
-167 -300 -443 0
236 481 -380 0
-435 283 -132 0
-154 126 -233 0
484 -378 355 0
477 17 35 0
-85 -356 11 0
-213 130 230 0
302 487 -259 0
-176 430 24 0
376 -218 352 0
-441 -216 296 0
-44 -292 274 0
41 -227 -197 0
129 -35 231 0
-248 345 -156 0
-426 -194 432 0
-389 -107 -62 0
-383 -280 188 0
-78 -72 23 0
-430 434 107 0
160 144 -270 0
-280 49 -258 0
-493 -402 -435 0
-17 -15 -126 0
-62 -208 29 0
-216 14 43 0
175 -498 357 0
469 -483 -110 0
-152 -302 219 0
-24 -248 324 0
-321 -153 -390 0
290 -11 -372 0
64 163 14 0
479 -143 436 0
-102 333 -452 0
355 264 56 0
-71 -73 -455 0
167 -279 -213 0
-24 121 -423 0
389 449 491 0
-50 -311 281 0
279 -488 191 0
37 214 -482 0
283 367 330 0
-146 359 -102 0
445 338 478 0
398 -396 477 0
191 406 228 0
185 -416 -132 0
-296 454 203 0
296 -290 -67 0
431 12 228 0
-202 -17 -431 0
-288 -131 184 0
-63 -130 -373 0
-96 485 326 0
-183 -232 324 0
-477 409 72 0
271 -298 50 0
-442 -408 118 0
-274 308 364 0
-237 -382 -479 0
354 368 162 0
-240 379 235 0
-22 257 -126 0
-210 -488 66 0
-33 -65 -394 0
-220 108 -428 0
314 283 -98 0
-92 498 -159 0
-77 -130 -174 0
-100 411 381 0
-379 -182 242 0
448 11 332 0
-124 -152 360 0
-325 -314 -227 0
489 485 -254 0
-406 -373 422 0
90 188 239 0
-453 385 362 0
-184 -317 251 0
52 85 435 0
-466 -214 -300 0
289 427 -22 0
67 265 336 0
176 143 369 0
484 -377 383 0
-282 -119 208 0
378 -55 500 0
459 -420 396 0
411 179 381 0
282 419 197 0
363 67 -456 0
41 450 -21 0
195 274 -64 0
-128 -213 -451 0
26 -53 461 0
64 391 -433 0
-31 387 -174 0
430 283 112 0
-129 373 -163 0
478 -402 -393 0
-107 -165 -28 0
-316 -390 117 0
316 112 -193 0
445 448 283 0
436 -474 2 0
244 -364 -265 0
310 -180 438 0
28 -93 411 0
-484 114 384 0
-254 -98 -411 0
282 372 -176 0
348 -324 51 0
-18 -115 -413 0
-325 -289 -302 0
-275 325 -18 0
-197 293 483 0
178 397 29 0
-141 216 484 0
192 -208 -154 0
453 42 73 0
-92 -240 198 0
345 -458 -262 0
-473 331 -488 0
205 -112 262 0
172 -96 -491 0
-211 154 156 0
-483 406 -479 0
-242 390 -35 0
-453 279 429 0
-278 -268 -98 0
-482 -14 313 0
-421 500 -142 0
142 251 301 0
-35 324 -105 0
425 -291 128 0
-80 223 -375 0
380 161 298 0
256 342 -163 0
486 -168 446 0
-440 -290 -292 0
-304 435 -162 0
-309 -209 344 0
-71 -360 333 0
284 420 -322 0
317 46 251 0
276 283 359 0
285 -179 111 0
29 -210 -260 0
230 221 444 0
-308 -13 125 0
-109 266 115 0
-175 261 -152 0
51 -310 -260 0
-314 479 420 0
-26 149 404 0
125 -480 -236 0
-308 17 177 0
-337 98 205 0
179 392 408 0
44 450 -491 0
-457 -487 -203 0
-174 -180 17 0
246 -137 -356 0
470 -471 -231 0
246 236 30 0
133 -136 336 0
409 411 -131 0
201 3 -388 0
394 -159 -190 0
-28 -407 359 0
144 -491 -27 0
-433 -323 -176 0
318 -453 -28 0
-458 309 -378 0
86 -206 -472 0
-383 -187 285 0
132 -317 308 0
181 -34 -442 0
260 -206 350 0
32 -143 -105 0
335 111 411 0
-75 -253 -310 0
346 -418 48 0
416 378 147 0
-113 110 349 0
345 -356 273 0
282 -45 40 0
-379 -489 -24 0
93 -231 99 0
-404 356 408 0
480 214 -444 0
-329 370 6 0
189 -406 201 0
-70 47 -319 0
-270 14 215 0
-412 -294 -444 0
77 392 274 0
25 252 15 0
290 371 60 0
-337 -330 -358 0
-319 27 -35 0
21 -475 -203 0
-452 -117 -49 0
370 69 -329 0
322 378 66 0
10 -119 319 0
359 116 80 0
142 441 -87 0
304 -402 270 0
-304 270 450 0
491 143 -64 0
267 102 -307 0
-317 -346 100 0
21 -365 24 0
112 458 387 0
298 -330 172 0
-403 -448 350 0
478 -283 -23 0
334 155 315 0
-371 174 222 0
-446 -326 461 0
-412 -189 -428 0
-488 -368 -141 0
-50 87 -424 0
424 104 425 0
171 -12 -53 0
-49 -238 213 0
361 268 -437 0
-249 7 -72 0
417 364 -110 0
-319 453 213 0
-243 -364 -315 0
176 -108 403 0
443 46 123 0
1 -160 -277 0
-406 -460 -471 0
362 -14 -150 0
-111 320 192 0
-247 369 64 0
491 347 322 0
-297 108 -298 0
-348 -476 -264 0
408 195 139 0
-42 -435 479 0
230 -445 250 0
-205 258 -402 0
-458 171 -441 0
76 -265 396 0
-260 416 -24 0
241 -441 205 0
282 -347 -120 0
378 404 -7 0
-473 -405 -384 0
-204 -50 64 0
-262 130 -268 0
-125 -204 -141 0
-36 122 154 0
490 -457 36 0
-392 -362 325 0
319 -467 -77 0
394 -207 -287 0
-332 387 -33 0
327 152 -392 0
361 -334 -448 0
185 -132 -74 0
422 -340 -359 0
161 -378 -389 0
-164 -255 262 0
66 52 284 0
-277 -151 161 0
-238 410 140 0
-410 -139 -1 0
295 -135 402 0
-26 396 485 0
227 -52 -350 0
-136 92 -334 0
481 -311 -219 0
-210 267 406 0
-386 -124 315 0
-449 -476 -10 0
436 -489 -218 0
462 -154 -377 0
387 54 -288 0
-131 453 -426 0
-274 166 332 0
-99 -101 -344 0
353 -442 438 0
475 402 60 0
-7 -378 475 0
345 79 -416 0
347 61 -167 0
-343 -62 392 0
-456 -176 309 0
316 -240 152 0
37 -412 389 0
-132 107 451 0
-132 386 399 0
-118 404 -304 0
-119 175 163 0
153 -182 -482 0
59 498 209 0
-224 -324 9 0
-106 414 223 0
-343 -383 -232 0
-169 273 -143 0
-119 -279 137 0
286 -41 184 0
416 -330 309 0
-129 163 234 0
-326 307 451 0
-291 -75 -19 0
246 -334 -221 0
123 432 284 0
-306 -346 -109 0
-199 323 -343 0
-427 134 315 0
-327 220 14 0
424 -175 472 0
456 -404 368 0
176 -230 -115 0
280 -391 73 0
-432 -296 -431 0
-496 385 -391 0
-278 407 -165 0
-326 130 -167 0
469 -137 -466 0
54 -111 -97 0
-363 -322 -275 0
-381 -111 -218 0
-91 205 -247 0
436 91 -377 0
368 -327 233 0
326 -113 330 0
410 -320 471 0
132 -463 341 0
114 -164 -225 0
259 -208 143 0
-4 278 -121 0
-418 -126 77 0
-317 469 -376 0
281 -73 -120 0
245 342 -276 0
-324 -43 -462 0
198 -79 -195 0
-311 -64 -81 0
91 -371 -479 0
-436 4 -416 0
-359 -420 453 0
-10 -168 76 0
-394 195 398 0
53 -49 13 0
100 -269 492 0
238 448 -243 0
27 121 -336 0
58 -352 105 0
213 123 328 0
252 19 316 0
260 -102 -138 0
266 97 68 0
311 41 357 0
-93 -235 -232 0
-313 169 -303 0
-415 470 387 0
-119 491 2 0
-273 400 33 0
386 -76 -453 0
-4 -328 -372 0
240 439 -372 0
-467 244 -11 0
-396 201 -236 0
-454 -486 -40 0
-22 185 -175 0
-137 375 495 0
368 109 463 0
464 -129 148 0
330 41 -125 0
160 -442 -105 0
-491 384 -395 0
222 -18 -490 0
435 169 196 0
212 189 -390 0
360 129 -151 0
446 -480 -68 0
-84 466 287 0
85 -440 341 0
-113 304 50 0
141 354 -301 0
287 -473 364 0
72 -204 87 0
-128 -359 -427 0
-246 -113 -177 0
-444 142 4 0
35 -308 27 0
466 407 -77 0
-132 -166 377 0
257 -249 -198 0
-348 -224 -475 0
303 -143 -255 0
325 -79 399 0
-214 194 98 0
-129 327 394 0
454 -236 178 0
451 183 -318 0
425 220 -15 0
-42 11 -133 0
404 107 483 0
465 438 -62 0
439 -250 -471 0
-80 189 300 0
-338 310 -378 0
-209 75 113 0
-240 -81 283 0
-478 -334 324 0
-101 350 145 0
-97 81 307 0
-228 324 -37 0
-156 3 175 0
-287 -1 -50 0
-142 407 -418 0
295 -234 482 0
158 146 -301 0
-103 277 444 0
-349 -166 278 0
-108 -474 -481 0
-388 351 -362 0
-350 -38 -230 0
-216 -450 438 0
258 100 -158 0
337 172 -462 0
354 -277 159 0
211 217 332 0
-452 -449 -476 0
211 -422 154 0
-468 268 -354 0
-360 -472 -166 0
-479 -51 12 0
206 -371 -168 0
-406 491 248 0
-239 127 -243 0
-497 -458 260 0
52 330 130 0
-310 -197 95 0
337 245 -129 0
-113 -347 93 0
-15 -335 430 0
-154 -354 -349 0
415 -471 480 0
102 492 -197 0
10 -97 -323 0
225 -255 359 0
-13 -174 137 0
-62 363 284 0
361 2 -195 0
493 -156 181 0
-33 -206 443 0
438 364 -256 0
-147 -12 202 0
439 10 116 0
267 -471 431 0
-303 263 277 0
44 96 203 0
-355 -494 -198 0
-47 274 194 0
96 13 -383 0
-47 -445 -358 0
136 -395 361 0
341 -169 417 0
103 -192 -304 0
284 -202 26 0
-288 262 -90 0
481 -425 -219 0
443 237 434 0
-89 -120 37 0
-388 -292 361 0
-382 -150 -475 0
480 -485 -375 0
118 -47 -412 0
20 -25 407 0
-358 -77 295 0
178 477 139 0
216 -255 -64 0
39 -293 -14 0
29 -364 33 0
488 -469 -187 0
477 459 394 0
-490 23 -363 0
317 273 164 0
472 -24 -364 0
-191 485 27 0
-79 336 -238 0
-332 -475 -327 0
290 -170 -164 0
-354 -470 37 0
-321 53 -148 0
262 250 -399 0
113 2 194 0
-43 131 153 0
-298 42 -227 0
498 353 -414 0
305 302 92 0
312 -341 -110 0
-382 85 327 0
176 -231 366 0
-85 -498 -104 0
-243 488 260 0
108 -356 -222 0
-200 -212 -240 0
317 -139 340 0
250 -314 180 0
374 421 -461 0
-468 404 8 0
88 -287 -172 0
290 348 370 0
144 185 484 0
-408 -39 376 0
22 181 470 0
-253 427 -24 0
209 -447 204 0
-397 495 -347 0
358 213 35 0
-285 -239 -181 0
-162 266 -100 0
-192 29 264 0
-254 -261 -224 0
215 -454 -142 0
213 -62 441 0
387 -233 11 0
-417 117 290 0
-244 -353 41 0
403 113 121 0
-291 -1 -123 0
-407 -28 278 0
-410 -131 -269 0
255 458 166 0
76 -120 206 0
62 -145 359 0
408 125 221 0
180 -116 -308 0
166 -170 -417 0
431 -225 -358 0
-382 -371 -432 0
383 29 -317 0
181 279 -378 0
86 265 -106 0
-174 -459 427 0
497 357 -443 0
-288 158 -78 0
68 31 326 0
438 -50 61 0
-181 -450 -285 0
-262 -431 194 0
-85 -187 339 0
-399 -125 -116 0
247 9 -36 0
54 401 -329 0
-86 293 371 0
-485 51 -171 0
-300 -95 231 0
-169 26 224 0
390 309 -26 0
-162 39 -143 0
-371 -352 -312 0
76 -68 -484 0
-363 431 290 0
50 255 -192 0
-100 -322 -366 0
491 134 -316 0
-337 194 131 0
403 -450 -272 0
4 232 -441 0
124 302 366 0
-354 294 -46 0
-113 158 276 0
-72 369 -241 0
177 466 -163 0
-201 401 -67 0
355 -97 -186 0
-424 -191 231 0
-278 296 -249 0
-172 -447 -469 0
-88 81 -135 0
-54 28 -173 0
398 -173 -313 0
-142 395 266 0
360 -344 -291 0
-227 -180 172 0
198 -22 -410 0
-400 -190 -98 0
-213 -18 -30 0
-30 -118 85 0
408 -203 -290 0
-283 -277 253 0
-133 261 318 0
212 -131 455 0
-9 397 -292 0
-275 -243 470 0
-468 -28 71 0
312 412 -10 0
184 225 338 0
461 276 55 0
-385 -311 -455 0
-199 -119 54 0
457 -393 -315 0
-92 127 -51 0
-200 441 -88 0
128 -406 202 0
-377 -106 475 0
315 8 354 0
291 16 -2 0
-252 -369 -216 0
78 53 253 0
324 -307 -356 0
307 24 349 0
126 -476 260 0
211 -54 -416 0
-60 76 109 0
-82 -26 -212 0
-80 -419 144 0
383 -180 199 0
153 56 176 0
-8 -243 314 0
241 -403 355 0
45 -1 -210 0
-373 40 -95 0
-326 -311 484 0
494 -342 284 0
-196 121 -353 0
-377 -93 157 0
-174 95 232 0
-397 -318 237 0
-334 -68 -436 0
294 -187 311 0
173 383 -273 0
-454 29 261 0
267 416 133 0
393 49 492 0
-129 -364 349 0
19 259 93 0
270 -362 -77 0
-246 4 -143 0
-437 -390 421 0
58 -184 -273 0
449 97 -47 0
465 287 182 0
294 162 375 0
-277 21 -273 0
5 229 390 0
152 -446 279 0
58 48 -166 0
58 320 38 0
-298 466 199 0
120 -49 -361 0
-450 -124 -151 0
-249 197 -241 0
-205 181 -294 0
60 261 -302 0
420 144 -405 0
425 198 -359 0
75 -47 -167 0
-105 253 103 0
324 -224 424 0
-428 346 -125 0
359 30 -87 0
360 -229 -223 0
301 323 143 0
-141 477 189 0
-54 -249 415 0
245 -46 -472 0
-96 28 384 0
-20 442 -340 0
252 181 -241 0
236 438 396 0
-221 275 345 0
-9 -54 97 0
-70 193 -341 0
87 236 -408 0
200 155 248 0
-298 470 -350 0
-236 37 69 0
199 -316 257 0
-21 285 -435 0
-6 201 -473 0
-102 -64 279 0
-215 240 -439 0
-351 167 -90 0
490 -409 49 0
373 -55 181 0
467 423 -267 0
372 -267 -312 0
-336 -140 411 0
-87 -346 -303 0
181 460 -436 0
131 -256 205 0
-50 -154 -87 0
336 126 -168 0
420 293 -348 0
182 53 -139 0
-490 393 47 0
-253 247 -101 0
102 -270 118 0
230 160 -375 0
285 115 -162 0
185 23 -317 0
-190 418 -383 0
-176 213 285 0
-100 -471 381 0
-259 400 -338 0
477 130 472 0
-416 -216 -381 0
386 -344 75 0
-472 306 263 0
-467 412 74 0
88 489 128 0
-428 411 -4 0
-22 -439 161 0
-100 -103 67 0
300 -388 68 0
-264 -336 475 0
-494 -77 -317 0
445 -316 -272 0
-426 375 195 0
491 396 -259 0
-492 102 -432 0
-397 -427 287 0
-295 -44 398 0
-141 159 -311 0
238 -348 444 0
389 335 245 0
-295 -421 119 0
55 169 -208 0
-150 -320 321 0
-493 216 244 0
153 -189 -13 0
453 -45 153 0
-413 419 424 0
371 163 -53 0
467 44 -22 0
420 -479 -218 0
376 460 -14 0
399 205 432 0
-369 136 -205 0
385 -209 392 0
429 -57 133 0
363 489 310 0
-292 -468 111 0
-120 34 391 0
-338 420 374 0
-422 -160 -392 0
180 -382 -331 0
166 267 444 0
-472 -303 -446 0
-219 -29 92 0
-36 -187 -489 0
87 119 -376 0
343 -107 -255 0
145 264 -484 0
245 442 -325 0
-222 -136 39 0
-403 431 497 0
-150 -384 -169 0
323 -193 -447 0
454 220 -237 0
-369 -223 -457 0
393 -74 -38 0
314 -268 -235 0
359 452 -393 0
-385 436 -499 0
-350 -131 181 0
-114 -489 -158 0
-81 88 -16 0
283 202 320 0
4 55 -292 0
-24 -423 393 0
230 -298 169 0
-150 -346 -121 0
19 439 -208 0
-380 359 295 0
94 -110 -36 0
-9 -21 45 0
-12 280 -496 0
-91 -434 -89 0
281 -66 140 0
466 488 -180 0
197 432 -403 0
490 75 -155 0
202 491 464 0
35 49 51 0
-43 -352 128 0
-48 167 -208 0
147 240 467 0
160 -154 393 0
-268 -37 397 0
-364 -66 -429 0
298 355 -405 0
15 170 -75 0
40 -118 -147 0
277 111 -16 0
-156 -490 -462 0
476 -71 -218 0
329 1 436 0
-307 -177 -83 0
304 -328 -58 0
-111 80 297 0
-396 -58 43 0
288 82 -16 0
365 -285 -81 0
78 -252 132 0
237 104 -383 0
-13 -275 -329 0
-149 -115 -296 0
-420 115 187 0
-265 -142 -16 0
-4 -176 -138 0
-317 -389 272 0
244 -467 -168 0
61 -42 454 0
-483 500 -212 0
-330 -44 -124 0
386 -445 -151 0
106 -63 91 0
-317 335 -96 0
-66 441 -7 0
-281 -150 415 0
-442 249 330 0
-53 66 -314 0
-460 -70 7 0
-236 -52 234 0
-376 180 -231 0
-91 313 227 0
485 68 216 0
-452 465 -255 0
-306 -321 197 0
-138 -78 -363 0
494 82 -146 0
25 403 -175 0
-274 57 131 0
205 -494 -93 0
173 131 375 0
-331 316 -264 0
-16 267 -353 0
-267 -369 33 0
279 -497 -343 0
186 -13 -33 0
227 24 130 0
189 44 -498 0
282 -27 48 0
348 59 191 0
379 -162 -377 0
93 -133 -314 0
293 -344 430 0
426 111 -261 0
383 -237 -463 0
-381 349 251 0
-245 466 12 0
-427 -428 -174 0
-328 -464 260 0
25 -191 390 0
-497 -178 475 0
105 140 148 0
333 -161 -50 0
160 357 417 0
193 83 123 0
-202 150 463 0
125 -379 110 0
-376 -138 471 0
-495 384 -210 0
291 208 -482 0
294 -277 44 0
-171 118 236 0
-28 464 44 0
-92 -6 469 0
438 -301 258 0
-374 -444 -16 0
-33 -425 -114 0
-220 420 444 0
147 -237 -63 0
-170 -90 -314 0
102 -393 -216 0
-494 -457 -27 0
-482 107 -336 0
209 347 -408 0
-223 12 136 0
23 166 85 0
248 -235 -395 0
123 481 -330 0
-458 299 212 0
238 237 121 0
469 -60 148 0
-240 -426 -285 0
328 407 -227 0
482 -481 44 0
-228 -99 -96 0
-42 71 46 0
2 93 -405 0
339 395 345 0
-75 303 443 0
-5 -147 -246 0
-313 -40 -447 0
-464 -68 -385 0
424 -184 -321 0
388 11 195 0
-280 275 249 0
-242 455 477 0
-207 -322 24 0
-447 221 -104 0
-313 -361 130 0
-83 107 -247 0
327 87 -228 0
429 480 107 0
243 20 -252 0
201 151 446 0
-44 414 -427 0
-139 -175 -87 0
467 166 423 0
-23 342 -382 0
380 100 246 0
-316 -13 368 0
-371 403 -245 0
-59 -57 134 0
-306 -421 -200 0
310 -388 352 0
207 175 418 0
227 -171 51 0
-179 -384 180 0
403 -384 -245 0
-396 -477 414 0
64 -461 -417 0
385 321 197 0
-29 461 -373 0
176 431 -327 0
-449 180 6 0
-308 115 463 0
207 -40 362 0
366 -110 -214 0
451 350 -382 0
-244 245 449 0
-483 251 426 0
-210 -88 371 0
162 -73 328 0
83 -125 345 0
-46 -198 -122 0
-30 461 79 0
-203 -422 478 0
353 -223 -443 0
-349 100 -20 0
332 78 183 0
-45 223 252 0
48 -325 419 0
281 -58 -406 0
349 -71 353 0
425 -94 -270 0
233 382 -448 0
-166 -455 387 0
-498 -187 117 0
285 -240 -238 0
-182 323 -484 0
-239 -454 277 0
-471 499 306 0
-464 -112 304 0
61 231 450 0
52 34 -163 0
329 -21 33 0
52 117 -165 0
-299 -247 -345 0
-403 474 -204 0
47 85 232 0
-394 -211 159 0
101 140 65 0
83 -29 -239 0
389 454 360 0
-353 -196 250 0
-99 281 -483 0
85 443 -191 0
-402 -196 -375 0
398 -414 314 0
-140 381 414 0
-470 -208 -282 0
-219 234 -37 0
254 -167 481 0
-447 -177 -268 0
-294 290 61 0
-433 410 -489 0
-261 112 -169 0
83 -471 476 0
-41 213 -188 0
-419 -278 402 0
479 -413 -380 0
76 -431 214 0
2 294 -420 0
162 -105 315 0
247 -257 -8 0
450 299 55 0
412 434 95 0
-371 -359 63 0
-276 -103 235 0
5 -217 197 0
474 -416 100 0
446 375 48 0
376 -356 51 0
174 288 214 0
-291 471 219 0
200 69 406 0
-247 41 299 0
14 225 -47 0
-315 -299 -492 0
-276 52 500 0
-412 -498 -224 0
179 -450 238 0
62 419 -240 0
79 -356 -374 0
-5 243 -454 0
-117 162 342 0
-25 -177 -476 0
119 -298 146 0
-456 257 401 0
489 -441 39 0
224 -146 375 0
-143 -335 12 0
385 -91 152 0
266 45 -469 0
398 351 324 0
346 -1 -35 0
370 90 391 0
-238 -284 -423 0
53 -290 159 0
391 -232 74 0
257 -93 -63 0
-496 -218 3 0
367 -132 136 0
170 118 308 0
209 403 -169 0
331 290 194 0
-191 232 40 0
418 445 152 0
-245 118 -129 0
197 -312 -136 0
448 397 -486 0
429 -315 -453 0
-129 308 445 0
325 -346 -71 0
-199 301 371 0
111 -298 -254 0
-470 -471 274 0
315 -241 -148 0
-352 98 -32 0
427 -23 -70 0
-3 247 373 0
295 -61 -299 0
-276 -301 -479 0
-348 412 -6 0
-457 -475 437 0
158 495 453 0
413 127 -472 0
-85 -41 50 0
-396 -426 82 0
470 123 -253 0
-175 -480 -294 0
-418 -322 272 0
288 -294 395 0
-373 -348 191 0
-4 483 122 0
-200 -52 56 0
265 233 409 0
-420 122 235 0
14 -238 -199 0
402 249 -473 0
420 468 7 0
-65 432 -480 0
-101 43 246 0
-315 -452 -469 0
400 -133 194 0
334 31 -185 0
398 -363 476 0
-132 -104 -251 0
-393 75 248 0
156 -10 -110 0
-24 -273 -276 0
-250 -177 224 0
380 -139 -221 0
-389 -351 -78 0
263 -41 -351 0
453 -30 -67 0
-305 320 227 0
457 -170 -291 0
-329 -251 390 0
417 498 -322 0
45 -249 -367 0
497 -461 171 0
106 78 -304 0
112 91 -151 0
-57 444 -95 0
198 252 -255 0
351 -94 183 0
385 325 302 0
25 187 -478 0
59 450 484 0
233 69 134 0
90 66 -470 0
261 -404 117 0
-147 -265 -466 0
-464 -370 310 0
-491 43 -398 0
296 20 -320 0
-151 -362 230 0
271 112 63 0
243 -36 -96 0
-166 253 316 0
447 362 -340 0
-141 468 321 0
-347 -386 -153 0
82 -97 -223 0
-416 308 453 0
63 191 -265 0
-358 29 19 0
-384 -160 -176 0
293 -476 -102 0
-254 10 -218 0
-331 393 -410 0
186 455 34 0
-74 -358 190 0
78 452 413 0
457 -435 266 0
-204 218 137 0
228 -448 -412 0
-328 -479 168 0
-8 -471 158 0
8 484 439 0
91 348 -181 0
-149 431 -100 0
424 62 492 0
236 -112 -16 0
-367 398 -390 0
-468 351 112 0
254 -130 -222 0
115 304 328 0
-259 497 -147 0
-217 239 -223 0
330 -124 -196 0
433 270 491 0
-365 -334 -157 0
-206 457 -198 0
295 291 6 0
398 -497 193 0
-478 277 305 0
456 -472 106 0
76 240 101 0
297 172 163 0
-392 -217 417 0
-476 390 438 0
107 -184 -16 0
-102 329 -33 0
75 -468 -331 0
-406 -88 66 0
438 123 -347 0
-498 -215 -489 0
450 -346 336 0
-347 439 32 0
-89 -378 -459 0
-123 -298 -455 0
-1 334 154 0
-73 -388 470 0
-288 -248 -252 0
16 270 93 0
-410 204 -351 0
-367 -360 441 0
-227 -287 132 0
-251 158 -449 0
-36 -315 -175 0
-282 -72 134 0
265 -480 -266 0
145 -404 -214 0
36 318 -363 0
43 -277 215 0
118 -102 -177 0
436 -254 -410 0
-479 115 238 0
290 430 -42 0
-132 170 319 0
57 17 357 0
374 31 -441 0
121 -8 235 0
-22 218 142 0
104 -252 114 0
167 422 143 0
-215 -434 -390 0
-18 -223 -281 0
358 455 -354 0
199 293 425 0
287 151 327 0
-139 138 230 0
-292 -60 24 0
-363 349 -454 0
-435 55 97 0
264 5 -118 0
319 253 77 0
-6 -323 434 0
-482 473 -158 0
-52 73 -261 0
-166 -171 250 0
-413 -434 351 0
363 378 -141 0
-115 346 -451 0
250 425 -315 0
385 14 252 0
195 19 -177 0
152 -145 -130 0
-359 72 -315 0
-482 180 252 0
212 90 -37 0
-57 -170 217 0
-84 -28 -201 0
102 37 258 0
349 -49 213 0
-486 -412 318 0
-25 68 -301 0
-216 245 -112 0
-293 -430 -477 0
-403 406 367 0
88 -328 206 0
-289 -316 -381 0
51 33 -445 0
387 -46 40 0
357 416 342 0
-236 350 73 0
-403 -349 -305 0
-157 239 -57 0
-382 -17 93 0
-50 118 175 0
-316 255 -276 0
139 61 237 0
-478 199 -15 0
180 -191 -317 0
-236 125 112 0
-101 -173 -461 0
59 -128 -228 0
-291 278 63 0
95 245 466 0
176 172 276 0
-129 -452 -112 0
-363 31 468 0
-332 -116 -382 0
-108 13 240 0
-106 -418 285 0
94 136 485 0
64 -276 227 0
-471 7 -233 0
232 -139 383 0
245 387 -168 0
-191 110 -395 0
-76 352 247 0
39 -158 -401 0
186 -454 225 0
-109 -192 471 0
-350 89 129 0
315 -96 -196 0
254 -175 -81 0
-87 442 323 0
-423 -177 469 0
327 -442 -346 0
272 -14 236 0
-241 189 -105 0
221 402 144 0
-358 302 -32 0
100 -327 -313 0
445 77 -32 0
202 -16 -414 0
-361 158 -256 0
-192 -7 -311 0
32 324 67 0
-177 22 183 0
-411 379 406 0
104 240 396 0
120 -29 -141 0
-133 372 204 0
33 469 -477 0
280 334 176 0
151 -122 -184 0
94 472 -304 0
-119 283 165 0
-317 -482 158 0
223 457 -103 0
-363 198 -489 0
-493 308 87 0
417 -105 284 0
470 -459 -85 0
-434 -166 -389 0
176 -258 -329 0
-341 202 368 0
-24 80 -377 0
31 278 493 0
-380 -331 -12 0
-276 186 -106 0
456 -134 201 0
291 -423 488 0
-387 321 285 0
-88 -42 298 0
-437 -12 207 0
-357 172 -381 0
-239 -334 266 0
-460 459 -316 0
134 -30 359 0
311 339 -250 0
157 -324 -61 0
433 125 -318 0
-455 -409 200 0
339 439 150 0
148 -54 -415 0
-66 99 141 0
30 11 455 0
92 52 -459 0
201 -52 16 0
-433 -147 -390 0
-21 134 413 0
327 -388 254 0
122 -26 -117 0
-328 423 -272 0
65 -319 -161 0
-136 -353 -320 0
-368 11 -316 0
384 -320 -163 0
-218 353 396 0
-88 145 406 0
-79 497 -483 0
172 -442 264 0
422 267 236 0
-331 -174 -481 0
131 -368 86 0
-84 499 220 0
-411 -129 413 0
345 -335 428 0
228 -475 388 0
9 271 -340 0
395 42 -485 0
-80 -175 160 0
59 -176 -237 0
-392 -133 -135 0
-466 -88 301 0
427 406 101 0
44 -167 448 0
-107 -84 -296 0
134 331 62 0
391 -232 309 0
-92 218 270 0
480 393 387 0
432 -13 -64 0
325 -233 -294 0
407 255 -228 0
-495 -304 -205 0
249 -240 283 0
-95 -194 211 0
-400 392 -199 0
-286 -311 -448 0
250 -258 363 0
-363 -292 246 0
-119 387 -225 0
-347 426 -411 0
120 227 -316 0
-319 166 121 0
-287 -225 -359 0
-260 -417 33 0
-75 -13 180 0
289 -346 303 0
443 73 57 0
-4 -197 -395 0
-114 -454 417 0
-373 79 -313 0
-197 -7 -219 0
426 -282 -86 0
470 -202 -417 0
107 306 297 0
114 -420 -39 0
449 -242 -476 0
-29 196 -155 0
294 -352 369 0
79 -345 -498 0
155 -162 322 0
-8 387 42 0
-494 298 -42 0
-433 -234 -185 0
418 -207 -106 0
62 -160 -319 0
-87 302 -19 0
-103 -175 -310 0
82 -172 233 0
240 -349 177 0
-148 414 -379 0
336 146 275 0
54 321 235 0
-211 80 -295 0
365 -417 135 0
-242 330 342 0
409 168 117 0
-44 357 -89 0
351 320 255 0
-144 422 -195 0
324 383 255 0
11 393 96 0
436 195 405 0
28 483 136 0
439 8 -433 0
116 -115 188 0
-28 -16 -326 0
-271 -464 -257 0
-117 -370 -99 0
147 298 -105 0
-307 -300 312 0
23 -186 -414 0
345 -446 448 0
33 -247 -171 0
-243 322 304 0
-47 470 354 0
336 126 -306 0
-140 -434 -342 0
-299 -201 428 0
-231 -258 -108 0
-133 297 -291 0
-273 216 54 0
386 247 278 0
23 -96 -446 0
-467 -97 44 0
369 198 -405 0
39 -209 173 0
-50 -113 302 0
-107 101 -465 0
-50 238 -23 0
154 -355 326 0
200 -144 21 0
-136 -267 1 0
-336 440 152 0
-322 -189 347 0
-432 -484 290 0
382 -19 354 0
-134 494 413 0
-134 -33 -500 0
148 387 188 0
-122 -333 -207 0
464 441 482 0
-1 -490 -61 0
-82 305 -429 0
-224 -319 -56 0
-177 107 -242 0
-435 -472 -211 0
220 -445 323 0
-399 194 386 0
143 -445 -60 0
-240 -197 267 0
390 436 435 0
-1 487 375 0
411 211 407 0
150 -215 86 0
130 260 -1 0
273 174 289 0
-211 77 197 0
492 98 46 0
-194 -121 442 0
-442 -38 412 0
-472 -176 70 0
-21 -416 108 0
215 180 -136 0
143 -237 -19 0
239 187 -292 0
317 -126 154 0
-241 48 466 0
-220 -305 -256 0
349 29 378 0
-288 71 68 0
-147 440 194 0
257 176 -44 0
-81 366 41 0
-364 -483 420 0
-357 89 -202 0
351 493 324 0
395 60 158 0
305 65 431 0
-125 -218 -49 0
198 85 320 0
-55 -184 -73 0
-19 -467 98 0
491 -353 431 0
131 325 -160 0
-494 150 -404 0
-472 -220 21 0
218 -474 122 0
31 168 -406 0
-159 8 13 0
-104 354 -493 0
-118 489 -435 0
135 -366 456 0
54 -160 471 0
-198 127 464 0
242 -257 266 0
346 -34 401 0
-202 -138 425 0
-320 165 422 0
-392 379 126 0
-17 254 -386 0
-299 -42 366 0
288 478 -264 0
20 54 -443 0
275 -179 -374 0
311 97 -243 0
-206 364 226 0
336 434 -443 0
87 -111 -491 0
-301 136 -114 0
426 241 -413 0
480 -295 218 0
399 403 -463 0
288 171 156 0
34 209 22 0
-40 473 -167 0
414 370 -316 0
410 444 55 0
333 -413 26 0
-467 237 186 0
402 -67 189 0
375 -319 -276 0
-212 457 342 0
-2 -372 -296 0
-3 143 369 0
-496 471 -221 0
-4 -244 207 0
-153 -467 -141 0
265 264 351 0
278 227 61 0
234 206 316 0
-235 285 -40 0
-57 355 -384 0
467 475 -49 0
177 -454 149 0
-112 97 72 0
-336 21 138 0
424 57 158 0
338 -123 232 0
-424 -264 290 0
150 469 -494 0
-109 177 -483 0
-75 -324 -270 0
-142 -82 -285 0
-183 -354 -477 0
-327 -471 -398 0
226 -296 29 0
-74 159 108 0
247 429 442 0
-400 85 -175 0
-386 338 297 0
487 -463 296 0
-128 -409 379 0
-130 415 385 0
-224 -326 210 0
-279 246 -458 0
446 477 318 0
216 429 273 0
-336 254 311 0
457 262 -343 0
55 367 423 0
-92 62 -418 0
-358 446 -448 0
-158 62 -73 0
45 -110 -114 0
-366 -50 82 0
-377 -440 309 0
-435 181 23 0
410 237 -84 0
-338 -120 -289 0
111 18 -148 0
-89 -254 52 0
1 278 213 0
-202 462 -401 0
-55 -64 -123 0
436 -192 486 0
-68 -41 153 0
-223 234 -215 0
173 499 -8 0
210 41 -318 0
-305 -391 -333 0
-369 -210 -92 0
314 -94 -350 0
4 365 23 0
170 6 230 0
-118 -429 164 0
-302 -243 227 0
-18 -320 317 0
118 326 -33 0
492 429 372 0
-394 -215 245 0
189 312 444 0
176 -361 390 0
-376 225 407 0
427 251 -360 0
409 -216 29 0
-131 -490 124 0
132 252 2 0
-46 -72 132 0
390 221 440 0
-351 367 -318 0
128 171 -18 0
-220 -443 -54 0
43 -29 76 0
317 -293 -56 0
39 -217 -339 0
227 -293 -140 0
378 363 193 0
161 -340 -60 0
-214 490 425 0
-143 -123 -135 0
455 -312 261 0
231 167 173 0
-449 -281 -314 0
-87 149 -133 0
-64 -220 -430 0
-287 407 462 0
191 272 313 0
-158 -441 356 0
-26 -157 -231 0
-191 409 235 0
-406 -476 -402 0
-69 193 483 0
-393 -179 -424 0
-217 389 444 0
321 -314 250 0
-385 414 315 0
347 -390 424 0
338 -24 -103 0
118 405 149 0
72 370 -96 0
167 284 -55 0
149 -237 422 0
242 358 -216 0
416 221 476 0
224 -89 6 0
337 -190 388 0
-182 -472 -208 0
60 -90 478 0
203 -180 -194 0
-389 -477 -271 0
216 -411 -111 0
-440 -198 271 0
-441 181 -252 0
335 -331 -203 0
-314 -43 32 0
264 442 -105 0
-85 285 -323 0
-438 -384 317 0
51 62 77 0
163 185 287 0
-156 -254 159 0
328 -216 471 0
-277 231 44 0
-294 -147 -127 0
-422 481 108 0
-260 -289 461 0
38 426 362 0
336 -335 -65 0
-335 -31 -259 0
44 -170 -324 0
-129 -259 208 0
275 204 -72 0
160 -303 -64 0
6 496 357 0
-266 444 218 0
181 69 35 0
-265 64 -482 0
131 217 -378 0
-325 155 431 0
473 243 334 0
348 354 -67 0
79 330 447 0
-140 91 289 0
-95 99 286 0
-33 461 -371 0
-447 -408 -292 0
333 -165 105 0
-462 -403 234 0
-89 15 94 0
-118 214 15 0
240 -260 -3 0
-140 423 261 0
-264 4 402 0
319 50 -80 0
-317 20 67 0
151 -442 224 0
-42 224 31 0
-396 -184 88 0
11 271 -58 0
51 125 -268 0
437 242 -173 0
-309 -347 284 0
488 -266 340 0
181 -19 -328 0
256 -499 -453 0
123 348 -217 0
282 -372 131 0
314 197 210 0
281 -340 -312 0
-294 181 -33 0
414 -2 135 0
83 -11 -119 0
234 283 -438 0
-114 390 -359 0
475 108 492 0
402 -47 331 0
41 -198 -113 0
-270 -196 -99 0
-452 -473 -150 0
175 339 41 0
-60 -293 -447 0
-401 -130 -351 0
-162 74 130 0
-80 -420 -238 0
262 -104 89 0
66 -412 189 0
-489 236 211 0
-158 272 -346 0
-286 -174 -248 0
65 354 34 0
216 268 -91 0
92 286 301 0
232 -87 -144 0
-205 198 51 0
-65 -483 386 0
373 -183 437 0
343 -239 45 0
-391 -375 494 0
430 -109 79 0
-62 338 -19 0
-30 -164 -155 0
431 -215 -122 0
-387 -293 -44 0
267 -405 -138 0
479 128 208 0
23 -272 -399 0
-49 17 163 0
-233 -424 297 0
271 244 -269 0
-372 463 -132 0
-345 -166 218 0
487 420 -358 0
477 -43 -486 0
53 124 -112 0
-166 -337 11 0
336 191 19 0
-106 -340 -193 0
-305 -342 341 0
-246 -228 129 0
476 272 454 0
-300 44 262 0
384 -279 -312 0
334 -311 -212 0
366 255 12 0
359 157 116 0
339 1 -81 0
-174 303 97 0
40 -421 35 0
-65 -235 -120 0
-252 -2 -493 0
-286 217 28 0
286 386 263 0
-175 -426 226 0
142 111 -339 0
130 -273 467 0
332 158 -221 0
-246 -143 95 0
-487 362 -307 0
164 488 107 0
-180 -80 376 0
294 303 -262 0
-196 154 -3 0
218 -299 -15 0
257 -301 478 0
20 428 -359 0
91 31 474 0
445 271 101 0
-414 53 101 0
-247 240 -165 0
334 -128 490 0
207 215 -219 0
-469 399 -266 0
-377 127 -154 0
410 400 -239 0
-198 168 72 0
-394 -387 161 0
-127 -472 -354 0
453 -253 -153 0
500 390 333 0
-165 290 109 0
-12 -79 294 0
383 -82 -435 0
-123 -327 -83 0
61 -420 415 0
292 -18 -256 0
-292 200 165 0
159 52 16 0
52 194 -426 0
467 444 452 0
411 452 345 0
370 151 -77 0
100 237 35 0
-28 -427 474 0
267 -94 345 0
-316 296 364 0
85 63 472 0
168 251 128 0
208 312 262 0
-47 -498 -77 0
35 -217 41 0
-11 87 179 0
-147 234 181 0
103 -196 109 0
-477 198 -277 0
181 -395 145 0
86 -361 240 0
391 -147 -255 0
225 -251 -112 0
302 78 438 0
-114 -93 -338 0
-380 297 -478 0
-404 331 -498 0
-488 418 -290 0
364 424 -58 0
-146 -302 -297 0
291 -80 149 0
-357 193 1 0
-402 460 368 0
226 41 91 0
-12 210 317 0
-108 -103 -422 0
138 -363 122 0
2 -326 -386 0
496 -456 304 0
38 -487 217 0
11 202 -366 0
397 -49 207 0
22 449 75 0
349 397 145 0
-119 -395 239 0
253 342 -362 0
459 354 19 0
-466 -36 -305 0
83 -350 -404 0
-227 -438 -329 0
352 433 -364 0
-489 -204 -156 0
-198 -323 433 0
441 390 -121 0
110 -66 188 0
293 -309 -243 0
494 477 -264 0
95 -340 -339 0
262 -403 315 0
241 424 496 0
-208 334 -402 0
206 52 289 0
-340 418 470 0
-234 -433 452 0
-240 -407 -161 0
-245 -376 88 0
60 377 449 0
-398 465 -165 0
-268 81 -225 0
-363 -149 260 0
-186 387 219 0
-274 -495 216 0
-382 -308 -262 0
-394 -484 237 0
-122 171 -226 0
82 -472 181 0
245 393 140 0
15 145 449 0
-348 -246 312 0
488 -344 10 0
-156 -447 -106 0
438 95 -240 0
-370 432 -300 0
328 36 309 0
-103 -11 443 0
355 -410 413 0
254 486 386 0
330 339 447 0
267 413 498 0
277 -252 473 0
-230 117 -114 0
-140 -423 294 0
-103 -268 -186 0
22 77 -341 0
205 231 -170 0
-203 327 -454 0
-494 75 -59 0
-457 92 -158 0
276 -356 -300 0
-367 -258 378 0
164 344 221 0
35 -445 113 0
-318 78 -493 0
320 335 416 0
-5 -203 -4 0
-350 -186 434 0
234 26 -375 0
137 207 288 0
-144 99 -61 0
473 67 -490 0
-168 -166 -425 0
-59 -261 -468 0
-73 -36 489 0
-278 -27 100 0
90 -243 -219 0
75 -311 -207 0
-442 324 -262 0
191 328 -431 0
-149 -267 -42 0
166 299 412 0
-156 -80 -241 0
-117 424 -230 0
-132 -484 -143 0
-216 98 314 0
324 124 91 0
-480 -450 373 0
205 -469 -204 0
316 362 225 0
373 280 435 0
-122 -303 -359 0
191 245 -115 0
107 -489 496 0
-115 485 482 0
477 -43 -185 0
54 240 -35 0
12 -308 135 0
392 -429 394 0
-195 380 -414 0
277 97 -477 0
69 92 -463 0
414 495 153 0
187 456 127 0
-405 70 352 0
-316 255 -408 0
-161 368 -291 0
-496 421 -183 0
-131 43 -482 0
-114 316 299 0
131 -466 -404 0
-458 -391 463 0
-326 414 -345 0
-7 -478 -251 0
-36 323 108 0
-336 194 -325 0
409 158 337 0
194 -178 -112 0
7 134 361 0
-123 -460 262 0
-337 83 -331 0
-87 24 -73 0
-356 331 151 0
261 -298 -112 0
-89 -34 -222 0
-272 375 362 0
85 263 383 0
188 -94 -256 0
-139 351 197 0
10 -432 310 0
252 -209 50 0
408 280 284 0
338 495 -40 0
99 69 -100 0
-183 -10 -126 0
176 -453 -352 0
-151 316 171 0
-462 61 474 0
-422 -180 192 0
-364 299 -480 0
-228 -360 -175 0
-149 118 182 0
-382 433 166 0
-110 -261 436 0
388 -204 483 0
317 -495 450 0
-277 196 212 0
100 6 296 0
-444 -28 -368 0
-243 302 -435 0
368 210 -178 0
-307 417 486 0
275 -288 64 0
210 -250 -350 0
-83 -90 225 0
92 -192 422 0
198 352 -456 0
-500 60 -211 0
96 55 48 0
-143 482 -178 0
-302 23 -164 0
-160 -219 -67 0
483 -203 -161 0
-184 325 -82 0
185 213 482 0
-447 66 -45 0
205 151 -439 0
-346 422 -41 0
437 385 -429 0
-356 -285 215 0
89 -359 -396 0
-198 -480 -175 0
119 -475 251 0
113 449 496 0
404 -76 272 0
44 226 301 0
-372 -369 -96 0
-422 -103 387 0
-96 224 154 0
-22 186 38 0
403 -371 -482 0
-384 462 458 0
-21 13 -107 0
484 -60 -456 0
-298 31 323 0
-483 -110 -312 0
-232 76 202 0
52 161 -329 0
-264 -160 39 0
-385 -433 -177 0
-450 385 -475 0
452 209 191 0
272 -63 430 0
447 145 -332 0
-151 -465 494 0
-431 459 470 0
325 -422 -299 0
-4 -236 -276 0
-208 -91 -51 0
-6 -95 -458 0
-139 92 -370 0
196 -469 -274 0
83 -263 -156 0
101 424 199 0
38 -281 339 0
-448 112 -246 0
-494 -337 201 0
-449 -278 -202 0
-300 408 -388 0
148 -71 -326 0
-124 -348 -96 0
331 477 75 0
64 80 -40 0
497 15 190 0
-209 431 191 0
-366 143 -135 0
-292 -438 -375 0
-87 409 -464 0
-136 492 411 0
-153 304 272 0
-186 -300 -42 0
240 5 -381 0
25 125 6 0
-416 301 -395 0
-174 332 270 0
203 65 240 0
-276 -125 404 0
-6 -108 19 0
-106 -494 -156 0
272 343 -44 0
-360 389 446 0
-31 446 209 0
-493 -167 -23 0
107 136 -395 0
-479 90 10 0
-15 434 99 0
291 -37 99 0
191 153 69 0
468 426 221 0
412 428 -146 0
161 498 -157 0
366 -345 -71 0
-311 195 467 0
438 -326 340 0
398 412 324 0
8 307 -318 0
-93 383 351 0
459 381 -205 0
-95 355 -128 0
259 260 262 0
-359 -401 -330 0
-270 -117 -183 0
-34 3 -182 0
-333 -197 -88 0
-289 484 -111 0
-176 204 -427 0
151 -54 240 0
-480 -456 -96 0
15 -369 -77 0
412 -353 26 0
-489 -427 262 0
474 -219 295 0
196 -130 -100 0
-34 115 -269 0
-153 -453 62 0
-131 -43 122 0
422 -26 35 0
94 185 220 0
451 419 -52 0
278 -183 12 0
-41 458 -488 0
145 390 -298 0
-339 481 -396 0
-78 465 -34 0
-467 106 383 0
-342 427 -373 0
-155 -15 406 0
429 -200 -182 0
179 218 248 0
268 -326 244 0
-108 -194 -9 0
417 -494 -230 0
303 13 155 0
-397 418 -145 0
-102 -266 285 0
-213 283 320 0
-239 248 -373 0
-473 239 -444 0
233 194 381 0
217 -335 -95 0
-2 -426 -379 0
185 -374 464 0
-288 150 -106 0
-117 -425 327 0
39 222 112 0
-10 -344 91 0
70 66 -319 0
459 -154 -296 0
408 -376 -206 0
183 437 -320 0
-412 -68 -491 0
-446 -90 423 0
-448 -349 -139 0
366 -258 285 0
-325 -436 165 0
-367 156 -122 0
-259 274 242 0
113 -43 -377 0
29 333 -125 0
419 428 63 0
422 130 5 0
398 -320 238 0
498 -393 215 0
70 -86 -439 0
494 -400 90 0
205 101 -34 0
406 -270 453 0
-438 207 25 0
113 -159 59 0
-22 207 363 0
-263 -495 -277 0
-288 -356 -217 0
-267 282 451 0
279 -336 -66 0
-61 311 352 0
-232 -451 187 0
-278 380 359 0
-307 -324 -438 0
394 -50 -11 0
37 431 -454 0
-342 -379 21 0
-463 89 494 0
-226 -137 372 0
135 320 -312 0
-234 -242 -387 0
-216 461 103 0
478 -136 -466 0
496 31 -82 0
-365 -467 -181 0
260 56 -27 0
115 -114 247 0
-361 -169 211 0
-98 72 -331 0
301 410 111 0
479 -139 132 0
230 106 456 0
123 227 421 0
268 485 -157 0
91 306 472 0
486 -474 -43 0
-2 113 284 0
-485 -379 -148 0
372 209 -456 0
-399 -147 431 0
387 122 145 0
311 443 -156 0
-416 148 451 0
313 67 152 0
185 -64 268 0
21 259 37 0
45 270 -135 0
-372 -298 144 0
60 -357 97 0
-67 -92 202 0
77 -272 -149 0
-245 68 -365 0
179 -25 -232 0
193 136 469 0
-376 127 30 0
103 -16 131 0
83 -2 88 0
-79 -394 -52 0
-335 237 -414 0
-240 -301 450 0
-206 -281 97 0
497 -43 68 0
55 -330 -241 0
-432 -25 453 0
-368 457 -398 0
-187 160 171 0
-457 233 416 0
356 -399 150 0
-122 398 -294 0
-430 -227 66 0
-256 -63 -194 0
-462 468 -378 0
-241 -47 498 0
-43 498 -423 0
-357 -478 -5 0
90 86 451 0
318 213 -106 0
-284 398 163 0
401 156 394 0
219 59 -486 0
30 75 440 0
-73 111 242 0
454 -77 87 0
294 -470 -59 0
218 462 -420 0
-222 10 290 0
-448 -242 403 0
380 -269 301 0
222 471 205 0
-325 123 -467 0
104 -274 118 0
303 -414 -438 0
384 327 -218 0
-356 255 -39 0
304 -207 -81 0
-52 465 -73 0
-145 -168 381 0
243 -464 -185 0
-438 -294 -124 0
336 399 -271 0
21 -201 -383 0
-371 300 438 0
-150 65 -435 0
157 -476 -125 0
-394 -156 -301 0
-250 178 19 0
-208 148 451 0
-478 -384 67 0
224 -200 -251 0
-325 352 -438 0
-475 -19 -220 0
-22 -207 -446 0
-140 -415 149 0
315 -50 396 0
84 -57 -256 0
-416 -276 -369 0
-223 -437 -277 0
-34 -216 -24 0
387 429 -149 0
-488 -337 -265 0
315 376 -215 0
-177 348 274 0
-303 74 -486 0
-77 -90 450 0
416 -210 231 0
-440 77 -392 0
-152 -275 439 0
-326 4 318 0
334 -37 -462 0
-202 -8 207 0
-427 -275 133 0
236 194 -296 0
309 -206 146 0
90 206 385 0
-292 288 374 0
