p cnf 1000 2500
-319 621 -721 0
667 -992 -88 0
92 495 787 0
700 955 -254 0
-334 -296 682 0
-187 -940 -504 0
-12 741 -471 0
-500 925 333 0
-206 -767 -183 0
12 564 -180 0
1000 412 586 0
-760 -165 -183 0
-977 -507 352 0
-797 609 576 0
-311 446 -919 0
353 -999 537 0
-736 224 690 0
487 -433 210 0
608 583 627 0
43 -858 -669 0
-109 304 12 0
126 353 877 0
313 574 774 0
-453 474 72 0
-791 991 11 0
-509 -10 379 0
635 -120 237 0
721 652 157 0
370 5 467 0
-194 -615 482 0
64 -206 -629 0
-121 550 -96 0
-509 -819 -251 0
583 795 -331 0
413 -60 80 0
-158 414 452 0
682 538 784 0
-80 645 -287 0
505 631 686 0
-214 -157 -318 0
-82 -495 690 0
-922 -689 -762 0
-788 -660 67 0
-820 979 -669 0
20 -305 178 0
-68 -296 -974 0
213 5 -858 0
-668 -942 945 0
-239 208 676 0
796 -711 748 0
177 -169 178 0
868 300 -623 0
-462 633 249 0
655 -319 -889 0
-68 -970 -680 0
119 -817 556 0
859 990 296 0
-946 444 -636 0
-92 -817 806 0
505 41 -393 0
106 318 -340 0
-442 -140 -802 0
-679 286 -306 0
606 -662 275 0
451 -39 74 0
-985 -903 -823 0
11 560 -701 0
-809 319 555 0
487 -380 -117 0
113 8 -738 0
-80 73 727 0
115 68 170 0
352 332 287 0
-500 447 352 0
136 458 -239 0
-961 272 -809 0
690 350 96 0
273 -778 -427 0
-685 -142 -593 0
943 -126 558 0
621 14 502 0
-198 -434 342 0
-606 -98 415 0
-273 523 -866 0
434 -114 -484 0
-977 970 537 0
-924 710 640 0
-969 552 89 0
-829 -428 -99 0
-390 340 569 0
489 -274 783 0
524 41 -467 0
876 550 829 0
-481 -826 -382 0
140 -109 -390 0
95 -43 246 0
248 -434 885 0
620 709 582 0
651 966 -376 0
-934 109 -74 0
328 604 382 0
-220 -457 -530 0
813 -834 633 0
789 324 602 0
806 352 -808 0
-892 -140 -531 0
482 918 115 0
-368 -578 -402 0
503 -749 -59 0
-954 -658 -767 0
71 -793 -744 0
538 -403 -946 0
864 -689 -712 0
-701 619 -588 0
-559 593 -929 0
-626 -517 -238 0
-258 865 120 0
667 456 -938 0
341 -971 320 0
219 -427 637 0
616 -154 -971 0
705 386 360 0
460 687 705 0
-578 336 5 0
845 676 -167 0
-38 -337 -302 0
-477 -906 623 0
-211 -948 696 0
550 790 -472 0
-842 110 909 0
237 455 365 0
245 -188 -39 0
882 183 -817 0
-94 -962 697 0
-50 689 -86 0
-50 -917 261 0
-972 157 22 0
-452 131 -321 0
630 11 482 0
-528 297 -788 0
-452 347 371 0
480 445 974 0
292 -934 336 0
-357 758 854 0
14 724 225 0
750 526 -785 0
710 321 831 0
-361 727 740 0
-849 451 71 0
-644 978 -54 0
265 729 587 0
259 -855 422 0
720 -204 -863 0
-25 -934 -496 0
201 -387 160 0
869 745 -403 0
252 -714 265 0
-61 -372 138 0
968 -381 153 0
-897 783 133 0
948 -534 -681 0
261 792 114 0
812 694 455 0
261 -527 536 0
143 -324 952 0
-231 610 -216 0
-519 326 -630 0
487 -815 750 0
-998 -208 62 0
660 -102 657 0
960 843 -62 0
94 -468 379 0
691 595 286 0
93 -737 433 0
325 1 -523 0
-740 -52 -682 0
949 6 300 0
-957 -244 -439 0
288 -936 -322 0
96 217 992 0
676 -430 534 0
-853 807 -367 0
-889 -795 967 0
191 905 -633 0
-425 -817 707 0
665 -870 49 0
-603 411 25 0
-457 -193 925 0
250 347 -149 0
302 516 -959 0
-767 -760 -570 0
-381 -689 740 0
-443 292 320 0
523 -458 262 0
-526 -421 431 0
-423 290 651 0
-642 -190 -317 0
441 94 46 0
-700 144 -190 0
783 -151 -847 0
-727 272 620 0
274 444 -339 0
408 -672 830 0
804 25 -100 0
-360 40 -933 0
-831 -621 -483 0
401 -881 527 0
237 -938 115 0
-81 646 -770 0
307 234 278 0
24 438 415 0
196 -973 679 0
-375 -590 -162 0
802 -805 -642 0
171 751 599 0
952 415 730 0
975 -64 50 0
-560 -934 -626 0
-975 -648 -720 0
471 237 -937 0
624 -354 -31 0
-698 -806 529 0
559 269 -866 0
138 -111 -226 0
-105 36 -789 0
18 -58 -976 0
-633 -265 -511 0
-855 -208 -585 0
282 916 626 0
8 502 962 0
-401 -74 -301 0
-46 -901 306 0
-632 666 -365 0
-483 475 -926 0
934 -814 -738 0
-726 -409 97 0
716 696 707 0
-899 819 938 0
258 492 750 0
-284 564 -276 0
346 141 -599 0
304 631 -162 0
-144 -301 -224 0
303 -463 -514 0
49 914 -565 0
-138 -689 793 0
-68 -950 166 0
-710 617 75 0
114 576 231 0
883 -104 -271 0
444 -212 871 0
-904 -305 -99 0
-817 204 -167 0
-289 890 401 0
-706 316 -38 0
-482 -247 628 0
-50 401 -447 0
672 -45 745 0
-65 251 443 0
838 -849 -535 0
-717 171 -733 0
282 344 -622 0
-473 -488 -826 0
-69 965 -241 0
-953 -698 637 0
-832 -19 -904 0
-258 -891 -182 0
585 -508 -847 0
-739 210 -646 0
-733 341 575 0
292 -177 -465 0
125 -67 -14 0
834 -453 -860 0
59 -666 -36 0
160 -140 -201 0
305 -443 624 0
-785 -573 -289 0
-953 -707 -205 0
-144 -828 -369 0
149 -169 -136 0
-857 -216 -894 0
118 -616 -321 0
304 -845 261 0
359 213 32 0
-487 -151 -700 0
-226 -13 -29 0
248 -767 484 0
968 416 626 0
40 -463 691 0
694 -582 -681 0
122 -565 21 0
-918 -462 123 0
-799 563 134 0
-889 -470 -853 0
-964 -236 -395 0
-311 190 -80 0
212 322 880 0
319 -244 635 0
756 -26 692 0
-841 672 -502 0
-767 846 -911 0
-761 214 407 0
-251 539 330 0
894 -839 890 0
353 92 534 0
371 158 388 0
184 -544 339 0
-95 -900 852 0
766 803 -630 0
540 -872 727 0
-66 22 627 0
-546 -532 776 0
220 398 -6 0
26 235 705 0
-938 724 219 0
312 637 358 0
499 849 536 0
446 -510 -80 0
-315 -935 960 0
408 -911 720 0
-633 363 429 0
140 70 285 0
427 -884 778 0
29 -449 608 0
-526 -260 -285 0
-809 -446 -233 0
-405 -193 -541 0
-884 281 -526 0
845 -725 387 0
851 -680 -14 0
-407 -299 387 0
-957 -431 600 0
-323 -201 729 0
339 -439 -572 0
806 608 -65 0
-765 444 -245 0
545 -815 -228 0
535 -548 551 0
394 268 803 0
786 576 84 0
-806 28 511 0
486 689 -665 0
-335 452 -419 0
392 575 435 0
-358 -234 967 0
568 -337 403 0
72 685 -944 0
-583 494 298 0
-731 854 956 0
863 -221 997 0
375 -408 -69 0
-60 -489 967 0
-443 176 285 0
-73 -613 651 0
-545 -847 813 0
374 407 818 0
886 864 -931 0
-668 407 -177 0
-610 -247 441 0
908 495 95 0
-896 572 432 0
-98 265 105 0
672 895 315 0
-890 -164 -814 0
-834 983 -463 0
-294 -883 -365 0
-179 602 851 0
337 -8 -867 0
218 68 -842 0
621 947 659 0
-341 -288 -732 0
-44 617 56 0
-129 -569 135 0
253 -404 -818 0
3 -702 861 0
369 -521 38 0
-547 834 977 0
-707 -253 -376 0
-892 424 482 0
-630 691 -2 0
-464 442 -432 0
39 -423 -568 0
-9 -800 171 0
-318 956 529 0
43 219 359 0
-123 802 -473 0
174 266 -806 0
47 217 -545 0
782 231 902 0
-471 -112 574 0
801 207 948 0
-580 179 721 0
258 -218 -784 0
-824 -401 -24 0
19 -251 -817 0
-778 -921 737 0
-693 818 -359 0
-345 -732 712 0
177 -332 362 0
937 861 -556 0
-515 683 60 0
546 532 980 0
-125 737 -746 0
483 224 -84 0
-2 -947 -455 0
-901 279 -55 0
-756 862 -293 0
785 -638 704 0
-600 323 670 0
-516 -131 -416 0
682 -618 -714 0
690 -274 818 0
-764 310 -537 0
808 -256 411 0
240 385 206 0
-943 294 -683 0
-753 400 110 0
-574 400 195 0
604 82 292 0
736 582 -940 0
-67 886 -417 0
-867 -930 17 0
304 23 -458 0
-572 911 -66 0
988 453 -498 0
82 -514 725 0
-660 287 844 0
-66 -759 583 0
-25 -34 -191 0
-108 341 -585 0
637 -139 -241 0
-726 280 58 0
-510 946 -435 0
432 -983 883 0
468 447 -359 0
242 -512 -268 0
-814 251 -573 0
-183 583 -376 0
-153 -391 556 0
155 963 -882 0
-42 962 -103 0
-298 -689 635 0
-444 873 56 0
457 -940 -158 0
176 337 -752 0
158 323 -415 0
-294 568 -904 0
-626 -337 -465 0
841 324 -14 0
-247 770 -385 0
125 375 -554 0
411 -925 -39 0
495 161 274 0
-880 854 -848 0
-920 584 -803 0
-721 -955 809 0
-729 300 -862 0
-64 -330 13 0
-959 45 -475 0
-1 -739 646 0
365 -905 836 0
280 357 -674 0
708 -257 985 0
-422 980 25 0
-470 754 505 0
510 -570 -661 0
809 342 33 0
856 -245 349 0
-958 419 714 0
457 -629 -37 0
299 54 -740 0
-418 -866 864 0
137 350 817 0
-208 -19 -219 0
-693 106 -386 0
264 -562 445 0
-334 -595 945 0
-360 -695 141 0
-533 32 -798 0
-47 -525 -869 0
-604 -729 167 0
-947 -982 -776 0
-305 670 -70 0
-469 -338 954 0
-384 -48 -851 0
-250 236 49 0
517 403 -359 0
501 50 -89 0
-798 -726 -876 0
-630 -259 319 0
880 -301 -41 0
917 168 -625 0
579 462 -967 0
-645 -902 -962 0
468 389 643 0
567 285 -388 0
-948 635 617 0
-327 -106 696 0
163 -415 298 0
42 -619 117 0
365 -362 510 0
-9 -377 690 0
724 772 494 0
994 113 -947 0
-123 -598 -385 0
387 -638 646 0
468 707 -748 0
-334 991 916 0
16 955 -846 0
283 830 3 0
-612 -347 -319 0
228 -602 -352 0
-512 589 445 0
876 -319 -913 0
-914 568 -792 0
-429 -465 -501 0
307 129 969 0
974 848 -365 0
-59 812 -978 0
-179 795 -90 0
-811 882 781 0
-462 -345 17 0
-309 435 -231 0
359 708 916 0
47 -853 -397 0
-273 292 -766 0
893 832 -377 0
563 -311 641 0
882 -144 368 0
961 119 -376 0
342 343 943 0
850 -248 -984 0
-31 542 -556 0
-912 555 308 0
124 913 -727 0
414 438 -773 0
-435 -690 432 0
-376 -711 391 0
129 -283 613 0
-145 -270 466 0
196 -697 135 0
856 494 295 0
-908 -723 -789 0
946 -902 952 0
-104 478 250 0
406 -508 -437 0
576 327 92 0
550 -759 135 0
250 633 212 0
-162 -115 -586 0
-351 565 422 0
-817 -295 577 0
168 750 945 0
-650 -239 -782 0
-450 515 214 0
258 -595 -683 0
71 293 -574 0
754 703 37 0
588 -794 594 0
486 517 719 0
396 783 42 0
939 -18 218 0
-910 -47 -304 0
405 679 898 0
831 673 519 0
-632 -956 -736 0
-647 -651 -356 0
642 132 -773 0
844 467 705 0
-415 -549 473 0
-782 333 912 0
-102 499 -41 0
-686 -825 611 0
-600 -803 -921 0
721 837 691 0
80 503 -331 0
620 -59 616 0
338 -478 -73 0
-517 465 206 0
-233 -766 765 0
852 417 -163 0
-143 -750 -934 0
644 165 206 0
-964 -836 -909 0
-202 -613 -167 0
-186 623 308 0
-985 821 2 0
541 -827 167 0
-116 860 294 0
709 -74 427 0
-773 -487 160 0
132 -283 -703 0
-283 -86 630 0
29 -134 -580 0
-103 688 -874 0
-657 687 721 0
52 264 565 0
-725 78 590 0
-610 265 -177 0
-801 787 168 0
-57 -697 5 0
635 -229 665 0
-268 -790 833 0
-984 185 654 0
-597 601 -160 0
-513 307 800 0
107 89 304 0
822 -938 217 0
901 658 -928 0
506 213 -143 0
62 290 255 0
-497 676 627 0
158 447 -794 0
-49 207 141 0
673 -752 -785 0
491 21 652 0
-799 -601 -88 0
-729 -602 935 0
643 778 638 0
-186 -463 -421 0
919 551 648 0
102 208 -310 0
-473 187 -432 0
-93 -865 -297 0
-933 577 -195 0
70 499 -109 0
985 472 566 0
-247 420 332 0
863 427 921 0
-742 -924 -365 0
896 429 -35 0
790 181 902 0
-65 386 696 0
-280 -533 820 0
585 32 14 0
445 -556 334 0
119 -739 -988 0
-316 512 833 0
608 -59 74 0
374 544 -256 0
425 553 -859 0
396 -61 312 0
-60 137 -985 0
114 -544 -709 0
639 448 746 0
-191 664 821 0
-485 -689 -759 0
765 -311 86 0
-852 -337 658 0
43 -896 974 0
-602 54 -707 0
604 -962 373 0
-701 -727 478 0
235 504 -309 0
880 332 -582 0
-403 226 -81 0
483 383 730 0
334 111 -571 0
-578 430 -284 0
-486 -664 749 0
-520 724 936 0
517 -981 -400 0
-113 -189 278 0
593 -416 -369 0
290 -447 -702 0
575 279 -779 0
-441 -272 743 0
940 968 -372 0
653 -389 -778 0
-940 253 895 0
-620 -493 869 0
237 -368 -960 0
-366 164 -617 0
433 -757 991 0
657 -866 -93 0
-870 592 -148 0
-134 543 -397 0
-294 -531 -403 0
-387 -911 -772 0
-701 574 -443 0
-103 -251 38 0
-872 -666 640 0
-603 -198 672 0
-724 -836 162 0
-90 -110 15 0
-56 -336 410 0
-145 192 -711 0
115 -807 52 0
143 586 -468 0
980 -787 718 0
-436 -370 813 0
570 -982 730 0
-155 -762 811 0
-548 -510 113 0
544 960 -499 0
-505 741 22 0
376 -658 145 0
354 -806 164 0
67 992 540 0
733 544 -821 0
-136 270 889 0
429 -96 148 0
-973 688 959 0
-568 -83 -685 0
-29 -683 -85 0
358 -130 281 0
82 -687 357 0
-526 404 337 0
953 -750 573 0
-568 -651 183 0
-702 -156 423 0
-789 540 -129 0
733 -308 -677 0
-790 -246 67 0
-204 898 677 0
284 -270 -95 0
58 932 114 0
268 344 -539 0
519 -492 -242 0
-340 603 -999 0
15 -913 -130 0
-519 732 322 0
872 769 -710 0
-210 -469 -29 0
6 -812 -92 0
580 -62 993 0
-681 -575 -689 0
177 8 -295 0
500 426 -699 0
387 995 102 0
981 615 -844 0
-493 -845 -625 0
-620 -442 -93 0
-399 646 -902 0
-274 -497 955 0
-454 380 -353 0
-54 396 -723 0
938 -752 596 0
181 -503 -841 0
399 218 -246 0
305 -368 -206 0
69 954 637 0
-55 747 -296 0
991 337 -64 0
-867 456 457 0
166 -475 -878 0
-900 -853 787 0
565 414 -19 0
-489 755 -77 0
-568 670 308 0
-500 255 187 0
-323 -750 797 0
-906 -128 720 0
330 730 -523 0
-338 493 747 0
-362 -176 -448 0
71 536 -392 0
771 -985 -900 0
629 -458 225 0
-37 -616 -44 0
-970 -549 -22 0
-716 -908 -857 0
-594 -887 970 0
-564 495 -464 0
93 -217 -773 0
-782 -59 836 0
-464 867 310 0
846 990 -322 0
-775 640 -714 0
-127 90 -163 0
-842 -242 350 0
-539 897 -380 0
580 505 810 0
62 466 856 0
448 -316 -588 0
-172 -692 914 0
123 930 -997 0
63 68 296 0
733 -657 482 0
-239 430 -188 0
965 -572 889 0
-312 73 -995 0
-755 -365 423 0
463 -880 -237 0
-936 549 -203 0
156 544 969 0
372 166 727 0
260 -882 509 0
-75 960 -510 0
-511 48 -135 0
-228 -760 -739 0
623 359 -33 0
-964 731 906 0
183 382 872 0
547 -840 -209 0
-162 -169 -594 0
-590 353 248 0
261 168 -435 0
-335 -973 -181 0
-311 731 274 0
767 -291 587 0
-965 -949 870 0
-942 -129 -413 0
186 -896 -845 0
154 -939 105 0
-430 -447 -476 0
-99 255 7 0
252 91 -594 0
-788 -938 249 0
424 -438 407 0
469 795 -403 0
463 143 5 0
694 -814 -464 0
-843 -904 707 0
-229 994 25 0
128 385 -574 0
-728 65 358 0
322 358 682 0
-780 541 -899 0
522 -78 44 0
135 -780 -940 0
-281 -793 681 0
-211 -952 -569 0
664 -930 -522 0
-6 430 666 0
244 -684 -274 0
-57 635 -567 0
395 -532 371 0
-560 336 350 0
863 726 505 0
-849 102 -419 0
-271 -394 6 0
-831 17 148 0
408 -968 473 0
561 -257 -652 0
131 -208 715 0
-775 694 -380 0
78 192 876 0
915 733 -386 0
369 -933 174 0
558 -856 792 0
-975 -885 -918 0
329 883 220 0
258 -15 -105 0
-807 -126 -356 0
-218 188 957 0
230 901 -636 0
-635 154 -325 0
-934 541 799 0
966 -395 721 0
941 -656 800 0
951 439 247 0
295 9 -311 0
-272 -294 543 0
-925 -941 -620 0
375 665 -1000 0
336 -608 123 0
952 577 71 0
-441 -484 -203 0
-673 -597 845 0
424 736 962 0
462 -208 -162 0
-330 35 184 0
865 -748 -885 0
162 -551 -163 0
-983 65 -693 0
-886 -37 -132 0
-295 175 519 0
591 731 980 0
-850 -795 -622 0
-986 -708 -204 0
-628 319 -880 0
-19 181 -681 0
-83 -547 947 0
681 -737 -815 0
-943 215 -166 0
-878 608 -140 0
-322 -937 -685 0
951 234 -176 0
532 994 447 0
-962 -676 985 0
-496 -53 187 0
-501 382 775 0
846 355 -579 0
501 382 4 0
-204 -111 -254 0
453 248 264 0
947 374 -238 0
14 -834 -358 0
65 32 -616 0
477 557 851 0
-64 -835 706 0
802 732 847 0
375 469 160 0
-535 298 723 0
259 -109 -845 0
808 546 151 0
705 -963 22 0
-220 452 272 0
-925 264 -71 0
1 -858 292 0
-125 -920 835 0
869 -574 -65 0
995 -911 415 0
131 26 -258 0
-554 -117 23 0
-563 123 -439 0
861 197 -56 0
789 114 269 0
-466 454 -161 0
-949 -123 718 0
159 -787 470 0
519 -742 107 0
370 -639 10 0
-857 556 477 0
26 -459 936 0
-395 686 -385 0
-756 876 -93 0
-982 -668 -439 0
171 838 373 0
-971 835 -531 0
-606 77 805 0
-384 520 241 0
295 -548 -807 0
551 323 197 0
-861 -796 -750 0
-947 445 -610 0
-861 -663 67 0
-594 917 638 0
-285 499 612 0
577 -47 742 0
-191 -213 792 0
-975 776 304 0
784 255 668 0
-867 240 -244 0
-614 -249 -71 0
347 268 -514 0
910 -184 642 0
5 233 13 0
626 816 77 0
-216 897 -673 0
-893 -98 168 0
217 35 209 0
-24 -626 -588 0
630 411 -556 0
-369 -330 -368 0
166 -720 -847 0
-912 -809 -850 0
652 72 -343 0
-935 -97 547 0
-43 938 -265 0
132 392 -826 0
987 992 861 0
123 708 445 0
-267 951 -49 0
98 106 341 0
312 590 -568 0
949 -654 -717 0
-675 -409 923 0
179 -833 -674 0
782 808 593 0
370 -670 -171 0
-115 -889 -950 0
-910 -697 189 0
492 404 240 0
-473 -142 -858 0
586 192 -672 0
267 -185 -547 0
595 -67 435 0
646 534 510 0
466 611 -157 0
-959 -9 -666 0
576 143 -144 0
-172 742 -644 0
707 558 965 0
-560 -847 -562 0
-190 492 734 0
-179 -417 356 0
-730 -480 -664 0
-422 -312 -795 0
-223 222 -862 0
834 -222 -846 0
209 34 -436 0
570 -813 382 0
-318 853 -736 0
-12 -57 92 0
26 527 928 0
570 773 692 0
-370 445 213 0
-460 -821 377 0
-279 581 -930 0
279 204 338 0
-34 -527 647 0
812 -777 -831 0
-254 156 -555 0
369 586 623 0
491 -242 -888 0
-778 399 -930 0
628 836 -172 0
713 -491 -459 0
411 52 -753 0
823 -717 -767 0
-842 677 -394 0
-901 -586 102 0
158 293 -667 0
-484 -842 116 0
-369 -594 -191 0
-326 470 832 0
-487 409 -475 0
-421 -168 -587 0
-398 457 -71 0
879 876 703 0
-658 -240 93 0
563 730 -497 0
-548 965 -114 0
-161 -658 431 0
919 620 192 0
-797 455 69 0
48 443 751 0
-962 -511 -204 0
385 231 -654 0
-888 -651 109 0
755 -919 283 0
-541 -998 252 0
-963 881 -225 0
-463 -204 22 0
-106 -739 443 0
482 -709 -893 0
738 80 509 0
266 -829 1 0
261 -471 -255 0
-859 326 126 0
-9 -791 -690 0
287 -704 410 0
110 -748 -979 0
921 226 -795 0
-826 307 208 0
-610 -360 -443 0
-926 -829 666 0
568 -491 137 0
477 304 -551 0
-710 217 958 0
-926 414 -872 0
-86 620 134 0
638 -964 34 0
-706 -271 595 0
96 191 -414 0
20 942 882 0
18 193 34 0
570 974 -186 0
-155 183 212 0
199 612 164 0
-105 462 22 0
273 -679 173 0
-265 323 -350 0
-589 -540 878 0
-341 -534 -182 0
500 662 501 0
-481 294 123 0
929 -220 -565 0
116 -522 838 0
-594 -661 -706 0
-100 -574 179 0
-491 158 -145 0
822 -622 -524 0
526 -746 -330 0
-343 -802 -712 0
-726 807 -482 0
-931 -458 200 0
158 864 176 0
411 165 -944 0
-644 940 -508 0
-731 66 103 0
-832 -485 -273 0
230 -148 -547 0
-546 434 -4 0
259 316 509 0
457 -204 835 0
-374 460 -906 0
952 755 -623 0
182 174 486 0
-42 444 -459 0
380 -845 -808 0
3 373 -554 0
353 355 -51 0
-888 648 914 0
-890 -3 16 0
-906 -805 -699 0
-631 612 333 0
-944 64 83 0
-78 -442 473 0
-532 -503 664 0
540 153 728 0
30 423 270 0
204 131 -810 0
723 -824 763 0
-242 -499 740 0
-830 -648 717 0
382 -759 423 0
280 -418 685 0
-761 244 468 0
481 270 -221 0
-859 42 698 0
-621 -277 -142 0
257 -214 -934 0
198 -680 -538 0
433 424 625 0
297 -118 -199 0
-307 683 -623 0
-644 -775 717 0
-217 -910 485 0
-734 -666 -112 0
291 -153 21 0
-318 239 -729 0
821 -630 604 0
377 -784 530 0
232 -346 474 0
354 -835 389 0
-344 9 -88 0
-165 -869 -39 0
753 -490 812 0
-256 -589 -681 0
878 873 -340 0
600 -797 421 0
950 -389 306 0
-735 521 -632 0
8 -552 -926 0
286 -461 -895 0
728 -435 676 0
-719 998 -25 0
-399 -85 270 0
-528 916 -432 0
498 -266 255 0
230 -506 -970 0
324 -603 475 0
223 131 -384 0
166 -520 51 0
682 857 925 0
4 -886 318 0
-563 864 -192 0
-395 -119 -245 0
-156 -775 88 0
841 -110 34 0
-654 674 -251 0
316 -170 -167 0
505 -79 969 0
-457 -907 376 0
-898 -19 -206 0
-359 -708 -189 0
-254 128 -598 0
-281 112 -698 0
664 394 -769 0
610 912 407 0
35 -494 -367 0
-33 32 -172 0
475 443 -779 0
375 602 -70 0
-28 354 520 0
131 943 378 0
698 574 941 0
-152 -28 732 0
-851 -19 -726 0
-241 677 493 0
-288 -679 -294 0
-141 851 847 0
-737 -857 -784 0
696 384 608 0
-983 821 -429 0
-194 758 295 0
-123 139 -528 0
-997 -598 -266 0
880 -91 346 0
-745 870 -393 0
547 649 4 0
-193 -366 345 0
-614 773 -190 0
-121 594 535 0
-890 191 388 0
535 -247 -336 0
-789 78 -970 0
-421 88 978 0
-796 -483 938 0
676 -203 -863 0
-974 -485 -463 0
783 -131 -124 0
972 692 636 0
-698 -713 909 0
-9 -188 819 0
546 -303 -700 0
-908 -902 -501 0
-555 -329 125 0
-178 832 -162 0
-722 700 774 0
-357 -652 468 0
397 678 563 0
-45 -292 -681 0
468 1 -597 0
784 -880 5 0
-820 177 -972 0
-869 -855 907 0
-628 -584 697 0
259 -328 -970 0
272 -98 -376 0
810 565 -747 0
425 -853 469 0
248 464 -539 0
185 -243 116 0
-108 -771 844 0
-369 463 -172 0
914 408 -357 0
492 439 162 0
-554 668 -259 0
137 -322 -673 0
-176 -602 718 0
-247 -106 130 0
-253 -118 -742 0
-668 -848 -429 0
595 487 -44 0
30 -309 679 0
418 236 353 0
843 -41 505 0
-398 -231 246 0
-89 -244 -1 0
832 454 549 0
581 -692 341 0
-144 -579 -99 0
2 -564 924 0
1 297 -514 0
-398 -254 721 0
-165 98 -109 0
448 784 54 0
-361 920 -553 0
580 -384 469 0
-700 -508 394 0
695 -703 -120 0
-921 -250 -856 0
739 -796 -718 0
-520 -538 -452 0
403 945 -17 0
37 -224 808 0
19 -606 91 0
433 -804 671 0
-83 765 -428 0
-276 213 586 0
547 -570 -503 0
-711 896 239 0
-74 -850 349 0
45 631 -321 0
722 284 234 0
161 -653 765 0
-254 -227 592 0
-913 -699 -164 0
-797 872 587 0
-190 -928 -571 0
-205 -536 528 0
958 451 -996 0
609 -596 -476 0
-277 337 -62 0
-865 -977 -240 0
-336 420 -782 0
375 943 292 0
-891 117 -632 0
-392 -762 735 0
766 908 -175 0
-785 -81 639 0
-855 -53 435 0
-413 743 -858 0
49 -184 -82 0
367 -896 -44 0
-93 -797 -185 0
608 976 771 0
499 860 -192 0
-632 -117 436 0
869 525 -432 0
-852 -268 -436 0
-783 -775 660 0
-696 -554 -229 0
766 845 782 0
146 64 235 0
-469 -126 -100 0
354 8 -661 0
-957 77 645 0
-598 -589 579 0
161 998 -236 0
-573 229 676 0
941 437 407 0
-98 738 315 0
499 -652 -679 0
-151 -333 515 0
593 -596 -540 0
882 -388 959 0
473 182 185 0
508 -756 -565 0
-644 588 727 0
336 -146 986 0
515 -464 -114 0
653 439 -214 0
-510 722 -114 0
-686 -614 450 0
-571 -287 -656 0
731 486 -286 0
-621 669 428 0
-856 770 -779 0
-721 112 311 0
-946 361 865 0
594 -582 -60 0
260 -662 -356 0
252 -736 -450 0
827 -197 -165 0
269 352 727 0
962 277 245 0
949 232 867 0
539 -157 -616 0
358 317 -253 0
241 -828 -371 0
319 -826 -493 0
-34 784 859 0
-696 -304 -310 0
911 179 58 0
196 -51 84 0
378 -368 -195 0
299 -170 -354 0
-655 -221 76 0
851 -701 258 0
-584 957 307 0
564 -718 833 0
421 -532 937 0
896 -247 -863 0
229 -614 -5 0
-25 -912 -951 0
192 909 842 0
-486 920 457 0
875 534 881 0
-418 668 -399 0
-437 -200 -900 0
-961 -233 -778 0
-784 277 897 0
230 -390 -376 0
-690 -926 200 0
292 924 -965 0
5 228 -429 0
-998 -67 365 0
638 -205 -171 0
-566 95 343 0
734 909 -331 0
-832 -357 682 0
-963 911 -536 0
-348 -58 -362 0
655 73 811 0
655 235 -998 0
-642 519 336 0
-157 -18 -969 0
-608 -934 888 0
133 716 -824 0
-335 947 678 0
271 -996 -467 0
-328 504 -572 0
-163 -313 -375 0
483 789 430 0
29 736 -899 0
-973 -254 732 0
126 -627 196 0
340 -589 598 0
835 644 973 0
-423 -92 43 0
815 524 -698 0
673 -536 -965 0
143 -338 -481 0
982 -510 -380 0
298 -878 -717 0
-102 -850 -608 0
247 -395 587 0
176 708 -879 0
-333 408 -541 0
477 -878 -187 0
583 998 -598 0
734 77 475 0
706 920 460 0
-74 152 436 0
554 522 785 0
-467 -285 -284 0
520 -434 -182 0
922 -708 898 0
-102 -139 134 0
966 473 -574 0
564 734 -335 0
-167 318 568 0
458 147 -188 0
-987 769 648 0
22 696 -689 0
-160 658 657 0
856 -464 314 0
-501 -710 620 0
298 811 936 0
-44 -827 -340 0
929 154 -403 0
-264 -722 581 0
917 -41 -583 0
-176 363 221 0
-322 26 659 0
470 -762 843 0
-608 116 344 0
-51 -835 -224 0
317 -578 -931 0
-968 98 572 0
-898 750 -695 0
-329 -375 853 0
-317 -848 -450 0
-930 266 -104 0
-264 387 21 0
507 285 786 0
-839 560 49 0
185 866 296 0
6 51 -427 0
-370 -888 -532 0
904 -930 -247 0
-4 928 63 0
625 180 -80 0
534 533 -851 0
-665 726 -494 0
880 -523 -320 0
868 932 982 0
966 459 985 0
180 55 -596 0
402 -229 -315 0
-579 -794 -65 0
401 973 -699 0
969 -541 -364 0
-210 954 111 0
892 -553 -9 0
-487 299 250 0
333 895 -445 0
12 -753 -879 0
-708 101 109 0
-507 578 205 0
41 793 -998 0
-648 -923 -189 0
-915 500 837 0
-505 585 -691 0
-970 956 558 0
-90 -433 169 0
-535 -748 224 0
547 380 -310 0
-217 902 -996 0
75 858 500 0
-890 299 -878 0
964 272 274 0
-62 -941 -365 0
583 -306 -414 0
-357 -799 433 0
96 752 -377 0
227 666 152 0
704 -138 657 0
-486 -332 866 0
424 277 -902 0
-52 -885 -249 0
-27 -504 46 0
691 687 -593 0
456 -550 793 0
-492 -66 742 0
439 -153 -508 0
-401 527 289 0
782 731 579 0
955 632 -152 0
376 -1 -651 0
-37 -192 -145 0
-618 -95 -446 0
597 -220 -913 0
166 -103 -210 0
478 -813 -687 0
97 552 -803 0
-212 -139 -627 0
693 -137 855 0
828 -5 224 0
-659 991 506 0
939 -33 -580 0
612 559 964 0
-176 167 -904 0
-774 890 199 0
-160 343 -137 0
-410 130 -231 0
947 566 -535 0
-215 -299 654 0
-887 22 299 0
-73 -240 -698 0
-380 703 777 0
-563 -722 458 0
190 829 451 0
-45 -47 245 0
851 -792 318 0
354 240 715 0
53 -319 -222 0
-218 -252 462 0
-954 -220 -660 0
689 -389 -952 0
546 330 73 0
-253 945 537 0
987 -31 -670 0
-898 -306 -763 0
55 -797 787 0
920 91 734 0
643 872 383 0
-157 -435 -658 0
985 -149 629 0
95 887 602 0
533 -8 -990 0
-665 -770 51 0
-27 -436 123 0
-579 274 570 0
-223 260 280 0
-831 185 451 0
776 -184 662 0
-925 776 -434 0
-246 390 823 0
-204 967 -67 0
-960 967 -440 0
983 -392 -502 0
-183 538 -528 0
-554 843 -76 0
198 -84 339 0
-364 -355 103 0
-863 213 769 0
501 -474 421 0
-199 376 98 0
119 282 -904 0
840 301 -624 0
253 300 502 0
801 -391 493 0
-736 -354 -63 0
-407 -480 249 0
940 617 4 0
-470 582 593 0
-554 45 -694 0
-895 623 843 0
814 -213 59 0
965 120 -520 0
-202 22 44 0
668 393 -920 0
231 -956 581 0
484 -227 -144 0
689 -973 -266 0
806 -676 812 0
234 -39 -880 0
-392 495 -50 0
-607 -730 159 0
-980 -46 246 0
10 -381 -318 0
771 398 -232 0
811 -667 281 0
46 -807 -523 0
-394 101 134 0
464 52 -304 0
-642 832 -130 0
-721 -550 -283 0
176 -374 433 0
-503 -390 -753 0
-861 489 -313 0
913 -555 -596 0
372 -469 864 0
-251 738 -864 0
100 -416 550 0
416 -230 848 0
149 -966 -592 0
-57 -39 705 0
835 589 -469 0
247 -217 869 0
51 -358 -665 0
974 235 -149 0
-410 437 239 0
-688 259 977 0
56 -110 -769 0
7 344 -985 0
-665 157 -10 0
946 912 533 0
562 494 -246 0
528 -829 976 0
-489 -698 -576 0
-317 607 914 0
57 -185 -735 0
-637 -813 -190 0
562 -522 637 0
-97 161 811 0
-799 -223 -621 0
892 -369 169 0
-972 337 -182 0
-99 329 -330 0
-384 -487 -462 0
-107 -184 430 0
336 683 209 0
-251 -960 -412 0
888 49 867 0
-40 832 190 0
907 -230 314 0
-354 579 222 0
300 -986 690 0
-399 954 -819 0
-534 -574 924 0
860 742 -594 0
109 -858 421 0
582 -962 576 0
-337 -359 -164 0
814 703 -43 0
-293 -457 -952 0
786 21 -503 0
-106 -682 627 0
-313 -613 287 0
658 396 -204 0
-704 246 699 0
-789 -2 511 0
41 588 712 0
-749 972 -602 0
-946 -802 175 0
424 981 3 0
912 -577 30 0
-594 -255 895 0
964 -204 293 0
-624 -687 957 0
153 -490 555 0
-189 -111 -412 0
981 500 832 0
680 141 -763 0
269 477 720 0
104 -757 127 0
206 986 -613 0
-676 654 326 0
845 -174 -305 0
-964 -83 -881 0
576 -472 -187 0
-163 -96 -251 0
-419 218 899 0
-526 557 736 0
77 346 -401 0
-416 296 887 0
-285 -357 699 0
-779 677 -52 0
953 185 -198 0
-618 -693 -642 0
-631 330 240 0
-950 148 710 0
-455 730 -117 0
-606 -893 938 0
-973 44 215 0
413 378 -987 0
-867 -485 717 0
-779 613 -392 0
-295 900 -230 0
767 -5 -546 0
699 972 533 0
443 -229 899 0
480 -721 788 0
-327 428 -482 0
913 -719 288 0
-890 71 838 0
-816 -508 -140 0
729 661 -624 0
-229 234 -67 0
411 83 583 0
-339 -603 377 0
-530 -394 -290 0
-145 -904 724 0
-386 308 677 0
-893 -895 97 0
-271 234 -862 0
-626 -477 674 0
-306 -547 375 0
104 237 -298 0
673 -442 -603 0
-371 -123 838 0
525 675 91 0
-40 -470 -284 0
-339 -496 433 0
-315 -859 -643 0
641 751 -321 0
-134 474 -977 0
-349 244 -100 0
654 -800 749 0
-467 983 -612 0
420 254 -226 0
-575 737 -924 0
512 -428 -957 0
-403 117 155 0
810 -111 -861 0
247 365 537 0
-709 599 535 0
108 191 -137 0
-903 -365 -572 0
-463 -591 481 0
-758 720 723 0
-334 443 239 0
-951 771 -338 0
754 -198 -359 0
514 311 369 0
650 591 832 0
-165 81 969 0
491 -572 803 0
-720 371 274 0
-370 -763 -190 0
-316 802 12 0
-41 282 -775 0
-485 96 -209 0
934 449 -397 0
690 425 -66 0
-818 -686 -1 0
-542 670 -755 0
-337 -653 -438 0
161 -843 879 0
-826 57 330 0
832 -725 -139 0
-601 580 624 0
-362 676 83 0
-775 -463 428 0
952 505 893 0
-408 -547 790 0
-600 901 106 0
152 26 40 0
-805 -755 -384 0
-758 -624 -180 0
634 -76 399 0
-963 -516 400 0
535 681 893 0
-718 751 265 0
-72 -970 653 0
-846 344 301 0
221 590 4 0
241 835 442 0
62 276 843 0
-441 -535 395 0
119 -111 949 0
-242 -919 86 0
52 -657 140 0
-94 -623 576 0
307 -420 -856 0
332 -457 -651 0
-115 935 -87 0
772 341 243 0
885 -544 597 0
-199 229 514 0
706 468 -700 0
-924 -966 842 0
-624 354 -569 0
587 -418 150 0
131 -922 595 0
-952 -642 -816 0
926 404 -173 0
132 156 -762 0
336 -2 -197 0
8 -26 278 0
-744 824 -201 0
759 387 -554 0
487 57 -344 0
858 -315 41 0
735 669 -199 0
776 238 -155 0
-288 640 -662 0
-788 -655 -764 0
-495 268 682 0
-115 -140 817 0
-983 918 -205 0
931 -269 899 0
310 -250 155 0
596 862 -995 0
-560 899 -82 0
-239 957 75 0
426 174 229 0
200 381 161 0
-921 522 -96 0
503 -141 -563 0
-81 -480 -961 0
-882 -400 731 0
-488 -209 680 0
-109 41 811 0
-384 -311 -551 0
813 852 -473 0
-433 -454 -160 0
-18 951 -386 0
-63 -647 -559 0
-734 83 -495 0
242 430 -735 0
481 347 -653 0
-520 -678 -455 0
809 363 321 0
538 -288 -463 0
-733 -66 -380 0
478 587 620 0
-1 739 177 0
-998 941 -964 0
-40 -4 947 0
800 -178 -685 0
-325 -847 823 0
822 192 447 0
714 -352 -768 0
749 -1 -576 0
720 -879 -49 0
458 985 -905 0
70 291 -897 0
815 400 -733 0
-9 938 -22 0
281 962 -738 0
-7 -289 155 0
-456 722 355 0
610 -761 680 0
-128 877 -291 0
-623 505 360 0
-3 -942 -739 0
-806 110 987 0
-377 541 733 0
-905 -694 -265 0
-539 -98 367 0
874 -330 961 0
-785 -924 -593 0
107 -625 840 0
-717 210 760 0
-440 221 259 0
247 -282 -165 0
-735 818 -489 0
-890 235 564 0
-900 478 343 0
273 -669 -876 0
-177 -960 -382 0
320 463 330 0
-239 -468 635 0
306 367 961 0
-166 -586 387 0
-401 230 -34 0
-528 -44 909 0
-247 -614 -228 0
-546 -317 -973 0
-485 -567 156 0
214 577 -82 0
-354 -728 -172 0
765 -934 9 0
-582 115 486 0
-180 -680 -695 0
663 308 705 0
316 305 -2 0
256 -499 328 0
-140 601 611 0
994 -914 -216 0
685 -382 -549 0
-986 -22 -178 0
773 -818 -660 0
923 -237 492 0
867 -119 -31 0
-74 593 -812 0
100 -114 -443 0
593 841 19 0
452 -379 559 0
-394 896 676 0
-870 -424 -195 0
-38 -939 896 0
766 112 -14 0
605 402 -522 0
-558 -160 -39 0
640 826 134 0
-318 867 -404 0
995 -126 -675 0
-399 867 260 0
436 411 247 0
551 -504 911 0
-436 -373 422 0
643 -848 -1000 0
-861 569 383 0
206 -743 -684 0
-106 993 -665 0
-621 -26 -97 0
-794 -167 -635 0
-317 -310 343 0
211 943 397 0
-590 184 -906 0
888 -792 -481 0
-518 -686 324 0
-369 -534 881 0
-277 -467 229 0
-332 943 635 0
-468 488 -574 0
639 134 496 0
-583 914 829 0
-440 822 169 0
-748 -826 967 0
-390 -987 644 0
-743 187 280 0
863 -383 -226 0
8 -483 -174 0
863 845 592 0
299 -616 -401 0
-555 -694 -490 0
-248 -793 -613 0
-585 275 983 0
330 -269 221 0
-234 220 256 0
829 -212 545 0
-737 -589 364 0
975 736 -24 0
-846 964 -134 0
563 -728 892 0
-742 83 -65 0
312 321 198 0
-552 -511 113 0
-806 102 615 0
77 865 -670 0
-424 534 -502 0
866 -539 -907 0
-476 -538 -133 0
400 -509 -79 0
226 -970 -980 0
673 913 -525 0
-783 -135 -839 0
-439 -58 -282 0
510 773 904 0
-266 189 321 0
-721 670 -819 0
817 -24 320 0
-781 282 -173 0
886 -29 994 0
381 -710 532 0
80 -732 -236 0
-904 744 -232 0
-349 -12 406 0
-361 936 177 0
684 401 -58 0
-458 554 865 0
994 -756 -509 0
120 854 191 0
-641 512 -722 0
-996 94 378 0
-449 -86 249 0
-273 -747 11 0
314 -900 788 0
901 863 -151 0
678 966 -162 0
262 375 104 0
-138 -599 963 0
-112 -863 -944 0
211 -30 -63 0
-320 -246 276 0
-137 887 665 0
-40 -95 -585 0
-351 -32 481 0
-533 15 -366 0
-606 -64 108 0
226 -349 -566 0
648 -124 945 0
-374 -475 -393 0
414 -638 -500 0
-284 -116 826 0
400 429 -81 0
72 384 392 0
-80 837 -953 0
227 354 419 0
61 932 979 0
-959 360 -774 0
-270 -864 -950 0
460 -343 122 0
-138 -212 -396 0
-600 812 540 0
-423 54 -588 0
41 -431 -145 0
-93 425 949 0
550 -677 411 0
-694 555 -220 0
320 -189 518 0
443 663 -187 0
-38 804 101 0
-959 886 530 0
-499 -999 -103 0
-186 568 -115 0
-300 198 -155 0
-296 305 365 0
-935 494 322 0
634 -23 702 0
987 365 240 0
-791 -661 53 0
377 -114 -173 0
-515 301 165 0
250 816 573 0
742 -486 -653 0
-717 349 -690 0
4 -949 47 0
-316 82 -975 0
-578 632 211 0
-804 973 378 0
548 428 -685 0
-529 304 973 0
-522 631 -594 0
626 439 645 0
894 -742 -659 0
-185 660 -232 0
552 -797 -80 0
-161 -877 -795 0
609 612 -593 0
84 -453 243 0
22 -449 -477 0
-743 -761 -89 0
368 392 304 0
228 -947 -912 0
779 -98 -895 0
116 -66 177 0
-174 476 846 0
-778 240 -926 0
-613 961 -374 0
80 -701 750 0
-711 -33 -582 0
-913 -651 -745 0
272 -775 -31 0
-123 -751 326 0
-434 -256 -955 0
754 -676 819 0
302 -554 56 0
470 869 810 0
726 -982 234 0
922 -564 101 0
-63 226 791 0
-603 -473 675 0
508 40 996 0
-732 10 -136 0
704 174 93 0
-353 344 -793 0
118 416 212 0
35 -714 706 0
-517 -480 84 0
911 -183 -607 0
857 -324 327 0
-143 103 668 0
-560 -916 -858 0
173 -815 -889 0
-322 21 566 0
-938 873 -783 0
362 -629 -108 0
-371 -369 -256 0
839 -975 934 0
222 618 202 0
510 -178 971 0
812 279 -568 0
878 -261 739 0
-97 -932 345 0
-33 -923 -542 0
-143 -315 149 0
-317 -554 465 0
-140 -868 60 0
-357 -482 -826 0
424 293 -861 0
281 -87 -387 0
-464 -868 -298 0
-350 110 -375 0
512 -556 134 0
-638 -277 17 0
130 878 -328 0
842 -784 -129 0
-881 221 631 0
-268 -39 172 0
-279 157 581 0
546 414 -605 0
-21 871 -822 0
336 -263 963 0
4 246 92 0
-893 -430 -210 0
-694 -492 763 0
721 -141 233 0
-249 -530 209 0
-745 -10 243 0
694 917 587 0
548 -138 -554 0
607 370 -697 0
-980 -978 263 0
376 -547 527 0
573 520 505 0
457 160 -936 0
958 -224 -949 0
-156 266 -523 0
-643 -224 -133 0
145 81 -380 0
572 -988 133 0
821 -79 -579 0
158 380 723 0
735 699 -298 0
-192 845 -182 0
-639 297 -817 0
-532 348 353 0
-566 -926 792 0
-326 -127 168 0
-549 583 -433 0
975 -346 -224 0
13 677 305 0
500 -742 -288 0
287 -909 448 0
-389 98 317 0
56 -695 623 0
-330 773 -228 0
631 -519 909 0
-13 172 734 0
35 -584 52 0
618 -373 -61 0
-303 -176 223 0
-973 662 497 0
479 -749 771 0
-511 -479 876 0
-353 415 -623 0
-899 -742 -83 0
-207 -664 752 0
690 -63 -870 0
210 771 -27 0
721 803 360 0
-687 91 468 0
-278 608 -112 0
-97 -700 450 0
737 -712 331 0
-377 67 70 0
-967 -795 -313 0
-624 434 -412 0
-489 55 904 0
949 -148 -878 0
-937 -505 982 0
-583 181 997 0
338 313 722 0
-709 284 -218 0
-453 -398 -930 0
45 898 -735 0
-154 -279 -741 0
-931 62 -841 0
788 -531 -153 0
-297 719 512 0
170 262 -58 0
-613 -836 -796 0
-755 994 -864 0
-18 556 -696 0
476 307 194 0
638 -353 -530 0
-346 -374 -919 0
-103 707 -763 0
118 910 -931 0
306 -992 444 0
-830 993 -572 0
494 931 615 0
807 -133 -425 0
-856 -778 970 0
243 264 -911 0
467 202 -911 0
79 -206 -395 0
5 598 369 0
512 531 784 0
499 -446 845 0
230 -899 963 0
872 -97 853 0
-111 486 -855 0
-317 -508 32 0
348 -553 288 0
-482 -202 -422 0
-783 -891 -77 0
-852 -886 293 0
612 920 -893 0
-62 701 390 0
955 -816 319 0
250 -720 946 0
13 750 -604 0
371 -264 417 0
-249 -496 94 0
-855 -920 878 0
424 991 246 0
398 -80 -926 0
986 816 -28 0
929 528 967 0
-161 663 753 0
726 -923 868 0
-606 -622 29 0
-906 701 -580 0
81 272 997 0
-790 -207 -604 0
658 -961 509 0
852 -810 941 0
695 -548 -467 0
-810 563 -705 0
939 -301 -560 0
-801 -152 -442 0
-264 -836 146 0
960 201 979 0
-717 -110 -357 0
238 112 -543 0
255 468 626 0
732 98 -842 0
217 560 -234 0
469 924 -807 0
-634 577 266 0
-475 571 -591 0
516 997 -964 0
674 154 -520 0
-768 458 454 0
492 87 -796 0
517 758 643 0
326 634 -626 0
907 684 925 0
-793 455 -862 0
184 28 288 0
838 423 -372 0
-687 -204 -354 0
-801 271 175 0
154 -452 456 0
403 449 -21 0
-705 746 -661 0
-96 326 151 0
307 343 233 0
-888 63 555 0
823 576 301 0
-710 332 -872 0
-706 -389 -431 0
923 -163 818 0
-354 -495 325 0
-958 -704 -590 0
-609 -257 -166 0
461 -437 -280 0
452 413 -183 0
-476 725 -412 0
115 -645 579 0
114 714 174 0
-388 83 -7 0
-948 -794 670 0
-84 196 -689 0
-953 -776 -610 0
-270 957 -216 0
817 709 -588 0
154 -467 -659 0
782 712 822 0
-994 280 -243 0
-172 855 -335 0
-9 114 -388 0
270 133 813 0
229 643 227 0
345 -276 -580 0
313 -133 -561 0
426 -742 -794 0
-254 624 -742 0
-397 463 -790 0
-137 440 164 0
-441 425 -769 0
-83 -296 -395 0
-347 -965 877 0
-657 594 605 0
49 -29 -378 0
263 154 75 0
-189 -439 336 0
-661 710 545 0
-547 598 207 0
273 -199 -768 0
209 488 701 0
-214 -588 -308 0
22 -995 919 0
-863 205 -19 0
329 -735 -866 0
-326 225 -777 0
35 -417 41 0
985 -952 339 0
449 -166 615 0
984 858 -304 0
861 -422 147 0
237 -130 132 0
-83 459 -991 0
333 222 921 0
611 675 562 0
751 -63 860 0
649 804 -685 0
66 178 -354 0
-337 782 -148 0
-379 226 792 0
-282 320 172 0
541 651 -939 0
-54 208 117 0
-619 176 906 0
325 -141 -861 0
-113 -726 459 0
518 292 -329 0
-567 547 614 0
798 850 -188 0
-600 -488 671 0
-630 -691 866 0
140 948 897 0
-357 515 -391 0
-262 -91 -16 0
378 242 -419 0
-343 127 231 0
337 -167 453 0
-128 -852 -619 0
-36 239 -928 0
878 -603 774 0
22 -550 956 0
373 -138 -469 0
-435 -217 -67 0
459 -666 187 0
-817 538 -312 0
-659 796 -693 0
-975 -382 -993 0
-59 632 403 0
42 -603 652 0
153 -749 -327 0
-585 883 -179 0
-584 58 -758 0
667 831 663 0
-184 571 146 0
977 915 582 0
377 -599 789 0
715 778 -949 0
-806 -619 -549 0
-70 -497 -932 0
-741 614 -809 0
964 -840 -361 0
-605 665 -415 0
-246 -256 -454 0
-325 -786 -392 0
-665 -324 -399 0
77 -576 874 0
308 -88 -77 0
368 -826 -393 0
-522 -896 -136 0
-76 -961 550 0
223 -9 -753 0
-242 -813 -900 0
-678 -512 -16 0
860 -940 -50 0
951 234 834 0
852 -544 152 0
754 249 551 0
-210 -154 -24 0
275 -150 683 0
800 75 -318 0
-907 -696 -450 0
-475 189 265 0
308 367 851 0
240 296 -156 0
-564 -820 -546 0
-84 51 -581 0
-18 714 895 0
-629 -643 -983 0
-241 693 388 0
409 148 12 0
-243 306 -500 0
-90 844 -800 0
-220 -466 992 0
852 772 -381 0
714 -501 672 0
963 408 944 0
-116 265 -443 0
-542 -428 -906 0
201 942 -36 0
-149 -407 837 0
-923 -250 478 0
208 -921 151 0
859 -524 256 0
940 -111 866 0
-401 374 -222 0
-700 -390 -827 0
899 -624 13 0
-261 -301 -924 0
-914 -442 -226 0
65 -530 -505 0
780 -484 585 0
723 -39 294 0
319 -800 -439 0
-13 467 280 0
-32 520 -116 0
-170 252 -862 0
569 270 -846 0
-720 502 687 0
851 772 933 0
-857 10 933 0
-571 542 425 0
-955 715 -627 0
-283 -129 -456 0
521 836 -763 0
-674 -758 -921 0
-964 -466 -826 0
335 326 -629 0
-576 -825 756 0
299 325 -373 0
29 921 363 0
642 -665 -478 0
-498 820 -906 0
-398 -873 -660 0
-70 -511 -530 0
240 -957 523 0
-517 -877 -104 0
163 -846 -893 0
977 -924 787 0
769 -947 -371 0
-721 -319 954 0
-247 -416 -651 0
-799 759 869 0
400 904 -888 0
-844 606 -598 0
797 -692 -337 0
-956 847 -198 0
-722 -359 -533 0
197 -79 430 0
139 -613 536 0
222 -18 -391 0
225 -583 -281 0
155 -564 728 0
-907 354 102 0
-567 -299 -517 0
265 -427 194 0
-874 177 320 0
-171 643 -659 0
141 -157 364 0
-19 944 886 0
-816 -431 181 0
766 -420 849 0
769 209 -870 0
243 -327 -161 0
756 -112 477 0
979 -616 -161 0
127 443 161 0
776 584 -818 0
-600 -941 -543 0
288 -833 -105 0
-769 -747 164 0
52 -991 -81 0
726 -487 198 0
-791 -212 -980 0
583 428 909 0
-160 -59 -684 0
-368 -940 529 0
-721 463 260 0
-133 -493 -573 0
-243 -597 -704 0
648 -260 979 0
-967 -994 -643 0
-740 -734 759 0
212 -414 -678 0
59 979 12 0
909 -423 -175 0
927 -314 662 0
732 618 -541 0
619 -227 598 0
919 642 121 0
155 -943 -76 0
370 600 511 0
-769 489 184 0
887 -144 738 0
-374 -399 362 0
668 596 -465 0
-608 799 529 0
844 -915 -843 0
-571 -896 -469 0
397 885 858 0
-635 273 -264 0
775 95 -660 0
268 335 -576 0
215 -787 492 0
370 -159 -566 0
-436 554 -976 0
958 228 713 0
12 779 683 0
-299 797 326 0
43 -810 -606 0
534 -838 -359 0
884 -393 -37 0
752 -837 112 0
-213 -835 776 0
634 890 410 0
-912 61 138 0
1 893 170 0
863 -420 -842 0
496 -407 -394 0
-648 662 -890 0
834 230 -665 0
-905 241 892 0
549 -334 313 0
157 -386 61 0
788 779 -61 0
790 -590 -179 0
-254 673 407 0
-140 -285 336 0
267 652 989 0
80 -62 341 0
-795 -874 -667 0
-258 -734 -644 0
-2 972 -877 0
470 467 316 0
-467 79 606 0
-24 -997 -127 0
-709 -809 -115 0
-9 984 393 0
-496 66 908 0
928 -903 -464 0
173 585 648 0
131 -381 -504 0
-149 -28 -654 0
998 -617 384 0
-200 -435 229 0
700 363 -785 0
-901 926 939 0
-192 -806 -812 0
396 998 -891 0
-486 849 341 0
448 417 319 0
952 289 -293 0
258 394 855 0
-353 607 206 0
-474 -213 191 0
-138 267 -873 0
-384 -973 -254 0
-957 -466 89 0
925 755 867 0
