p cnf 200 819
-46 33 -104 0
49 -192 -177 0
-153 -68 159 0
113 26 107 0
126 -145 141 0
-72 -165 -160 0
-138 66 -90 0
-76 24 107 0
124 -11 -14 0
-72 99 -57 0
100 -93 115 0
105 -100 15 0
71 166 6 0
83 110 -82 0
73 -26 80 0
146 -80 -183 0
18 171 128 0
71 108 11 0
-108 142 6 0
18 100 77 0
-129 5 -59 0
12 90 -68 0
83 -44 57 0
151 -35 -150 0
109 -111 28 0
-84 -113 -3 0
77 48 -114 0
11 -142 8 0
119 69 38 0
69 -164 -189 0
174 188 -161 0
-177 -197 -87 0
57 -79 -37 0
100 56 192 0
-195 38 -25 0
157 -18 -101 0
117 -6 -105 0
114 157 112 0
-17 -5 -149 0
-74 -163 -76 0
122 -25 -87 0
188 20 189 0
-90 -78 96 0
-150 107 -127 0
-50 -18 28 0
-174 -66 -19 0
35 -116 98 0
18 -84 37 0
114 -149 60 0
46 -43 195 0
-136 112 97 0
59 -168 -114 0
10 -37 155 0
-85 111 98 0
37 -168 24 0
-170 -18 -33 0
-7 -2 80 0
36 197 187 0
92 160 159 0
-22 19 -155 0
-196 49 -184 0
103 17 179 0
-167 -61 -137 0
-56 107 -8 0
132 124 -46 0
21 134 29 0
-76 -132 -1 0
-187 -160 -86 0
-120 106 -147 0
94 -80 115 0
77 41 181 0
-34 -164 -81 0
74 -105 151 0
153 139 66 0
199 -179 177 0
167 -79 -121 0
33 -101 18 0
-156 -150 93 0
1 183 -195 0
-5 -4 180 0
99 148 132 0
3 100 9 0
69 145 -45 0
172 -77 196 0
174 -99 -112 0
-139 -11 -53 0
132 -151 88 0
126 49 -59 0
167 -78 16 0
-161 -171 -123 0
-69 52 -73 0
-52 -101 1 0
62 81 -139 0
-56 180 -94 0
-134 -7 -14 0
175 -59 109 0
-79 153 44 0
-43 -162 -118 0
5 21 100 0
-53 24 175 0
101 124 -130 0
197 -85 -103 0
-35 -161 119 0
-195 106 -61 0
-151 111 -178 0
80 -141 110 0
127 -119 50 0
80 -86 -67 0
81 -1 -136 0
-145 41 -78 0
34 -200 -119 0
151 -71 109 0
-195 75 -91 0
-58 -135 199 0
-195 31 -32 0
-93 -72 15 0
-43 -158 -36 0
-151 27 160 0
-50 -87 24 0
-161 189 -88 0
120 -172 -145 0
-74 -16 106 0
161 -116 -65 0
187 36 -18 0
-156 25 32 0
10 149 -6 0
-130 -156 -34 0
-17 23 -13 0
121 78 10 0
188 192 180 0
4 -48 -52 0
-116 -2 191 0
87 -171 -16 0
80 96 124 0
-86 173 2 0
-26 -116 -196 0
-45 20 19 0
-55 113 -128 0
-185 81 -59 0
194 -165 51 0
-171 -12 83 0
85 181 -89 0
180 33 -177 0
-94 -123 74 0
-149 33 70 0
123 53 162 0
-120 31 172 0
-35 148 185 0
19 73 -72 0
15 117 -143 0
51 -138 -182 0
167 -190 -114 0
119 -71 5 0
-54 -164 152 0
21 -84 75 0
80 61 -22 0
130 -109 -154 0
185 77 -48 0
103 129 53 0
-96 55 -69 0
192 -65 -98 0
81 -49 -99 0
-7 40 86 0
-146 11 -144 0
-137 168 109 0
-144 88 -149 0
131 142 61 0
-159 -48 -72 0
52 -20 -4 0
61 20 -50 0
178 184 -116 0
-71 -116 -31 0
32 -144 -133 0
-41 181 144 0
172 -133 65 0
137 71 111 0
-76 -170 -199 0
148 -102 170 0
187 95 -178 0
31 9 -62 0
-132 54 -36 0
-145 11 81 0
-86 -106 -101 0
-118 -63 14 0
-148 135 76 0
-26 163 -49 0
-82 -56 172 0
-174 -138 -104 0
-140 196 181 0
-53 -160 115 0
185 39 -171 0
28 68 -132 0
-112 -10 -7 0
-74 143 66 0
-114 30 179 0
-105 -76 186 0
-126 -129 -181 0
-121 -43 1 0
-181 11 63 0
-146 100 -29 0
-63 69 47 0
-67 23 -178 0
51 82 84 0
30 119 -75 0
-93 -113 -24 0
170 42 175 0
128 104 -87 0
184 -195 200 0
-163 -86 80 0
-65 -83 -5 0
-25 -109 22 0
-98 65 -119 0
-168 34 -102 0
176 107 -46 0
81 -87 -149 0
-80 193 -114 0
119 -111 -108 0
-110 -22 -31 0
43 106 -73 0
28 -44 193 0
-9 -42 14 0
197 35 119 0
-142 -43 144 0
79 26 182 0
85 -132 48 0
-108 151 -64 0
-196 66 105 0
102 -108 125 0
168 -158 86 0
-126 -104 86 0
192 -117 -200 0
-177 103 -198 0
-34 -83 -119 0
-67 -31 178 0
-136 -187 165 0
-69 177 -145 0
91 -27 84 0
-109 68 54 0
26 122 119 0
175 -9 -2 0
64 160 127 0
-195 38 -78 0
9 -74 -181 0
-91 57 88 0
-60 -32 -109 0
180 -99 -122 0
138 80 -31 0
119 -35 -75 0
-82 -80 5 0
137 118 -51 0
-164 62 144 0
27 187 171 0
10 47 -185 0
177 -1 160 0
20 75 -134 0
-20 -62 -78 0
-109 -168 -145 0
31 -52 -159 0
-122 61 149 0
130 -40 -104 0
20 100 -124 0
-41 -90 183 0
-185 -152 -1 0
7 40 182 0
-130 -143 39 0
-98 34 -195 0
-87 23 5 0
-155 -70 -56 0
-99 -34 190 0
19 -96 134 0
113 43 -164 0
-164 132 11 0
-139 168 -197 0
37 127 -93 0
-24 117 6 0
13 80 -75 0
142 44 95 0
148 68 -130 0
-178 141 -72 0
-188 -140 -166 0
37 41 146 0
85 -195 -166 0
-165 122 -59 0
-121 173 -134 0
175 -170 84 0
-147 112 105 0
136 185 -110 0
-35 -135 -39 0
166 13 184 0
1 100 6 0
-18 63 152 0
-64 -199 -143 0
150 -126 -28 0
146 -169 104 0
-111 33 -159 0
62 -108 90 0
-173 74 -112 0
67 -123 -110 0
51 -76 120 0
26 -87 -149 0
-9 173 -14 0
-67 -120 18 0
13 139 -195 0
-153 28 -49 0
-100 179 182 0
-27 -126 -193 0
-184 -77 29 0
41 -122 176 0
-62 -164 136 0
-64 163 154 0
120 182 185 0
-192 -160 194 0
62 192 191 0
-134 -190 131 0
-142 114 -127 0
101 118 139 0
21 -181 191 0
178 -65 72 0
124 48 -153 0
-173 -166 14 0
-79 -183 -99 0
-83 126 8 0
111 -96 179 0
134 -57 41 0
10 78 121 0
121 -63 -10 0
-183 129 -29 0
113 -163 103 0
154 -80 -107 0
170 102 -8 0
-96 112 -42 0
82 -39 -179 0
-135 35 -142 0
56 46 -11 0
168 63 -141 0
-23 187 72 0
57 164 -187 0
188 -149 17 0
-139 2 -143 0
-4 -58 64 0
168 -19 46 0
192 -80 129 0
122 -39 171 0
14 109 -95 0
83 12 -45 0
-105 28 99 0
107 184 -123 0
-110 -161 104 0
72 -79 -71 0
-151 -75 113 0
-170 -6 -85 0
192 170 -132 0
-28 47 -121 0
-41 185 -134 0
193 -14 94 0
132 63 -158 0
188 167 -16 0
-160 -42 183 0
-14 96 -16 0
-162 -21 -117 0
125 -177 -15 0
143 56 -146 0
-47 -110 -22 0
24 87 -56 0
117 -132 158 0
-123 156 -95 0
-112 -181 -191 0
-134 34 47 0
146 -67 -44 0
-50 125 115 0
-146 79 161 0
-82 -69 -163 0
49 -133 -174 0
-119 17 194 0
6 -170 -157 0
-161 173 152 0
-73 142 167 0
-101 -151 85 0
120 121 43 0
-112 177 93 0
112 125 181 0
50 -152 133 0
46 -97 -127 0
64 -199 69 0
-75 -161 44 0
-134 -63 173 0
-20 38 196 0
-37 -106 7 0
180 156 80 0
-135 103 123 0
77 106 172 0
-32 99 -114 0
-115 -191 -91 0
-62 185 -30 0
-151 110 89 0
-171 -151 66 0
56 -143 -17 0
16 69 134 0
15 55 110 0
-102 198 7 0
-10 -51 20 0
121 157 -66 0
-105 174 57 0
-145 -93 -119 0
117 -11 116 0
-43 76 -151 0
183 146 -160 0
-139 -91 39 0
62 -198 197 0
6 -58 -29 0
-157 -107 161 0
145 -160 33 0
6 -133 -199 0
111 123 63 0
-65 -67 1 0
-75 -119 131 0
157 190 -165 0
-72 -60 197 0
51 111 -29 0
50 -168 -5 0
-65 -54 106 0
22 -192 -77 0
15 34 156 0
2 132 80 0
-133 37 53 0
-96 187 174 0
154 -49 -152 0
87 -169 155 0
-105 -118 -9 0
-136 -59 182 0
-121 -178 -179 0
101 85 -200 0
-36 54 -149 0
-194 195 133 0
12 135 -74 0
-177 -146 114 0
-156 36 -182 0
193 137 50 0
-60 -33 -109 0
173 -187 -102 0
-178 50 126 0
76 6 41 0
6 -119 -92 0
19 6 76 0
-82 176 -185 0
140 197 -124 0
-175 -161 200 0
25 116 -196 0
-23 147 65 0
-20 121 83 0
108 -30 200 0
180 -160 87 0
-36 113 -189 0
70 14 189 0
-104 -167 -184 0
15 -129 39 0
-81 -157 101 0
-179 170 87 0
-55 4 50 0
109 -122 -125 0
164 -65 -127 0
-3 -107 -13 0
-21 103 -65 0
-28 -6 48 0
61 -181 57 0
-97 150 -29 0
-141 143 128 0
-130 27 -175 0
-18 58 81 0
9 111 -143 0
-62 114 -144 0
52 -72 119 0
186 -68 -151 0
-15 110 5 0
172 73 -94 0
42 50 3 0
145 91 121 0
-191 -121 175 0
-90 114 -38 0
147 -197 158 0
-57 4 -23 0
-179 109 96 0
-84 -35 30 0
83 64 55 0
110 195 135 0
-65 47 -152 0
115 -100 133 0
63 156 -125 0
184 94 -64 0
-106 19 133 0
200 104 67 0
-122 176 81 0
-102 -36 61 0
20 -4 145 0
104 190 -183 0
146 196 177 0
-170 77 64 0
-121 -42 171 0
95 -35 -118 0
3 89 64 0
65 -84 174 0
82 91 -178 0
-123 -29 103 0
64 192 -173 0
-122 -7 100 0
-7 43 -89 0
-33 168 188 0
-89 -29 156 0
180 114 -124 0
-169 136 120 0
126 81 25 0
106 -103 -85 0
-192 108 -47 0
160 -192 -142 0
-129 -128 -117 0
97 79 62 0
196 157 59 0
-26 -64 -53 0
12 -92 -111 0
-114 67 164 0
-123 -168 3 0
-152 26 -139 0
-4 37 5 0
-1 -65 -72 0
135 26 -134 0
9 -21 160 0
-61 34 42 0
-78 -162 13 0
-1 -123 179 0
133 -139 -80 0
-1 -71 -127 0
111 -200 -72 0
-173 -47 -95 0
175 162 -80 0
20 23 118 0
56 -74 85 0
25 -155 -37 0
-135 -172 23 0
54 152 -120 0
-171 -81 -169 0
14 -31 12 0
13 68 -179 0
105 184 101 0
116 -154 -134 0
68 38 -147 0
68 -98 113 0
-137 -145 200 0
-105 -4 126 0
120 -200 3 0
140 -21 108 0
-148 -55 24 0
141 151 90 0
149 115 -135 0
144 -65 80 0
-62 151 164 0
97 -65 46 0
-111 47 144 0
-177 122 90 0
-63 -162 -175 0
-171 36 -158 0
-108 -163 -145 0
106 -134 92 0
-53 152 178 0
138 -39 -198 0
151 -65 50 0
170 119 78 0
35 61 -86 0
-62 90 -15 0
94 -161 -40 0
128 -24 154 0
-74 113 -120 0
143 127 4 0
162 163 196 0
54 -114 119 0
-170 36 134 0
141 122 76 0
85 42 -165 0
-137 179 150 0
38 17 59 0
-88 -137 -157 0
169 -18 -24 0
-115 -124 -85 0
113 -188 -48 0
-132 -104 -11 0
171 131 -34 0
74 61 115 0
12 -87 -83 0
-2 183 10 0
-189 50 -46 0
65 174 -133 0
-186 -39 -199 0
-100 189 -56 0
25 -137 -89 0
145 90 -21 0
-11 88 86 0
-190 154 74 0
-134 -18 106 0
169 173 149 0
-11 111 -69 0
61 -80 108 0
-96 -112 73 0
-121 154 188 0
-145 -17 -5 0
-73 37 -44 0
-107 154 -166 0
88 100 -179 0
-147 -170 -4 0
-45 98 -40 0
-61 -126 -173 0
-147 -191 -84 0
-148 57 175 0
126 177 -2 0
130 125 -103 0
18 -58 -10 0
128 75 -114 0
-31 184 -120 0
23 147 -92 0
191 -46 -108 0
-22 -46 -160 0
86 -13 71 0
150 83 -154 0
25 11 -16 0
130 -122 -196 0
36 -143 -141 0
-116 146 -4 0
-34 -18 -185 0
-153 169 -132 0
183 -107 84 0
-104 71 84 0
95 56 33 0
36 70 51 0
194 -99 -190 0
89 99 -65 0
56 -28 -189 0
133 68 -99 0
-23 33 -114 0
-103 -9 105 0
-105 -31 118 0
126 -111 136 0
-21 187 25 0
-191 117 -68 0
-131 163 150 0
-192 -138 200 0
-192 157 -194 0
67 79 -150 0
52 154 -122 0
99 -15 -24 0
114 -146 -122 0
164 -107 -153 0
113 90 -41 0
-7 34 23 0
101 106 135 0
-139 -85 53 0
181 -36 157 0
-141 -70 72 0
-34 111 186 0
-62 -106 -107 0
179 -16 74 0
-196 186 -133 0
-144 -168 13 0
88 -81 -130 0
-106 164 -143 0
-55 98 -4 0
82 171 -106 0
-197 156 97 0
-9 -28 27 0
157 -75 178 0
72 93 -82 0
155 -174 87 0
53 184 -59 0
-11 36 74 0
19 -57 -10 0
-189 63 -181 0
128 -118 -37 0
132 -125 185 0
-107 -195 26 0
70 -31 107 0
-161 -172 -62 0
44 104 -9 0
200 -123 194 0
179 -107 124 0
-44 -3 -181 0
-7 -169 132 0
-26 -167 -96 0
74 -145 -195 0
24 -130 190 0
-196 -152 130 0
90 55 -197 0
91 -133 -45 0
79 -90 3 0
-163 -52 8 0
-113 -109 29 0
14 184 -192 0
17 67 -60 0
33 -4 -80 0
-200 52 -175 0
121 -89 131 0
-119 -43 -99 0
87 -140 -31 0
58 17 146 0
-78 -121 -195 0
50 -86 76 0
-7 126 -6 0
117 92 -151 0
-51 -36 33 0
90 -31 -177 0
88 188 127 0
-89 69 -190 0
-181 -43 156 0
-38 -9 132 0
40 -92 43 0
-80 -134 175 0
14 -113 -176 0
-161 -152 26 0
-167 -170 10 0
-166 19 125 0
-123 65 22 0
-22 -13 -119 0
-166 -69 -41 0
157 50 145 0
7 -192 181 0
48 -194 -39 0
-174 94 -38 0
-65 -168 -22 0
-24 -36 137 0
-52 173 -34 0
-187 69 71 0
130 -166 124 0
10 180 98 0
27 192 -37 0
15 128 133 0
68 27 -169 0
77 174 -121 0
-100 118 -149 0
-4 -62 70 0
-141 64 -121 0
167 -44 -128 0
-185 113 -188 0
-18 97 89 0
-151 -140 11 0
-190 32 63 0
106 165 -99 0
-68 77 -54 0
-17 -38 162 0
86 76 -192 0
-195 -44 154 0
-139 -8 -101 0
-32 52 -30 0
16 -34 -122 0
-158 -118 161 0
-177 -17 -135 0
-136 46 156 0
45 73 196 0
63 182 178 0
135 192 -7 0
-62 172 -122 0
159 -96 -49 0
100 84 186 0
27 154 147 0
-78 143 6 0
-6 36 141 0
-116 -8 33 0
-58 -71 -85 0
17 -149 -170 0
-190 -172 -198 0
-87 -99 76 0
-147 47 -187 0
144 -119 41 0
157 4 109 0
-186 150 141 0
6 -62 -146 0
-35 103 -169 0
140 -162 -151 0
-176 175 -163 0
-11 -172 -158 0
-28 -148 -171 0
-118 5 22 0
-193 13 130 0
130 87 86 0
54 175 134 0
-54 11 85 0
64 -106 -111 0
86 156 -153 0
106 -4 -158 0
108 -169 -25 0
-103 -24 153 0
-112 146 9 0
191 -61 -105 0
197 -18 199 0
6 16 20 0
11 79 -15 0
-152 -102 -62 0
-76 3 165 0
142 -56 61 0
-31 -6 -104 0
-185 -107 -140 0
-157 8 -196 0
-105 144 -8 0
-200 8 -14 0
-41 48 -25 0
-114 138 177 0
6 -15 142 0
49 38 184 0
133 -161 139 0
88 112 194 0
36 -140 -48 0
26 -145 108 0
-40 2 -164 0
38 -69 -13 0
-139 -120 3 0
78 -130 149 0
60 -137 -194 0
133 155 -73 0
65 -153 32 0
121 -151 49 0
60 9 180 0
37 -141 -43 0
-86 177 115 0
102 104 40 0
