c Modularity-based k-CNF Generator (V2.0). J. Giraldez-Cru and J. Levy
c   value n = 200
c   value m = 560
c   value k = 3
c   value Q = 0.5
c   value c = 10
c   value seed = 8
p cnf 200 560
-83 90 -92 0
-42 -58 -54 0
-37 28 -36 0
-18 -166 -119 0
41 48 -55 0
-101 -68 -42 0
-71 101 157 0
144 151 157 0
180 -103 121 0
-15 -10 18 0
94 184 38 0
-175 170 -180 0
44 -172 123 0
-28 31 23 0
45 57 -52 0
118 104 120 0
137 -138 -125 0
131 116 -59 0
173 -178 171 0
150 15 99 0
-120 104 115 0
-59 115 -166 0
13 5 -11 0
77 -67 -76 0
-130 -142 -63 0
-192 4 28 0
-113 107 116 0
36 152 -162 0
-83 -183 51 0
152 156 143 0
-123 121 -138 0
-141 102 50 0
-100 128 183 0
89 -34 200 0
-76 -39 84 0
173 167 -166 0
178 169 170 0
46 -58 45 0
-191 21 127 0
-191 -133 8 0
157 151 141 0
126 -157 -52 0
9 -11 -5 0
24 148 -187 0
-155 152 -150 0
183 187 -196 0
-131 -129 -134 0
82 89 100 0
130 4 -167 0
-153 -102 162 0
-21 37 -38 0
170 102 -15 0
55 -57 -52 0
-141 146 142 0
-4 -162 -191 0
-104 -106 -103 0
111 -114 -115 0
-190 186 187 0
-58 -53 42 0
-87 -92 96 0
-28 93 111 0
145 -146 156 0
-10 -6 2 0
-68 78 77 0
-170 -124 -93 0
-17 18 20 0
-153 39 -174 0
-175 177 162 0
-190 -185 197 0
-175 -164 -177 0
92 95 -98 0
44 -135 4 0
-177 22 133 0
67 20 -50 0
-115 43 31 0
98 -81 88 0
78 -7 30 0
195 -182 198 0
145 -97 -51 0
-57 -134 13 0
128 137 -130 0
105 -177 128 0
-95 92 94 0
-120 160 83 0
-164 104 93 0
188 196 195 0
184 -181 -182 0
145 -151 -148 0
-185 198 194 0
-146 124 -196 0
-184 170 74 0
-87 -91 88 0
77 79 69 0
-116 171 51 0
-130 -122 123 0
82 87 -89 0
-122 128 -121 0
160 -159 153 0
-161 -162 167 0
-169 -179 161 0
-88 92 -97 0
-175 -11 -59 0
78 -63 -64 0
29 75 -200 0
1 53 -181 0
-140 122 -123 0
-186 -183 -197 0
-59 44 -51 0
-177 167 -172 0
118 142 129 0
-69 -68 -80 0
-35 -40 23 0
-79 71 78 0
-68 -63 72 0
16 4 13 0
93 -8 77 0
149 -152 -143 0
-2 116 157 0
193 -85 -16 0
-49 59 -57 0
21 30 -39 0
139 136 137 0
-181 -153 -133 0
73 175 -82 0
-122 -127 -135 0
190 99 -70 0
79 80 -63 0
122 -16 184 0
-102 -109 -116 0
-175 176 167 0
-186 188 193 0
112 -72 95 0
-11 9 -10 0
-111 46 -127 0
-77 -17 160 0
82 125 193 0
-105 -110 101 0
-56 -164 131 0
-137 -133 129 0
-81 -196 180 0
-27 -23 -31 0
12 -158 112 0
-178 -172 -162 0
140 -137 -129 0
-154 148 158 0
97 -94 95 0
17 -11 1 0
-153 -152 -150 0
-23 179 -8 0
84 153 10 0
-164 -178 172 0
-98 -43 174 0
127 98 -115 0
-60 -104 -97 0
158 156 -146 0
-56 -16 87 0
81 90 91 0
107 -106 104 0
-76 77 -70 0
-105 110 -111 0
138 -130 -139 0
-183 -197 181 0
-42 54 44 0
174 -182 -151 0
148 -31 -108 0
177 173 180 0
-62 66 -71 0
-183 58 108 0
125 -127 -140 0
-149 187 -166 0
69 72 -70 0
19 -15 5 0
-127 -134 131 0
-149 141 147 0
199 128 -9 0
79 -135 182 0
-112 -118 102 0
-46 160 -67 0
159 158 147 0
125 -126 -135 0
104 75 -135 0
106 -108 -103 0
-93 -115 19 0
-98 87 93 0
102 140 167 0
-110 -188 37 0
83 103 -175 0
41 -168 -91 0
-123 134 -122 0
-23 30 40 0
86 189 19 0
-75 72 -76 0
102 171 -124 0
-14 -23 -116 0
-145 147 159 0
101 -106 -104 0
169 -173 180 0
11 133 23 0
170 -111 -67 0
154 51 40 0
-102 -198 -19 0
55 -186 -107 0
161 179 166 0
-156 -158 -160 0
33 38 32 0
183 1 -43 0
89 -70 189 0
198 175 35 0
-29 124 110 0
131 -123 134 0
-66 69 -77 0
158 155 143 0
-78 -89 -111 0
59 57 50 0
-19 11 -9 0
-162 -39 189 0
-152 120 -197 0
74 76 -75 0
-139 -134 -123 0
55 50 -43 0
-142 28 97 0
-97 -83 84 0
10 -18 -17 0
75 -74 79 0
-91 -84 94 0
141 46 -92 0
190 15 -80 0
176 -165 -168 0
-48 -177 127 0
-181 130 -165 0
121 65 82 0
-180 168 -173 0
57 -41 -51 0
190 -171 -59 0
195 -166 100 0
145 142 149 0
-16 17 -19 0
47 2 181 0
70 -77 74 0
-143 -146 -149 0
32 -103 -131 0
15 6 -19 0
138 -123 139 0
-175 -4 149 0
-192 113 -51 0
68 76 62 0
165 164 166 0
68 -21 199 0
18 -3 -16 0
-145 142 152 0
-83 -98 82 0
90 71 142 0
33 23 -24 0
5 104 -175 0
149 145 148 0
161 -81 37 0
-137 -11 -44 0
88 -86 90 0
141 -186 -25 0
-70 67 -68 0
-44 28 195 0
-157 150 -151 0
51 138 -190 0
81 -90 95 0
107 -81 32 0
-79 -50 101 0
-177 -162 -171 0
119 112 116 0
14 11 15 0
40 -23 27 0
108 58 137 0
-149 150 147 0
-187 191 190 0
122 -136 -137 0
194 186 181 0
-7 -17 6 0
-94 89 84 0
-152 143 -144 0
-82 91 85 0
59 19 -181 0
-82 97 -85 0
82 91 92 0
175 161 168 0
-52 42 -57 0
33 -36 37 0
-198 -149 26 0
-22 30 -21 0
-38 53 184 0
1 -13 4 0
8 5 -14 0
8 6 -9 0
-108 171 34 0
37 -35 31 0
184 -11 -85 0
-128 198 -112 0
159 -156 144 0
162 -8 -130 0
73 79 63 0
-172 -177 -163 0
43 103 199 0
-113 -172 63 0
73 -1 52 0
-50 -48 57 0
-13 15 -4 0
-182 -114 170 0
39 23 36 0
89 -96 83 0
-154 -146 -160 0
-96 -100 -90 0
101 -106 -115 0
35 74 16 0
-107 192 42 0
113 164 -92 0
-173 42 130 0
-90 -65 29 0
-86 4 185 0
46 193 -134 0
114 -104 -102 0
157 -110 -46 0
3 -18 -17 0
-34 24 -27 0
-111 -160 -81 0
126 -121 -140 0
-86 176 135 0
-117 -105 -108 0
79 40 190 0
137 126 138 0
56 -84 -21 0
87 -98 82 0
68 -67 -80 0
140 -106 -146 0
122 -125 123 0
-33 17 154 0
-159 25 131 0
22 -30 -38 0
-175 166 -167 0
126 56 -74 0
-78 -63 67 0
36 38 -34 0
-151 145 142 0
-62 165 -38 0
96 -82 -100 0
-146 147 143 0
169 -180 164 0
189 -200 191 0
195 -190 -188 0
44 55 -43 0
11 105 197 0
-135 -32 150 0
39 -38 33 0
168 -177 -163 0
120 112 -115 0
-185 -181 191 0
-108 116 104 0
71 74 -63 0
93 -98 87 0
-152 83 -123 0
65 133 -180 0
-197 -182 -195 0
80 62 78 0
31 -105 20 0
57 -13 -121 0
-34 -10 -69 0
-142 152 -150 0
-5 -44 98 0
-104 141 87 0
132 135 -127 0
-92 98 87 0
46 -65 103 0
143 126 -34 0
69 -11 -92 0
-146 -87 -122 0
-68 73 78 0
-160 51 199 0
-67 1 -58 0
119 -120 -109 0
-163 178 176 0
-165 -164 -178 0
-76 -31 117 0
176 -172 162 0
-199 39 -156 0
168 -169 173 0
133 135 129 0
-2 -4 -6 0
-102 -107 -115 0
-199 -149 -105 0
192 200 -198 0
-191 -184 196 0
162 -148 -44 0
85 83 -86 0
-174 -172 -176 0
-31 -115 -150 0
81 82 87 0
-129 -134 -137 0
156 159 144 0
-46 58 -45 0
-65 142 -17 0
39 -43 -107 0
-175 166 -164 0
-171 179 167 0
-170 -172 -176 0
150 175 -107 0
-171 -195 -19 0
41 111 -150 0
-28 -35 40 0
-111 -114 120 0
170 -179 177 0
-166 179 161 0
-186 185 193 0
84 -94 -93 0
-59 56 43 0
148 160 -158 0
146 -165 -19 0
-73 -197 60 0
197 41 -101 0
-113 42 12 0
21 -40 25 0
-123 -137 -140 0
-10 72 -52 0
-80 108 192 0
46 59 -47 0
181 191 -200 0
-116 109 104 0
-55 42 57 0
60 48 -55 0
125 -76 -49 0
67 -72 -74 0
66 -71 62 0
185 -200 -194 0
-10 -7 -14 0
-117 -60 -88 0
-115 -120 -118 0
-141 146 -155 0
17 8 -3 0
-23 -75 2 0
182 198 -192 0
-98 -41 -117 0
46 60 58 0
-113 142 -164 0
117 -118 102 0
184 -7 154 0
71 -76 66 0
-94 155 76 0
64 -63 76 0
-191 -195 -188 0
-84 136 79 0
177 -175 179 0
17 -19 10 0
-65 76 -74 0
-177 -157 -95 0
-118 108 105 0
60 52 -44 0
-151 -147 152 0
-70 -72 76 0
-151 -158 -146 0
-130 -137 126 0
199 -5 -119 0
122 137 -125 0
163 -161 178 0
72 -43 168 0
-85 90 -92 0
-144 -42 -27 0
-63 75 70 0
-48 151 89 0
-47 -55 -58 0
-52 35 -199 0
151 -19 -98 0
44 -54 43 0
-41 96 -140 0
184 172 -74 0
-124 128 -136 0
-21 -141 110 0
119 26 -171 0
-146 -156 147 0
16 188 156 0
-119 60 -133 0
34 27 -38 0
-158 110 82 0
109 -101 120 0
145 86 -16 0
-47 46 -57 0
-155 -187 -64 0
-28 -31 24 0
129 -11 -189 0
5 101 30 0
-81 105 -166 0
-183 -25 -15 0
-138 124 123 0
-42 12 -190 0
-63 -138 174 0
146 -154 -144 0
47 -41 48 0
-133 -193 115 0
87 -66 146 0
-21 -88 -63 0
85 152 -60 0
-163 -168 -172 0
29 111 -67 0
124 -132 -128 0
153 159 157 0
161 -174 -165 0
26 15 -103 0
67 65 -75 0
109 -23 -42 0
28 -112 -62 0
-135 125 -122 0
109 -104 112 0
-56 -49 54 0
119 107 -118 0
-172 175 -161 0
-142 188 -17 0
-50 -45 -58 0
-1 4 8 0
42 56 48 0
22 -128 173 0
133 134 129 0
-5 -13 7 0
-64 -69 67 0
67 164 -103 0
-100 97 98 0
-182 37 -135 0
134 -38 11 0
41 175 91 0
-197 -192 185 0
157 106 -73 0
59 104 -73 0
76 -104 164 0
-4 1 -11 0
-199 -195 -194 0
-69 -70 -75 0
199 198 185 0
-6 -134 169 0
182 -35 -127 0
-184 -162 -27 0
49 -139 -20 0
-108 -73 -93 0
145 36 -180 0
-83 81 97 0
115 -105 110 0
-126 156 40 0
15 -124 115 0
-54 -53 48 0
-64 36 -196 0
33 183 -123 0
-81 -86 -94 0
152 151 -143 0
-90 99 94 0
129 140 -126 0
113 116 119 0
-27 -1 -131 0
176 -172 -166 0
80 -74 -78 0
40 -35 30 0
70 63 -68 0
-83 -95 88 0
84 85 -98 0
46 145 168 0
-81 88 -86 0
-132 -35 75 0
69 -5 188 0
