p cnf 1000 4150
515 715 -525 0
20 163 560 0
676 -39 -637 0
904 539 244 0
-636 -694 208 0
319 -758 579 0
382 472 -32 0
798 814 -894 0
658 -311 -153 0
553 -301 -735 0
-852 -260 725 0
-164 -767 160 0
684 -352 856 0
-653 180 570 0
719 -586 32 0
-150 -359 413 0
260 -498 108 0
-382 -767 226 0
-175 844 -280 0
456 453 -493 0
366 -317 444 0
-658 -844 279 0
-587 -892 625 0
-506 355 769 0
-401 733 65 0
-468 -37 -286 0
657 723 885 0
80 -1 543 0
840 -143 -296 0
-322 -329 981 0
-693 -136 -484 0
497 -393 627 0
-479 -114 -510 0
922 -825 446 0
-434 168 887 0
7 -494 779 0
-648 172 -307 0
349 -547 -941 0
-714 -39 -29 0
19 -242 25 0
449 50 -439 0
-228 -877 -174 0
-342 -206 254 0
245 20 -464 0
-21 -5 -445 0
-486 -727 121 0
-339 -739 540 0
-573 189 -673 0
336 768 727 0
-772 -708 -870 0
580 -114 946 0
-797 866 -539 0
-247 -750 -493 0
-285 -290 69 0
-156 -931 546 0
996 312 -701 0
-146 -403 875 0
331 -842 248 0
-324 336 21 0
-259 -131 -941 0
-625 241 434 0
-474 699 -920 0
-174 -29 -446 0
-929 -203 -159 0
-571 -398 709 0
938 623 318 0
815 856 -542 0
-282 -620 -736 0
-989 713 -224 0
105 -282 -840 0
-184 -621 328 0
133 -729 939 0
-988 248 -847 0
339 404 -775 0
-37 468 782 0
696 -849 -20 0
-856 -473 193 0
-613 924 13 0
230 834 -652 0
752 -718 652 0
-255 851 -485 0
-233 -345 -877 0
955 -359 -656 0
-885 340 721 0
-734 901 -300 0
-146 -34 843 0
-317 -445 273 0
120 826 400 0
811 145 -607 0
-858 188 -42 0
988 -717 -653 0
-240 139 -811 0
-190 -710 54 0
-92 42 -840 0
582 -776 556 0
235 -426 376 0
-505 704 -925 0
616 45 380 0
252 -184 397 0
-507 222 185 0
-441 -507 656 0
545 532 888 0
196 911 -34 0
683 -664 406 0
376 -10 345 0
334 994 -768 0
-581 -895 198 0
-746 589 649 0
91 -40 -361 0
976 -732 33 0
-887 -305 -769 0
114 -938 -312 0
-326 976 -72 0
801 -441 529 0
405 -307 331 0
-937 905 -984 0
858 -663 926 0
-475 -199 -967 0
-804 -778 708 0
-293 -437 824 0
581 -922 354 0
266 261 718 0
-625 -77 248 0
-65 -242 -894 0
-443 -816 -860 0
-696 -323 -768 0
995 -684 740 0
-384 -162 837 0
-652 330 357 0
-533 390 -76 0
-444 -860 -887 0
138 -954 46 0
-175 491 -166 0
191 91 225 0
551 -296 218 0
125 -437 -362 0
-623 743 595 0
-44 405 397 0
491 -625 167 0
581 129 84 0
-552 221 -922 0
-109 743 680 0
402 984 991 0
497 -523 -719 0
683 -164 699 0
287 705 -548 0
687 -601 187 0
121 390 -151 0
-455 987 338 0
-434 -267 -85 0
399 -823 -371 0
143 -929 62 0
-664 -615 -50 0
852 -661 751 0
552 -463 231 0
134 -259 -6 0
-802 -950 -906 0
-992 -175 539 0
-84 -174 101 0
-974 907 -564 0
874 383 495 0
-86 -89 -817 0
319 -240 88 0
-43 398 727 0
995 41 -215 0
-44 331 -360 0
-641 118 101 0
11 -352 726 0
-599 467 911 0
-355 -785 745 0
-85 -400 189 0
4 -676 526 0
-206 887 269 0
-175 -87 -380 0
144 -59 -502 0
979 172 833 0
-493 421 441 0
-857 -943 -888 0
-196 -604 611 0
-942 -985 868 0
634 -131 598 0
233 691 -301 0
755 -181 -115 0
690 -899 264 0
439 520 717 0
-908 661 486 0
-983 -912 606 0
-310 854 791 0
532 216 816 0
100 808 -38 0
-329 903 218 0
-772 -2 956 0
950 -715 680 0
955 598 -138 0
-314 748 -488 0
414 -717 493 0
39 195 786 0
104 952 -464 0
577 342 310 0
409 -526 -159 0
149 -397 890 0
51 -329 -974 0
806 -815 488 0
870 861 -349 0
765 781 -485 0
218 -232 -780 0
397 146 4 0
524 -285 -166 0
82 -977 -903 0
-20 251 -370 0
479 667 796 0
-190 203 2 0
819 317 -735 0
-780 46 -842 0
101 -83 -309 0
301 -524 -940 0
188 -3 -899 0
-448 62 220 0
460 -556 995 0
-867 589 -732 0
-998 519 -311 0
287 -766 -669 0
299 255 -242 0
-477 227 -979 0
145 -164 36 0
67 -589 -316 0
636 -929 -61 0
-113 -562 -494 0
-109 495 -422 0
464 -187 995 0
-805 5 -302 0
840 261 564 0
-601 302 942 0
-386 576 783 0
-624 -775 -679 0
-454 -836 901 0
956 962 856 0
142 282 215 0
-517 343 -201 0
-792 -285 123 0
295 -429 -164 0
522 156 -640 0
-457 -532 -815 0
237 195 336 0
880 -498 29 0
-691 223 -640 0
217 -665 420 0
78 445 369 0
222 -744 929 0
-583 -941 -823 0
119 486 883 0
-428 -819 940 0
503 150 -185 0
-570 -587 -577 0
841 -612 657 0
-312 128 -290 0
-837 -672 -67 0
-489 -92 -824 0
-350 566 653 0
-237 493 -230 0
-656 576 499 0
-26 331 320 0
-80 37 -778 0
-57 135 -126 0
453 960 -572 0
624 -304 -600 0
-71 357 -441 0
-149 -109 59 0
-944 -409 388 0
713 162 -648 0
-754 168 305 0
-477 -543 -160 0
-388 -990 -398 0
-430 -750 -227 0
-854 996 -865 0
-257 49 559 0
-651 -226 -104 0
-506 378 -805 0
-754 -710 -154 0
933 313 -230 0
-515 229 745 0
-655 -713 489 0
-767 447 874 0
-422 -263 -379 0
705 -39 605 0
164 63 -982 0
-702 411 856 0
-879 251 914 0
-323 506 -601 0
-168 -157 -822 0
336 530 -513 0
-381 528 830 0
-249 -464 547 0
372 -209 132 0
-969 705 -29 0
-958 -369 868 0
-512 71 -674 0
-42 493 -63 0
-838 679 741 0
-7 -347 -389 0
426 -182 362 0
977 -878 -877 0
981 925 -113 0
883 470 573 0
939 461 330 0
-766 -327 937 0
-184 549 337 0
940 89 82 0
-382 -995 -476 0
76 23 -702 0
257 -358 712 0
-159 794 559 0
482 364 -616 0
-591 617 656 0
546 135 509 0
215 260 55 0
361 -369 -998 0
-133 655 10 0
-19 321 328 0
545 -698 934 0
-340 -374 382 0
707 83 -771 0
-902 -193 641 0
-849 619 -875 0
509 -220 -70 0
373 159 109 0
-710 575 506 0
-17 -625 758 0
459 -300 938 0
780 -255 880 0
-976 -350 121 0
648 -743 67 0
754 503 114 0
-180 -660 774 0
111 136 -433 0
748 179 532 0
30 714 304 0
847 974 908 0
101 780 -226 0
-322 689 290 0
-335 -746 455 0
-741 245 -105 0
-452 -838 792 0
-133 -783 -668 0
301 -590 401 0
679 -897 -159 0
-612 33 918 0
-894 901 137 0
170 973 -20 0
-141 672 -163 0
-298 446 750 0
-951 -938 893 0
-543 137 -489 0
687 484 -302 0
-860 498 161 0
-646 76 653 0
-256 -250 -446 0
-70 75 -788 0
712 -527 -101 0
656 607 -789 0
716 170 46 0
816 589 551 0
-544 -304 -559 0
523 431 -305 0
-25 -715 92 0
925 498 -31 0
-238 593 239 0
-53 -739 -854 0
817 549 -364 0
-437 116 120 0
123 -907 -607 0
-946 -947 434 0
597 -78 -30 0
762 132 -651 0
-118 336 -153 0
568 -35 -969 0
-334 -280 -472 0
654 -603 714 0
-624 -12 325 0
-418 847 866 0
-117 -123 -796 0
101 -856 910 0
-48 -359 -903 0
-205 -590 -614 0
418 -12 423 0
-361 939 -989 0
13 -723 243 0
616 996 -912 0
95 -514 919 0
735 844 664 0
22 -124 934 0
-606 -931 296 0
-314 -551 -183 0
417 588 -315 0
-437 -169 -665 0
-574 -585 -598 0
-986 -83 934 0
382 928 -49 0
820 904 -605 0
-732 207 986 0
160 -717 -566 0
-389 -371 -319 0
76 -815 8 0
621 -883 339 0
-182 166 947 0
988 955 998 0
-130 -341 -202 0
-767 2 -260 0
-536 -28 512 0
178 434 -614 0
-505 -520 430 0
443 831 506 0
343 -267 -880 0
916 794 976 0
-581 217 400 0
892 822 -416 0
-539 -174 322 0
-878 -894 -249 0
-70 -86 307 0
-391 665 -473 0
-711 617 -631 0
691 146 -509 0
-741 499 -51 0
-667 828 519 0
273 124 374 0
-57 -351 323 0
620 -799 -530 0
81 -200 -147 0
376 -248 -296 0
170 -917 -890 0
-972 -814 376 0
509 558 266 0
-400 900 -753 0
-73 -109 -487 0
-972 550 -386 0
-332 963 133 0
903 -571 -940 0
499 -962 -889 0
393 -714 -970 0
-393 985 568 0
956 -317 926 0
628 755 329 0
970 -350 418 0
-944 -493 774 0
798 950 945 0
-197 -881 251 0
-75 -342 765 0
874 300 -727 0
-706 -885 -544 0
730 789 697 0
712 151 451 0
601 148 -962 0
326 702 -503 0
-704 -323 -119 0
643 850 127 0
-902 -819 -220 0
528 -139 976 0
646 77 -527 0
-20 724 414 0
901 -510 34 0
512 241 -227 0
-957 417 -162 0
499 443 263 0
840 -918 13 0
215 803 -510 0
-26 -362 618 0
-234 -863 -657 0
-666 789 -594 0
-884 55 -129 0
-116 -11 161 0
426 633 134 0
126 494 -308 0
-706 753 -605 0
-386 206 -849 0
-732 789 -666 0
-820 70 -736 0
321 -525 602 0
-181 -153 940 0
-527 881 -955 0
-974 79 -977 0
869 226 -293 0
81 728 144 0
548 358 543 0
-153 809 -938 0
843 -913 201 0
779 -24 512 0
674 -743 -179 0
831 -885 674 0
-393 414 -979 0
875 -767 453 0
298 516 -465 0
732 -855 -303 0
-953 803 645 0
216 85 849 0
229 -733 -529 0
-847 306 190 0
608 234 -281 0
-141 -117 -148 0
-229 935 -101 0
731 722 -737 0
840 397 980 0
961 -942 -956 0
898 938 -509 0
-290 442 -558 0
-420 665 375 0
-872 -748 -710 0
-637 -579 -281 0
-657 -997 -643 0
462 423 -777 0
-619 -900 -406 0
-428 -895 20 0
470 102 822 0
-686 544 223 0
-564 -741 303 0
395 -310 721 0
263 264 258 0
-487 -492 495 0
460 699 -8 0
345 986 -473 0
925 631 -454 0
838 -472 -482 0
637 973 214 0
-363 -557 737 0
401 350 476 0
265 -793 368 0
-966 -280 -777 0
642 -956 -167 0
-579 673 384 0
-854 -321 -105 0
238 414 711 0
-444 475 789 0
-775 413 105 0
537 279 614 0
-233 979 -288 0
-287 -467 780 0
604 372 -909 0
-30 -237 657 0
796 -136 659 0
600 645 149 0
161 888 -128 0
-407 998 -630 0
411 -762 65 0
778 196 507 0
-331 423 842 0
416 447 -194 0
-991 347 -140 0
-831 888 -334 0
-533 795 498 0
717 29 -199 0
-442 -26 919 0
518 561 947 0
3 -572 -496 0
-979 209 826 0
-650 -493 -925 0
-737 -666 785 0
624 734 -589 0
-905 -815 -111 0
527 -24 356 0
473 744 -109 0
844 -965 -548 0
-273 279 200 0
678 223 134 0
-145 309 -2 0
-433 -131 -969 0
-845 485 856 0
537 -744 96 0
-212 392 263 0
-21 -320 764 0
-478 450 957 0
518 341 368 0
631 -495 456 0
-796 -626 -880 0
32 -452 -203 0
250 -736 -411 0
-364 242 884 0
985 108 -800 0
472 -297 505 0
-642 799 149 0
634 -988 -310 0
-845 -131 515 0
-935 129 -100 0
-382 -63 -735 0
-962 771 -73 0
-247 152 -481 0
-839 -112 324 0
-775 -810 776 0
15 917 999 0
-397 -206 655 0
-289 -290 497 0
851 89 180 0
326 205 -828 0
-2 -780 -688 0
-366 -570 -427 0
-862 319 64 0
-908 -682 582 0
293 -707 58 0
2 611 298 0
-721 -892 -510 0
-540 754 -662 0
-757 310 699 0
-863 938 643 0
304 405 280 0
-194 -692 368 0
-793 180 -715 0
141 -751 772 0
-877 535 -171 0
-360 660 -61 0
854 -699 -45 0
-177 741 -318 0
-242 -578 -801 0
-82 86 -891 0
-887 12 -81 0
-859 -93 -719 0
212 -867 -723 0
-766 343 -158 0
-989 -244 -741 0
855 -484 -419 0
-804 971 116 0
735 949 -258 0
-276 692 -65 0
859 923 -339 0
648 626 -131 0
628 522 28 0
-383 -783 -763 0
485 443 -691 0
602 339 653 0
510 -53 -896 0
-523 216 471 0
209 -311 -572 0
-22 260 266 0
-181 -101 95 0
137 -762 -229 0
798 999 -891 0
971 794 619 0
292 -821 -251 0
-378 -478 863 0
35 856 -480 0
-825 175 -55 0
734 161 -736 0
-467 869 85 0
-94 736 -648 0
748 -346 318 0
65 -56 427 0
608 61 -967 0
-64 839 634 0
72 -871 -899 0
263 790 927 0
-642 -665 670 0
-892 955 -154 0
-640 756 724 0
-302 210 154 0
-653 341 -820 0
345 938 -423 0
739 -488 90 0
164 260 136 0
528 498 -945 0
507 817 -257 0
-644 229 -740 0
-140 282 379 0
-851 977 729 0
-745 -268 -703 0
-440 -50 332 0
170 493 -993 0
-113 -688 -973 0
838 876 727 0
468 -461 304 0
728 318 85 0
92 202 -855 0
524 428 238 0
717 526 575 0
-468 940 -547 0
-217 -893 -547 0
-195 -823 234 0
-79 -244 218 0
-152 120 838 0
118 -640 293 0
-953 852 29 0
462 507 702 0
-584 815 214 0
-58 -713 -148 0
-978 510 101 0
789 494 -860 0
-614 -518 974 0
-714 65 885 0
747 4 -212 0
838 -693 722 0
-549 -899 -183 0
-323 -936 291 0
811 415 -76 0
108 471 355 0
-53 931 898 0
74 82 30 0
-939 723 -149 0
8 -859 -440 0
-801 -897 -754 0
678 -921 548 0
-720 710 2 0
964 -598 -452 0
-434 -563 -136 0
-118 -546 676 0
-596 447 -834 0
514 -820 -307 0
-618 -846 -366 0
782 164 -163 0
-865 -846 -707 0
-288 485 524 0
335 108 -631 0
501 -850 914 0
-701 908 -687 0
-715 433 -101 0
546 -753 -594 0
696 -294 98 0
-139 681 788 0
-419 -665 809 0
364 270 548 0
744 -196 967 0
-326 773 -400 0
-1000 -222 -319 0
10 -12 -260 0
-83 505 -479 0
457 -466 -371 0
5 -981 252 0
556 -177 -575 0
-533 -847 -276 0
122 623 972 0
673 -692 679 0
744 -714 -521 0
720 -74 131 0
67 773 -389 0
-810 752 -300 0
-824 780 -799 0
576 -260 -527 0
-596 820 -275 0
-507 537 464 0
-605 58 541 0
-255 -540 781 0
677 190 -189 0
-72 605 -534 0
707 799 -12 0
549 856 513 0
523 -795 802 0
950 193 891 0
939 -913 638 0
-453 -698 -703 0
120 919 503 0
-664 822 309 0
66 -277 -411 0
371 -458 989 0
-640 -34 -933 0
-206 -396 -340 0
-682 281 -353 0
-46 -11 842 0
936 712 592 0
121 -161 327 0
-81 449 921 0
552 -925 -280 0
-569 -622 7 0
83 16 -261 0
-427 -197 -860 0
-820 -615 378 0
-589 763 -252 0
249 -488 -48 0
-770 121 -327 0
-941 37 -214 0
-572 253 -71 0
60 689 293 0
-893 -515 385 0
-796 515 126 0
732 880 146 0
-730 -741 327 0
-840 424 481 0
-760 871 -973 0
115 -916 741 0
536 -226 -38 0
436 550 862 0
734 -383 722 0
59 -627 -100 0
-144 -164 -883 0
-788 -618 -325 0
-825 634 -324 0
-855 -957 217 0
487 531 404 0
-473 -571 -840 0
955 1000 -373 0
-846 -568 -77 0
554 79 539 0
513 850 913 0
-44 -195 353 0
-995 -394 372 0
738 -653 -367 0
-743 -65 -17 0
808 918 -919 0
-543 296 776 0
309 -117 -947 0
339 78 112 0
452 -593 -895 0
-328 844 857 0
216 735 18 0
376 -84 583 0
285 -308 -738 0
358 -677 356 0
-265 -474 101 0
-146 -586 553 0
297 -991 669 0
938 -196 655 0
255 670 692 0
-389 912 -11 0
-922 -961 -76 0
498 -604 -135 0
872 -519 535 0
-615 -287 720 0
689 596 437 0
925 -917 461 0
-66 393 395 0
923 -905 -404 0
-308 800 -8 0
-854 899 131 0
-644 -761 918 0
-915 -585 83 0
-788 -946 -461 0
-898 -271 370 0
-339 448 789 0
-278 267 -136 0
-161 979 757 0
65 222 299 0
428 64 461 0
-797 117 -87 0
369 -528 674 0
-566 -153 -96 0
596 -273 -658 0
237 949 -794 0
384 -63 237 0
421 35 614 0
495 991 706 0
-976 29 803 0
223 -398 325 0
550 -809 675 0
738 227 318 0
829 191 955 0
-373 -14 -266 0
-366 -480 9 0
521 -181 608 0
-352 -673 857 0
90 270 -842 0
985 660 -988 0
-864 -53 -863 0
-145 -409 -272 0
-3 -819 177 0
-288 205 -751 0
119 406 -913 0
-684 -861 -476 0
274 -493 -388 0
-487 9 719 0
-838 511 179 0
731 499 911 0
-583 -85 439 0
62 784 551 0
-711 363 300 0
623 -515 -569 0
110 -557 670 0
-213 -552 140 0
-738 -219 904 0
-355 406 -422 0
-148 -865 -262 0
-748 -896 410 0
932 132 -827 0
-714 21 -799 0
68 392 748 0
-381 -780 931 0
-340 705 -780 0
-276 797 212 0
-75 -123 956 0
250 974 -513 0
-573 -834 233 0
-735 254 -77 0
783 -113 434 0
-810 -615 -785 0
-226 757 -401 0
-587 -336 580 0
132 -242 218 0
879 -182 574 0
-853 -903 -310 0
45 -354 3 0
533 925 -783 0
303 221 402 0
-234 636 822 0
-335 222 -742 0
885 -352 -731 0
-817 211 680 0
-530 118 238 0
640 -41 325 0
-754 -143 603 0
431 -714 -272 0
585 463 -815 0
-743 540 253 0
-720 750 738 0
99 -810 344 0
-369 -658 318 0
-223 -349 946 0
-385 -805 696 0
862 -180 -330 0
162 615 826 0
-470 -236 -350 0
687 -42 45 0
982 583 -788 0
133 173 273 0
883 660 -632 0
212 242 165 0
-836 -321 673 0
-766 368 383 0
-753 872 172 0
-101 603 -480 0
-180 -33 199 0
106 582 -252 0
738 -319 -928 0
874 683 -223 0
-576 -818 -312 0
491 961 546 0
-454 211 -756 0
-285 -427 922 0
-782 -52 860 0
410 -53 -588 0
9 -564 445 0
7 -544 -783 0
382 -348 -632 0
951 808 -350 0
10 -774 -836 0
895 -315 633 0
996 349 -839 0
-274 -140 210 0
-566 126 203 0
691 905 -19 0
-871 -993 -841 0
778 -122 -889 0
651 -762 -430 0
513 -192 -854 0
-682 49 287 0
-130 667 -263 0
509 508 -74 0
-540 -417 -535 0
-294 -64 -44 0
606 -166 770 0
571 208 553 0
443 718 -391 0
-951 -58 641 0
840 -853 544 0
-107 61 917 0
-628 -640 -847 0
530 -617 501 0
809 564 -712 0
-61 -444 -866 0
-247 895 -959 0
-185 139 953 0
484 876 -50 0
372 583 -665 0
1000 -707 -981 0
370 -141 -331 0
-930 -763 -456 0
-553 -122 -702 0
-947 623 -343 0
401 -738 275 0
-210 810 -595 0
-66 -912 36 0
181 582 -128 0
642 240 -470 0
-807 -427 930 0
-918 -302 541 0
-885 341 -931 0
553 871 843 0
-261 660 -110 0
585 117 192 0
-168 688 25 0
590 -165 -636 0
528 -457 21 0
-936 -656 631 0
225 -553 -506 0
164 -674 -872 0
-406 -722 763 0
-393 505 261 0
-501 786 450 0
-622 557 -305 0
-681 34 -700 0
515 -624 -140 0
597 101 166 0
-799 781 -466 0
-990 -728 663 0
517 -101 -191 0
781 726 21 0
464 217 868 0
-612 230 -392 0
371 762 -650 0
87 -456 -777 0
-214 -607 -285 0
581 334 -212 0
963 769 -502 0
654 -131 -237 0
451 149 888 0
581 -727 178 0
-424 373 417 0
161 732 528 0
-764 215 -826 0
-839 183 109 0
-586 817 -98 0
-211 39 162 0
-765 -815 -365 0
571 351 6 0
10 -239 741 0
-616 -810 -339 0
-980 755 728 0
532 410 -683 0
785 -876 -443 0
-168 -990 -712 0
-384 165 -32 0
-455 331 364 0
-489 -537 -679 0
-784 -387 300 0
979 972 524 0
866 678 505 0
565 32 344 0
263 -638 -869 0
286 -957 -33 0
609 -289 627 0
596 107 -187 0
-362 -854 -448 0
-626 452 -30 0
-792 565 -569 0
-586 -322 -532 0
226 -783 -382 0
584 70 630 0
-949 -799 -388 0
991 -369 981 0
858 13 543 0
-587 -59 -627 0
-58 -259 389 0
-839 -911 895 0
427 -190 -629 0
849 974 996 0
-147 -660 421 0
32 -762 45 0
-148 -380 -759 0
-883 -219 -694 0
-87 -26 -550 0
616 876 775 0
359 653 -207 0
336 697 637 0
674 -945 91 0
349 869 946 0
-91 544 263 0
-110 -931 7 0
847 -531 25 0
198 193 769 0
-586 -886 606 0
444 -366 481 0
-944 819 -654 0
-224 -337 -949 0
368 249 347 0
-589 65 940 0
683 -875 -555 0
-855 483 -881 0
554 180 158 0
679 200 -155 0
975 721 -543 0
-347 -533 255 0
-145 450 -53 0
522 -336 -583 0
840 701 -153 0
928 -336 349 0
269 -755 950 0
-714 259 492 0
456 -35 920 0
150 692 432 0
-700 232 207 0
866 340 95 0
-712 175 -164 0
-992 -515 240 0
101 -878 -250 0
939 -458 -721 0
-562 648 -489 0
464 33 -943 0
275 -628 -94 0
357 591 -968 0
810 755 585 0
697 -750 78 0
630 649 -652 0
108 -668 551 0
-892 475 931 0
315 -752 -222 0
-113 396 -269 0
-741 -537 237 0
680 -182 -902 0
748 -409 558 0
225 504 440 0
762 -728 66 0
-74 -331 122 0
134 -500 892 0
-886 -135 -222 0
-655 -983 16 0
-896 902 -306 0
-378 500 -463 0
-672 156 -610 0
926 -425 -616 0
-134 -38 -191 0
-39 430 636 0
-581 -223 -477 0
755 892 748 0
-845 932 488 0
-68 273 492 0
832 -708 612 0
508 -313 640 0
-169 -586 -306 0
714 -525 -569 0
316 926 600 0
847 -842 356 0
-695 -247 973 0
642 998 751 0
-618 -544 -372 0
117 -139 753 0
809 -906 349 0
784 -819 912 0
701 -421 -364 0
850 611 840 0
-473 -589 -533 0
909 -813 713 0
347 453 787 0
282 -5 596 0
60 958 -59 0
-727 -356 -705 0
-345 -752 653 0
466 763 -479 0
-338 -184 306 0
-744 957 -382 0
905 602 -864 0
485 441 -262 0
729 -724 -404 0
-428 166 148 0
928 150 578 0
791 277 376 0
213 325 -15 0
-797 -485 799 0
-37 632 -452 0
918 -472 -111 0
-371 727 -421 0
662 -718 391 0
-623 723 -14 0
-389 -609 -665 0
-418 315 -268 0
119 -491 878 0
-945 886 195 0
296 -186 -929 0
287 480 396 0
199 -334 -985 0
-175 442 963 0
-747 283 -520 0
-204 333 120 0
-205 -62 -75 0
240 -943 -879 0
229 293 871 0
416 179 -609 0
30 -556 -344 0
-821 540 185 0
527 -912 325 0
-256 -357 -899 0
-979 -68 701 0
619 -483 471 0
-271 -7 -224 0
-316 378 -524 0
-136 -325 157 0
118 -79 -635 0
522 -86 138 0
648 42 986 0
356 880 -924 0
-174 779 -96 0
148 -261 -641 0
301 698 232 0
393 -693 230 0
149 869 -984 0
134 702 -933 0
-746 274 333 0
-141 -299 -944 0
-405 -667 -847 0
-209 -152 772 0
205 91 -998 0
-57 247 -52 0
264 -814 327 0
-786 263 -792 0
-590 -796 860 0
90 -67 1 0
487 -308 851 0
795 182 -364 0
-812 -954 923 0
903 353 -70 0
252 98 -604 0
-275 361 -116 0
395 -54 -947 0
540 -562 190 0
205 196 -383 0
-164 349 483 0
739 -448 -878 0
235 -991 -918 0
-980 853 109 0
989 -236 558 0
872 25 -475 0
85 55 -942 0
-883 223 -436 0
850 833 866 0
-472 236 341 0
-938 -115 -528 0
-323 -575 -567 0
-505 -391 770 0
-251 663 637 0
-369 -339 711 0
811 -758 805 0
148 -826 634 0
-358 -773 -167 0
-192 -122 -543 0
841 723 229 0
-324 -533 997 0
-139 -307 -544 0
720 564 1 0
489 -71 -963 0
150 -378 -248 0
-966 766 -943 0
525 -877 230 0
820 -17 566 0
273 -538 332 0
-989 100 538 0
46 411 -591 0
-467 255 234 0
73 327 -465 0
774 -498 410 0
-575 564 -113 0
-778 -877 -307 0
25 474 -386 0
724 -838 -419 0
-11 -653 -215 0
-93 -873 171 0
-425 91 671 0
-160 678 -50 0
-948 971 -480 0
907 846 -847 0
46 82 -326 0
947 612 421 0
-642 724 712 0
-317 -375 -701 0
70 -649 -234 0
981 -228 509 0
-223 -623 -495 0
-282 -595 783 0
-644 252 -886 0
-750 661 155 0
465 106 -722 0
47 143 -371 0
-75 -899 43 0
590 -587 -440 0
983 -480 -961 0
-385 -892 -477 0
85 -595 -874 0
187 -222 107 0
806 -977 212 0
-650 -16 -855 0
724 -872 662 0
626 516 525 0
-487 736 344 0
236 493 142 0
-448 414 -774 0
978 -494 980 0
866 714 245 0
-92 337 712 0
46 -688 -102 0
-389 -768 -819 0
281 713 467 0
709 356 931 0
-118 -300 4 0
-948 617 577 0
415 -496 232 0
911 875 -566 0
-557 -270 259 0
40 447 65 0
928 -712 -379 0
-615 103 224 0
105 613 -210 0
-630 -237 365 0
48 137 -827 0
932 -689 -359 0
123 729 -807 0
-891 -590 -282 0
-532 462 -712 0
-232 472 565 0
-769 -393 929 0
-446 -42 -332 0
-335 -223 192 0
812 90 -316 0
-928 -175 775 0
-458 617 691 0
152 -867 -423 0
-868 439 -125 0
833 275 883 0
-217 541 -718 0
-786 -524 -463 0
359 -839 622 0
968 -489 -836 0
745 -708 -177 0
-272 -809 -877 0
528 -988 -665 0
-799 -188 815 0
478 -286 672 0
-447 645 704 0
364 264 549 0
212 222 139 0
-377 -516 525 0
-808 -834 -44 0
-337 -461 -785 0
204 -61 -317 0
275 -224 998 0
238 875 109 0
-790 580 -745 0
332 645 -227 0
-79 891 135 0
443 920 604 0
-770 325 -288 0
190 806 395 0
-994 -955 -136 0
725 325 152 0
-82 -458 -838 0
-213 199 -392 0
475 20 870 0
40 776 924 0
-599 -575 -835 0
-629 -178 -835 0
-692 630 -120 0
-881 207 779 0
-381 798 37 0
628 -60 857 0
879 573 359 0
222 679 -127 0
-162 -919 -59 0
-549 -16 -52 0
347 -64 281 0
448 -792 637 0
-142 811 958 0
-867 -652 -780 0
-91 500 -485 0
-912 491 -423 0
-399 -516 457 0
342 -269 309 0
-307 -83 -690 0
-738 995 -876 0
630 -545 -997 0
46 570 -501 0
-178 119 296 0
-219 44 -80 0
-332 -387 -681 0
-329 498 -102 0
304 -405 331 0
680 -8 171 0
-409 -831 -551 0
898 155 -873 0
-940 64 255 0
-871 -86 686 0
-436 -487 -838 0
-625 788 -385 0
-478 935 -96 0
42 202 472 0
-345 498 999 0
785 873 -713 0
167 -164 486 0
526 -436 654 0
752 -181 -855 0
15 613 140 0
448 -972 238 0
-498 510 271 0
-832 -734 479 0
-414 -676 331 0
-252 -713 91 0
438 420 970 0
-289 105 -484 0
-823 -862 -551 0
-572 -246 890 0
-685 303 438 0
-462 -15 -717 0
701 -691 -320 0
-608 -224 -151 0
37 827 -267 0
45 732 -839 0
375 -250 -838 0
-208 -638 -411 0
-739 -827 116 0
-329 -111 -274 0
621 650 -991 0
6 711 -210 0
-410 583 -362 0
989 11 8 0
-737 -884 395 0
-310 426 927 0
-883 339 322 0
-893 133 25 0
986 50 -627 0
350 715 615 0
-316 516 -761 0
638 -635 521 0
876 -391 -800 0
502 -316 755 0
526 -693 403 0
141 260 -915 0
244 2 420 0
-370 -636 -989 0
407 793 678 0
266 -773 91 0
349 136 223 0
-566 -723 930 0
526 136 -580 0
916 27 -806 0
388 -809 -1000 0
-667 537 920 0
814 302 -13 0
472 236 126 0
-173 -633 609 0
878 702 -94 0
861 681 -166 0
67 880 -646 0
-619 653 952 0
-819 -904 514 0
-651 598 -415 0
545 517 645 0
21 -291 881 0
-292 -725 -355 0
-386 872 -148 0
294 449 -230 0
-763 -681 -646 0
464 -490 997 0
787 561 -346 0
-88 -42 461 0
-979 -392 -525 0
-388 662 -617 0
354 84 678 0
18 -60 234 0
393 -67 -418 0
-214 -885 406 0
-863 160 -414 0
-857 -844 -158 0
109 435 -555 0
-620 911 497 0
842 -168 920 0
-378 29 -956 0
-787 -83 -70 0
-666 -12 -970 0
-790 -902 422 0
558 182 282 0
310 854 -450 0
395 -553 287 0
-70 71 510 0
903 -524 729 0
-777 -289 -304 0
-76 793 13 0
994 455 825 0
-336 -87 140 0
569 322 578 0
-388 -581 246 0
-759 -684 -44 0
-114 -277 330 0
945 928 -410 0
-98 905 -842 0
750 806 -734 0
-600 -405 448 0
-81 -363 -236 0
937 -88 133 0
-244 -481 717 0
549 324 -774 0
-439 124 -315 0
-806 300 -548 0
-534 -13 -891 0
38 735 469 0
817 498 -556 0
-597 -780 -173 0
257 -642 -319 0
-342 -890 748 0
-981 611 168 0
-894 298 406 0
-818 -45 -963 0
-975 -456 344 0
337 769 534 0
775 593 404 0
-512 -891 626 0
104 141 -96 0
-11 374 -984 0
183 489 243 0
-878 -65 -872 0
-181 -923 882 0
496 -984 -629 0
-875 -569 -901 0
-135 264 212 0
408 150 -457 0
-5 -172 203 0
208 -713 -890 0
-841 -164 -187 0
427 871 923 0
-773 854 -525 0
-41 -954 -336 0
-95 33 869 0
879 -321 677 0
-157 581 -125 0
-733 -111 -722 0
-462 568 -84 0
643 -209 -178 0
216 -904 685 0
-671 -984 327 0
-777 8 -897 0
-450 864 -517 0
278 719 333 0
-288 470 926 0
-81 -75 -984 0
516 -754 559 0
697 -517 -233 0
999 -969 -477 0
332 513 60 0
-808 293 903 0
620 -368 -783 0
92 -575 -778 0
35 637 727 0
919 613 522 0
-701 541 -104 0
400 -70 -384 0
945 209 -975 0
332 -21 431 0
588 912 622 0
-325 -615 -895 0
631 -129 924 0
640 -911 560 0
723 -614 696 0
-128 -231 915 0
970 -78 354 0
311 -779 -245 0
129 86 472 0
536 -535 -341 0
85 458 -877 0
990 730 330 0
-314 -255 -658 0
-846 497 -426 0
124 -502 368 0
-793 482 516 0
929 -192 599 0
-125 546 45 0
981 -401 -647 0
452 819 -173 0
-307 -801 -613 0
530 -248 -607 0
-870 -973 843 0
-985 -856 -903 0
228 -915 -875 0
102 -430 -372 0
860 251 715 0
100 -22 -923 0
327 740 797 0
-86 848 429 0
-566 -236 257 0
132 -914 -322 0
672 -466 -253 0
688 -118 468 0
-985 920 -793 0
-610 -686 -264 0
124 -398 117 0
317 -55 -858 0
649 -514 -558 0
-232 382 -780 0
132 198 66 0
-55 -486 -514 0
-700 -982 125 0
994 12 -989 0
-401 610 -412 0
28 -141 425 0
287 -83 -450 0
-447 -95 -805 0
-539 911 131 0
-187 -468 -137 0
866 125 642 0
429 -845 654 0
948 626 222 0
189 826 611 0
644 611 -977 0
375 408 422 0
851 -995 141 0
-837 118 -954 0
-106 864 917 0
-260 -155 262 0
652 -311 -677 0
366 -58 -678 0
471 -850 883 0
580 67 -724 0
-953 -698 -244 0
-633 -763 -571 0
23 -51 -492 0
199 -965 420 0
297 698 99 0
184 -366 770 0
-621 490 695 0
-239 -788 -839 0
634 -94 -647 0
685 156 -753 0
460 -498 -977 0
-87 49 415 0
-816 -46 -509 0
-946 -578 -90 0
816 -862 -166 0
-386 -526 -614 0
-484 -90 37 0
878 65 -396 0
-521 363 -201 0
252 -909 166 0
348 -728 -293 0
-377 -79 -250 0
-988 783 875 0
333 888 945 0
-286 649 -160 0
383 -843 -698 0
61 274 297 0
82 231 297 0
762 -170 659 0
502 908 -288 0
-927 879 282 0
255 -413 -303 0
946 14 3 0
-140 597 -253 0
459 -674 -562 0
977 884 221 0
-318 -769 -2 0
946 -912 -880 0
-886 128 620 0
-457 2 -964 0
594 302 907 0
-154 -334 -56 0
894 720 -246 0
137 -691 -952 0
-573 315 -172 0
472 -786 477 0
913 751 814 0
-336 -179 570 0
-443 -780 658 0
-896 -518 -556 0
-480 613 552 0
-750 351 -746 0
-444 113 993 0
86 -621 -617 0
551 622 -226 0
157 973 721 0
-552 -107 -611 0
-996 -383 -612 0
-93 358 -810 0
634 -661 351 0
-395 834 -838 0
-229 67 -532 0
430 -379 -382 0
-7 -38 -901 0
-572 221 -337 0
408 -696 308 0
-102 -39 -232 0
751 611 -116 0
710 577 -928 0
-784 771 -405 0
702 -374 327 0
-989 -865 893 0
-929 470 815 0
727 -309 932 0
-788 -914 195 0
54 -928 -764 0
-290 189 851 0
807 -108 294 0
-188 181 536 0
200 45 368 0
119 573 -719 0
-966 -943 -97 0
-136 264 603 0
-791 680 -281 0
-120 -441 -900 0
-380 480 459 0
-211 373 555 0
-423 -144 708 0
987 -675 -13 0
663 -747 -325 0
-508 600 536 0
857 795 260 0
-6 -309 -704 0
-894 988 -562 0
171 -761 665 0
620 770 -527 0
-578 726 -386 0
-649 -394 -570 0
959 125 432 0
638 -587 237 0
-13 347 479 0
663 -847 -765 0
842 757 -154 0
-899 319 -482 0
-93 -962 720 0
912 285 675 0
734 -109 186 0
252 872 701 0
-572 946 -610 0
-801 -811 451 0
627 -459 -709 0
-145 763 851 0
870 -166 832 0
134 -407 -505 0
-411 615 282 0
-703 -914 -331 0
296 64 -710 0
-503 -475 -402 0
-937 -762 810 0
204 962 423 0
12 667 592 0
-18 451 -486 0
-258 -256 -556 0
-662 879 895 0
75 713 506 0
134 -203 758 0
-390 -63 -553 0
-430 872 -778 0
-623 353 -928 0
231 -86 -106 0
-630 -917 870 0
729 -216 -865 0
976 -808 -819 0
-206 -897 -806 0
385 522 -399 0
492 669 349 0
223 -173 -408 0
-185 -814 -714 0
-981 -430 24 0
460 118 617 0
542 211 -176 0
-836 181 332 0
-134 245 340 0
215 -711 -803 0
316 -736 -930 0
867 -952 -591 0
-809 136 647 0
371 190 -852 0
88 -205 -679 0
930 -291 683 0
441 747 -35 0
962 -207 102 0
-792 409 902 0
-678 -975 -490 0
304 -246 -796 0
-441 -305 621 0
-738 867 617 0
671 -278 -121 0
718 -374 -854 0
971 -878 -231 0
-113 177 539 0
270 113 -431 0
-516 -221 174 0
-744 25 -477 0
-422 281 509 0
-183 -891 -29 0
-665 193 679 0
-911 -841 -645 0
301 599 948 0
-949 606 -715 0
-93 388 170 0
-132 -813 -617 0
540 889 22 0
498 897 528 0
-322 872 901 0
-222 -650 -95 0
-743 250 -932 0
832 -1000 754 0
986 294 929 0
-289 975 -953 0
867 956 -437 0
214 -712 -67 0
-604 776 460 0
-522 470 -233 0
97 -33 -868 0
-224 -989 -427 0
366 244 9 0
-471 198 124 0
250 968 -308 0
913 -872 290 0
827 479 -300 0
-843 865 -323 0
-456 127 -503 0
593 814 -673 0
-67 397 780 0
-890 314 47 0
-794 -46 -150 0
266 -418 200 0
298 515 891 0
-216 273 -496 0
834 -219 99 0
191 326 217 0
-759 765 -137 0
-906 -300 -386 0
-708 481 607 0
106 -451 890 0
994 750 -932 0
-932 731 -695 0
160 -689 -416 0
198 -46 778 0
-683 -626 77 0
-948 83 735 0
926 -9 -921 0
-56 -377 354 0
-678 -126 415 0
858 -93 106 0
822 -586 483 0
447 139 512 0
811 -902 -716 0
-758 -332 840 0
-739 -836 651 0
-183 646 408 0
92 -131 612 0
-395 326 -764 0
-512 543 -745 0
961 -162 -254 0
184 648 455 0
-82 965 -923 0
-773 78 165 0
674 634 483 0
690 335 311 0
801 -136 847 0
618 229 -929 0
-773 -80 -348 0
-558 -340 165 0
383 527 -279 0
-238 -4 792 0
571 -463 357 0
-831 644 -357 0
614 82 374 0
43 -540 -217 0
-421 661 914 0
284 971 -466 0
-955 631 -42 0
-217 323 -143 0
-182 317 749 0
568 256 -138 0
-758 -201 -408 0
330 455 -861 0
559 193 745 0
922 -171 939 0
644 211 730 0
-695 -725 598 0
-958 896 -149 0
-481 440 25 0
-861 960 -846 0
-692 -297 -980 0
931 511 -78 0
-69 137 122 0
-771 576 -192 0
-524 27 -784 0
134 265 764 0
-378 233 -609 0
669 237 -78 0
-953 -725 -94 0
-741 -983 473 0
393 479 739 0
487 991 159 0
-720 -765 110 0
417 477 -845 0
-304 745 -427 0
523 827 -985 0
-28 461 -502 0
651 111 -714 0
-961 484 262 0
770 -152 155 0
-782 -323 -544 0
447 -367 -806 0
-50 42 -729 0
27 -745 -658 0
-900 -715 -941 0
-430 -969 587 0
-705 269 32 0
805 921 -464 0
574 -680 -440 0
602 973 513 0
-568 -59 -515 0
-515 -103 845 0
195 -499 -86 0
-531 589 950 0
504 865 999 0
129 -914 -147 0
454 -952 -645 0
110 -703 -380 0
-427 55 -570 0
649 -157 -935 0
-117 696 -450 0
269 464 -25 0
-783 -492 -50 0
822 -578 948 0
976 424 960 0
212 791 595 0
-145 584 -585 0
498 26 67 0
-496 655 641 0
578 -709 91 0
39 -471 -100 0
641 335 410 0
-31 -13 -386 0
-940 524 41 0
886 426 -478 0
-51 -750 -856 0
1000 -595 311 0
179 -995 -221 0
-787 -668 946 0
195 725 -924 0
996 -939 157 0
-45 -909 -802 0
-289 231 854 0
-154 -429 -163 0
-512 -810 -466 0
-87 -730 -455 0
625 -189 579 0
-935 -267 -263 0
795 -262 -478 0
981 748 -967 0
896 127 600 0
558 -854 -336 0
875 733 -427 0
139 181 -686 0
456 -89 382 0
129 961 565 0
-558 -544 -383 0
910 852 -40 0
748 -742 161 0
-815 -67 691 0
624 788 -230 0
866 -829 -825 0
-417 -278 -485 0
14 -566 -300 0
-180 -356 830 0
128 -667 976 0
-331 -97 -991 0
105 431 468 0
-103 10 926 0
-707 498 883 0
414 945 -927 0
-753 -580 -106 0
-804 -320 458 0
811 -942 886 0
-795 406 212 0
192 -38 -396 0
116 928 -481 0
363 832 965 0
910 371 -944 0
100 384 318 0
613 178 884 0
697 -441 -563 0
-4 -118 911 0
-945 824 -212 0
-320 369 582 0
850 861 736 0
-259 37 -808 0
311 71 -241 0
-455 -708 -364 0
821 -260 457 0
34 -740 926 0
695 -36 -978 0
170 803 976 0
311 742 733 0
119 80 -741 0
-71 -357 334 0
734 -740 -883 0
-541 309 -812 0
-309 -161 861 0
-303 -557 223 0
-704 -46 -629 0
35 530 -604 0
-74 77 -214 0
300 241 -780 0
650 -320 -984 0
931 170 354 0
800 451 393 0
-873 -869 948 0
10 650 -57 0
147 546 -704 0
414 -763 662 0
-252 -950 -755 0
118 -41 -126 0
360 957 -825 0
916 -801 690 0
-733 -964 -670 0
-491 -673 -144 0
-992 955 970 0
-487 493 -881 0
865 -726 -241 0
-475 279 -615 0
-204 608 360 0
-661 -730 -59 0
-647 900 1 0
-405 803 520 0
489 971 -12 0
686 83 -69 0
-451 315 512 0
403 -409 -386 0
-925 -144 185 0
-85 -199 -377 0
768 -529 -447 0
-284 450 175 0
122 754 -492 0
-314 53 964 0
791 441 249 0
302 -387 369 0
132 -271 -726 0
-815 508 -95 0
217 865 -655 0
403 -844 -564 0
951 840 332 0
137 -465 -703 0
768 -842 -233 0
-426 -301 -42 0
-784 -164 501 0
18 208 -245 0
-962 -659 572 0
-350 771 -114 0
-198 479 403 0
-983 -219 -764 0
-200 -125 -43 0
973 -366 -607 0
-166 -693 -960 0
-473 34 222 0
-673 51 -875 0
669 -536 -792 0
-824 850 -87 0
68 157 -176 0
840 814 857 0
359 -454 -969 0
-334 526 -707 0
217 -62 -606 0
291 -823 -986 0
-320 -557 667 0
-347 -9 285 0
-514 937 -676 0
-706 -145 -656 0
-923 -753 -842 0
329 -386 -613 0
-441 281 -240 0
57 512 197 0
-866 -597 41 0
-582 353 904 0
249 -244 561 0
-659 -825 301 0
333 -681 253 0
-864 -552 616 0
317 -835 348 0
-494 368 -757 0
654 69 903 0
-536 -748 428 0
737 -958 44 0
-977 772 -397 0
537 621 -768 0
-15 301 490 0
45 328 -157 0
772 -731 -873 0
-731 14 -956 0
-273 934 305 0
-46 -898 -770 0
-809 927 -235 0
-544 563 -201 0
-232 -934 464 0
-624 -951 851 0
473 -48 265 0
739 553 -53 0
791 -907 605 0
386 -975 202 0
-958 -72 78 0
832 -473 -675 0
-597 -300 -142 0
953 770 80 0
880 726 628 0
140 -620 375 0
-577 825 183 0
113 -563 -956 0
505 -262 29 0
-623 742 462 0
264 -82 -106 0
196 -793 -738 0
-809 -239 -433 0
663 -367 323 0
969 -202 -867 0
-687 823 647 0
66 479 797 0
910 77 383 0
-721 802 -689 0
477 441 -438 0
-65 620 -204 0
-908 -314 -855 0
141 -689 988 0
-853 -329 403 0
-489 812 -238 0
128 219 580 0
-849 919 418 0
-44 577 -266 0
-272 102 -315 0
134 -394 -735 0
868 834 -723 0
882 700 -819 0
-583 -5 -971 0
-130 396 -884 0
-962 298 615 0
315 -850 784 0
631 -448 596 0
-648 -139 -39 0
-459 214 80 0
770 288 -684 0
-373 753 719 0
-487 -589 -710 0
595 903 964 0
-855 462 689 0
-702 301 -95 0
73 524 498 0
34 -530 862 0
-212 398 -29 0
220 896 309 0
-379 505 506 0
-469 672 -63 0
503 646 -892 0
-461 -564 582 0
459 -430 553 0
922 34 496 0
-256 -75 -166 0
319 -21 -632 0
-69 408 590 0
125 -998 -535 0
-85 -186 668 0
-560 644 906 0
-471 -847 219 0
-492 487 -271 0
517 -774 -737 0
927 -421 454 0
-26 794 -68 0
522 131 283 0
-285 -718 438 0
409 902 342 0
-957 741 253 0
-605 -397 912 0
84 -276 -486 0
-358 631 945 0
129 -960 -2 0
91 77 244 0
-128 -688 -278 0
556 -466 538 0
-412 -471 283 0
-516 700 -874 0
447 121 -827 0
-122 -148 -396 0
547 243 422 0
723 151 -503 0
-258 732 -363 0
63 -376 3 0
-194 -140 764 0
336 575 -925 0
678 206 -522 0
337 -929 937 0
-635 -864 -522 0
515 -385 676 0
998 822 -67 0
-958 643 667 0
678 273 197 0
519 -714 -82 0
-57 -110 -299 0
-657 -434 -315 0
-603 427 383 0
-591 -219 -198 0
-444 558 687 0
-679 -526 -53 0
265 -597 -473 0
931 176 -623 0
414 -285 435 0
-275 -891 880 0
-702 -876 525 0
205 -706 -347 0
224 -95 -393 0
-554 -225 200 0
935 118 -26 0
233 -390 181 0
533 975 580 0
342 -633 86 0
77 -301 251 0
-316 -566 931 0
-45 410 -372 0
789 75 160 0
996 -559 -820 0
817 -61 465 0
106 -344 -843 0
892 442 -793 0
259 933 997 0
141 -325 -344 0
-31 -30 765 0
525 980 500 0
225 986 160 0
-429 -586 931 0
-184 -227 299 0
-713 -885 -870 0
98 128 -963 0
-365 -6 -97 0
-425 -73 845 0
10 -502 388 0
989 847 -470 0
227 626 -150 0
-162 80 -283 0
130 408 715 0
705 909 553 0
-395 -867 720 0
-213 479 -555 0
176 -92 418 0
-468 56 -150 0
-972 -427 669 0
-171 685 -980 0
479 -486 74 0
96 -306 322 0
816 863 -776 0
-328 185 -65 0
-69 136 -857 0
684 -356 271 0
-436 491 152 0
542 953 571 0
48 279 -688 0
788 97 -196 0
-542 220 -62 0
-166 -958 -556 0
918 -630 -864 0
131 -68 -992 0
402 -311 700 0
-292 353 845 0
-487 273 -753 0
300 -815 -93 0
590 -863 561 0
-17 919 -949 0
828 -838 569 0
-868 497 -86 0
-465 -662 -588 0
982 -232 -611 0
-598 325 383 0
-578 -752 -495 0
-665 643 150 0
366 -422 677 0
-93 -10 -666 0
-901 -233 708 0
-866 -397 -618 0
466 435 -991 0
711 -628 828 0
623 683 617 0
455 -551 -897 0
531 -433 -387 0
463 434 441 0
-31 552 -302 0
-356 -131 409 0
828 -325 -25 0
521 355 878 0
451 -396 412 0
96 460 244 0
830 760 547 0
285 606 504 0
421 221 970 0
-976 -21 -750 0
602 -530 -969 0
-750 398 -848 0
47 565 -169 0
-509 795 -78 0
-514 -817 -615 0
961 99 28 0
698 694 535 0
-622 845 -570 0
-819 -842 -643 0
567 -809 -714 0
-263 379 -269 0
-936 579 221 0
-596 647 15 0
911 -44 905 0
-695 823 176 0
437 574 486 0
-754 376 -378 0
-769 466 121 0
-729 291 537 0
-432 -903 902 0
-606 -502 -629 0
-252 708 -408 0
-18 -700 -93 0
488 791 -914 0
-491 -146 -137 0
621 -963 -962 0
910 -615 467 0
-966 678 -510 0
248 -762 -651 0
76 -347 675 0
-517 771 -134 0
84 361 -424 0
278 4 137 0
-344 354 -173 0
-749 -79 -235 0
-610 281 386 0
-952 260 -835 0
520 -841 554 0
-523 259 193 0
375 340 407 0
684 -712 -241 0
931 626 5 0
597 -430 -497 0
2 -792 -107 0
-414 412 990 0
-631 -786 -88 0
194 -441 -266 0
863 914 -231 0
-528 342 252 0
-96 -401 -846 0
344 946 605 0
23 -820 627 0
-22 719 284 0
901 956 -399 0
757 -104 936 0
-892 336 -80 0
218 131 877 0
566 96 518 0
171 -397 -883 0
-608 -249 -906 0
136 458 -950 0
381 -951 -687 0
476 -569 454 0
830 372 19 0
96 784 -976 0
159 -370 245 0
659 -322 -103 0
855 41 -921 0
619 5 -197 0
-482 948 -25 0
-662 943 243 0
991 427 256 0
375 550 367 0
323 -575 -7 0
-551 -738 -610 0
-929 -131 -64 0
-957 120 -495 0
-197 -894 -565 0
269 -856 10 0
-96 929 -916 0
-342 900 164 0
975 -107 18 0
367 396 -544 0
208 438 89 0
-917 823 715 0
425 37 -410 0
408 19 361 0
365 -881 -600 0
-89 -358 821 0
762 -788 -793 0
-355 398 451 0
959 -558 -587 0
39 464 500 0
174 -273 261 0
-580 -846 -81 0
295 -118 274 0
-390 656 -372 0
699 769 -180 0
-83 663 8 0
477 -94 -853 0
382 301 102 0
862 663 401 0
-970 280 144 0
-487 345 -630 0
119 -957 213 0
115 -242 830 0
-417 -57 -958 0
-664 537 -255 0
227 -750 786 0
-744 521 -470 0
136 457 920 0
-699 -66 -921 0
-958 574 496 0
701 -546 563 0
-725 -707 -475 0
254 -652 509 0
-849 -599 -864 0
500 544 391 0
-776 -764 949 0
956 886 -352 0
95 887 -315 0
-412 766 -69 0
223 843 139 0
140 173 611 0
500 389 -495 0
-875 24 -699 0
196 943 577 0
-141 -904 -656 0
-341 293 189 0
248 -154 748 0
-189 -245 42 0
-544 171 630 0
123 -846 581 0
510 942 -168 0
-97 -632 599 0
-402 501 323 0
138 -576 298 0
-790 -227 600 0
-467 -477 -89 0
-955 628 -211 0
188 -338 544 0
-372 327 182 0
277 -176 -610 0
-275 697 457 0
-403 831 -952 0
174 -871 130 0
6 280 983 0
375 -424 895 0
-699 -149 -596 0
-525 -138 -977 0
-614 257 616 0
-438 440 -321 0
-252 552 740 0
-554 768 -831 0
103 170 258 0
-285 337 617 0
708 -533 -361 0
799 -478 697 0
-484 -345 -185 0
-416 215 -538 0
-606 -308 327 0
-614 141 -366 0
798 -908 -615 0
609 849 88 0
615 -876 973 0
-412 -515 -295 0
-183 -157 -151 0
151 493 -425 0
-186 -644 -939 0
957 -423 -831 0
-883 -642 499 0
-366 761 -601 0
-953 -967 235 0
431 -379 926 0
157 789 -98 0
-199 5 -461 0
184 215 965 0
531 -701 983 0
760 270 895 0
-340 879 309 0
615 207 -751 0
89 -789 -65 0
-70 -761 -720 0
102 -495 -866 0
657 304 -345 0
-83 946 -49 0
89 -644 138 0
336 960 -503 0
-53 349 688 0
289 -239 -553 0
-285 628 -969 0
496 32 655 0
-57 -343 544 0
-326 -101 -52 0
124 -575 40 0
706 -371 951 0
701 -475 -352 0
617 618 712 0
-670 -487 -869 0
-719 -940 47 0
-271 -895 419 0
-335 12 -155 0
-415 166 458 0
-317 582 432 0
873 -116 278 0
-291 425 -941 0
110 537 -649 0
-53 -847 469 0
-792 -497 -476 0
971 234 603 0
-536 -127 -647 0
-711 -14 -348 0
-871 -150 867 0
-30 249 711 0
672 -829 610 0
-343 -713 -461 0
-887 126 358 0
180 317 20 0
-278 739 141 0
373 -68 634 0
19 -222 255 0
-899 474 -696 0
-824 -10 184 0
224 984 594 0
-413 243 -285 0
467 -196 401 0
-83 -791 -653 0
-104 -469 -847 0
-132 701 116 0
185 -920 148 0
286 862 544 0
896 -63 -76 0
883 658 -519 0
-609 362 719 0
-695 895 -463 0
-428 54 -1 0
-138 31 -57 0
330 899 720 0
-397 -850 -98 0
38 -174 877 0
130 -629 588 0
799 -445 -291 0
344 672 -817 0
-517 405 -423 0
988 379 -742 0
-373 -435 759 0
824 -519 996 0
-201 -567 254 0
-803 -814 555 0
-230 -668 -503 0
-425 367 -130 0
475 138 -757 0
344 295 -553 0
-947 -339 -707 0
-950 906 -409 0
-217 194 115 0
953 -886 -391 0
799 76 981 0
556 -866 -417 0
283 115 859 0
381 532 926 0
-860 821 107 0
605 15 -993 0
385 -587 438 0
534 -92 -361 0
-540 719 454 0
-18 866 331 0
-453 -824 -771 0
-816 -740 -911 0
227 393 -893 0
-41 -674 601 0
-813 -905 431 0
968 -657 -521 0
-953 -920 543 0
-808 729 -679 0
-427 438 -231 0
878 62 -679 0
-513 403 -563 0
-991 -254 -435 0
-189 693 -909 0
-619 469 -740 0
-192 -515 747 0
297 286 920 0
391 -856 375 0
832 997 -251 0
-851 514 -819 0
-990 138 86 0
-65 -705 768 0
916 -358 -486 0
549 602 -308 0
369 -352 62 0
559 28 -742 0
-679 63 685 0
-752 -904 -635 0
914 584 484 0
-349 -325 -878 0
192 834 452 0
-8 245 629 0
-370 -117 328 0
755 889 929 0
-874 290 485 0
168 749 808 0
-250 -415 -350 0
506 577 -710 0
-221 65 -79 0
485 -285 -792 0
-848 146 162 0
610 714 -356 0
160 567 -394 0
583 -536 -93 0
701 244 970 0
-489 -100 -779 0
615 866 872 0
345 783 -856 0
-987 -996 572 0
805 936 -531 0
754 312 -781 0
943 -515 -302 0
-407 690 -474 0
498 -819 -143 0
-208 -263 976 0
-341 219 913 0
-690 -642 -961 0
220 -124 -105 0
-369 -202 624 0
144 678 735 0
379 -316 -742 0
326 -394 49 0
954 713 -102 0
82 -646 751 0
460 697 -139 0
-948 -525 -663 0
-790 983 365 0
-477 23 -449 0
-301 978 -439 0
355 -3 -696 0
-11 -811 -41 0
-40 387 629 0
498 413 841 0
501 963 821 0
-751 -513 -453 0
698 239 -766 0
996 -679 -177 0
773 815 930 0
-544 889 353 0
383 261 409 0
-879 -544 -787 0
-268 -881 256 0
879 297 463 0
-103 -984 -648 0
379 -135 -579 0
339 802 -931 0
355 -896 -491 0
170 953 -392 0
359 -776 -722 0
599 314 -752 0
-558 172 63 0
760 440 -503 0
463 -84 876 0
746 -965 763 0
-282 520 -82 0
70 979 428 0
580 852 10 0
-982 359 -213 0
-933 -561 -682 0
980 182 1 0
-892 422 -670 0
983 -897 600 0
-132 -303 -650 0
308 658 947 0
481 -893 -147 0
-523 242 511 0
-766 401 841 0
-496 239 244 0
502 416 924 0
375 41 18 0
518 545 608 0
145 -847 -626 0
-60 176 -672 0
291 733 -119 0
322 -699 -432 0
-515 162 447 0
-470 241 -630 0
-711 341 518 0
-747 -189 632 0
-833 78 -579 0
-788 445 49 0
267 -423 -572 0
-19 -433 -135 0
-837 -253 -735 0
-94 696 -885 0
480 277 -956 0
726 944 -844 0
911 -482 438 0
-322 -920 509 0
-248 -279 -140 0
-957 -471 123 0
78 -317 -641 0
506 857 788 0
-320 -886 -967 0
-778 600 -644 0
-902 -578 534 0
-161 -87 -684 0
-538 503 -766 0
-204 877 -927 0
887 414 463 0
833 969 -202 0
887 -450 865 0
-528 -549 -712 0
433 -876 -857 0
-538 -536 42 0
900 40 715 0
535 540 4 0
-757 424 -584 0
-480 400 -85 0
918 -189 867 0
341 970 685 0
-367 -722 303 0
697 -304 -418 0
207 363 -654 0
407 805 76 0
162 -576 -108 0
-806 620 -598 0
-850 521 -472 0
-287 698 -334 0
162 898 81 0
576 179 -86 0
-647 -373 935 0
-574 383 700 0
283 513 943 0
-329 -663 447 0
444 -765 967 0
-782 214 211 0
-22 -29 -780 0
-111 -69 512 0
570 838 203 0
-50 465 330 0
-132 714 916 0
473 31 134 0
-84 722 -52 0
824 961 707 0
-974 -432 143 0
-710 721 272 0
-301 144 -816 0
672 522 -948 0
-531 482 712 0
556 598 -532 0
-455 -165 -378 0
-319 915 994 0
-20 888 -198 0
185 -861 5 0
346 758 492 0
930 260 814 0
-656 -89 85 0
477 -825 150 0
-252 678 78 0
243 296 428 0
853 -111 982 0
-314 800 -822 0
-145 -851 879 0
-380 -659 57 0
-526 -887 -988 0
-993 10 608 0
741 921 -395 0
-291 -193 898 0
652 25 -80 0
628 621 719 0
877 -888 -505 0
-932 728 202 0
942 -802 -969 0
-791 -768 325 0
129 -177 94 0
-538 499 125 0
-889 -589 572 0
256 -889 -665 0
-972 -732 -918 0
-556 -41 742 0
345 -215 -293 0
10 377 -396 0
344 45 614 0
379 244 -673 0
11 -101 -433 0
221 -21 -63 0
-931 -690 -887 0
753 -159 -618 0
-277 890 860 0
579 -37 -962 0
-228 804 136 0
595 997 389 0
189 -613 535 0
-154 399 -26 0
-548 998 480 0
939 -726 140 0
614 959 223 0
-839 -829 -100 0
-46 108 210 0
-783 -614 -737 0
-58 303 -419 0
-479 -757 756 0
-786 515 652 0
63 797 -685 0
-260 -6 -735 0
-595 538 865 0
317 -389 -441 0
615 -545 -363 0
861 579 -603 0
840 -313 84 0
-289 295 371 0
-830 -711 -78 0
828 -992 840 0
400 193 349 0
262 -749 849 0
667 348 947 0
220 263 -848 0
-568 173 18 0
-740 145 425 0
194 902 631 0
-299 66 -863 0
800 -298 -20 0
623 -792 976 0
559 776 774 0
-590 -255 -277 0
-875 443 -985 0
783 236 -279 0
-626 -146 -88 0
-971 92 -191 0
686 307 -116 0
621 874 1 0
779 377 -640 0
-862 -712 876 0
-859 -914 -417 0
813 851 576 0
-261 -815 604 0
292 -399 568 0
614 -337 766 0
-461 -236 -486 0
946 399 114 0
-301 -501 959 0
-537 125 -193 0
733 491 418 0
-894 -66 -819 0
-912 497 827 0
-70 -912 -202 0
-414 -490 42 0
629 -207 -220 0
718 418 -438 0
632 -502 -129 0
-874 662 -544 0
-590 285 -375 0
-652 -723 861 0
-253 -464 -164 0
-529 -630 930 0
964 -310 88 0
-571 39 -121 0
780 905 -895 0
-625 340 953 0
-763 -686 -937 0
-825 626 907 0
-601 78 474 0
344 18 -353 0
-744 -919 -965 0
123 -245 -818 0
568 101 -457 0
-481 72 -213 0
98 826 658 0
-312 58 -110 0
-573 248 555 0
793 -117 95 0
735 63 -750 0
857 359 35 0
-999 651 -108 0
633 -4 -807 0
401 -506 978 0
515 88 -457 0
-105 160 -903 0
844 -796 -165 0
522 -39 -197 0
-352 361 506 0
143 -313 -576 0
768 54 -712 0
-677 62 -867 0
-213 926 -716 0
566 282 245 0
-864 -658 517 0
-281 926 -873 0
923 168 223 0
-807 -216 36 0
-685 -182 515 0
312 -162 -148 0
-3 -670 -4 0
408 -233 -663 0
974 -875 62 0
-969 554 -12 0
-127 -250 324 0
-879 774 739 0
-356 144 479 0
727 -974 535 0
-134 -575 -910 0
319 604 -741 0
-35 -434 -916 0
959 -800 823 0
729 -311 -452 0
312 146 -603 0
-300 682 -853 0
-910 -941 131 0
526 -626 -309 0
625 -968 402 0
-211 492 284 0
-21 665 -600 0
249 127 -111 0
-314 200 775 0
87 -967 -812 0
-326 487 297 0
259 200 -771 0
471 336 -479 0
450 -571 -429 0
478 320 -588 0
136 -647 -922 0
-145 306 548 0
299 565 430 0
-391 -741 -243 0
397 959 919 0
589 -676 272 0
-526 -477 835 0
-68 991 -356 0
-101 696 560 0
-326 921 -535 0
406 736 923 0
-496 223 -72 0
-158 -130 83 0
600 -585 485 0
-289 497 976 0
-554 284 600 0
873 -631 596 0
-875 -298 656 0
-501 -323 186 0
-855 194 -94 0
788 417 336 0
890 171 -663 0
407 466 501 0
693 292 -832 0
-942 967 -676 0
-655 525 623 0
655 328 208 0
-843 -728 895 0
-71 176 -337 0
440 827 985 0
-876 191 401 0
442 -801 329 0
309 913 -840 0
-578 764 301 0
620 -528 -207 0
-290 668 18 0
-691 -288 -839 0
-914 438 429 0
408 -710 -808 0
-242 168 -523 0
-261 864 -154 0
93 -670 -64 0
-9 -230 672 0
133 191 -412 0
-878 357 -462 0
131 834 -663 0
903 -184 304 0
-190 50 953 0
658 545 -995 0
900 162 283 0
909 -417 181 0
-747 323 -160 0
484 -134 941 0
327 189 857 0
-896 209 206 0
708 589 -903 0
917 -769 -871 0
75 723 -146 0
35 -271 955 0
574 611 -893 0
670 363 267 0
4 23 784 0
262 -141 -640 0
-558 -995 84 0
-482 -976 263 0
-209 275 -661 0
-286 -983 -76 0
-874 51 -148 0
-794 783 295 0
801 -811 -851 0
-842 88 796 0
-891 -190 -118 0
-767 634 -575 0
-160 865 505 0
-939 -611 -567 0
377 825 195 0
177 -76 130 0
-607 -524 628 0
580 779 -258 0
142 876 120 0
20 861 -209 0
414 564 -451 0
667 86 -58 0
625 -685 5 0
-60 -180 -761 0
-982 -907 -895 0
-561 884 -429 0
-802 -34 -812 0
-860 -733 786 0
-908 -709 -988 0
-965 -250 826 0
955 -777 -119 0
-509 531 -279 0
-413 -50 -491 0
-142 949 -829 0
456 901 -760 0
298 -112 -744 0
323 -818 217 0
-7 844 -900 0
387 718 675 0
-72 -9 -87 0
597 467 -299 0
-42 -647 -422 0
-709 949 578 0
729 -460 -520 0
-433 763 551 0
-15 335 -255 0
-567 210 -850 0
327 441 -559 0
-432 440 173 0
621 -715 678 0
-162 628 688 0
-111 -166 -820 0
411 -861 542 0
-842 -215 660 0
748 562 -863 0
726 -758 24 0
159 417 921 0
-125 -655 780 0
231 -159 -943 0
662 579 297 0
17 26 -558 0
279 -847 -783 0
-646 -435 554 0
-163 -838 -428 0
850 446 117 0
-109 -881 -188 0
-368 -605 -677 0
-172 -14 -488 0
985 611 -670 0
-821 -90 -910 0
-954 323 221 0
-831 826 524 0
483 962 -413 0
820 -917 -6 0
402 -552 384 0
-415 -21 258 0
952 -768 425 0
152 -538 292 0
-699 705 266 0
-202 220 -254 0
-348 -514 -501 0
755 503 -159 0
-411 -45 745 0
646 690 -810 0
-66 -607 -651 0
961 45 -941 0
-383 509 -76 0
-737 739 -557 0
-74 684 110 0
406 -445 849 0
773 -834 -86 0
334 -730 -537 0
54 -161 -547 0
180 283 -680 0
-833 224 649 0
837 60 -801 0
514 252 -35 0
689 213 -352 0
486 915 -25 0
436 640 -552 0
-442 395 -776 0
-661 -133 764 0
-10 -68 -523 0
262 649 414 0
-208 -268 341 0
-305 380 -356 0
770 -565 -588 0
722 -329 217 0
204 -734 550 0
-401 700 220 0
-314 752 495 0
823 -533 -80 0
120 87 61 0
345 -834 709 0
-631 -425 998 0
284 -407 233 0
382 380 -362 0
75 729 -728 0
709 458 -276 0
-262 459 -64 0
915 -660 676 0
364 -468 -187 0
-860 -325 190 0
909 853 -960 0
-718 -990 263 0
165 -619 -126 0
123 332 715 0
-228 -64 -409 0
42 -834 628 0
-295 -308 -416 0
-517 426 -234 0
98 -145 -273 0
247 -57 944 0
589 -354 -399 0
637 5 57 0
592 -447 -121 0
582 -792 -531 0
21 74 -257 0
306 544 -443 0
734 -380 55 0
-250 -291 376 0
-614 486 -557 0
952 128 236 0
-885 864 -803 0
649 313 487 0
391 -570 -238 0
868 568 -135 0
603 -38 345 0
-753 -369 389 0
-225 -513 448 0
173 794 -247 0
988 -328 -568 0
-75 -109 -947 0
328 -604 -505 0
-171 406 -27 0
883 -326 753 0
125 713 -79 0
970 -849 -731 0
-460 -418 -668 0
-708 -264 -615 0
375 912 296 0
413 253 -870 0
-323 948 167 0
953 361 362 0
333 574 -175 0
-761 -321 -2 0
507 -356 396 0
874 -783 253 0
115 888 -366 0
-473 570 630 0
-473 505 133 0
-526 -411 737 0
-538 913 -167 0
265 -457 -54 0
-914 -994 656 0
-370 788 244 0
727 938 812 0
124 720 -52 0
354 583 -203 0
-259 221 273 0
-706 870 -602 0
728 -897 -631 0
389 -826 589 0
-926 917 -339 0
258 107 232 0
42 -220 875 0
-645 357 468 0
-711 482 510 0
-58 -242 -264 0
265 -8 109 0
493 -737 978 0
-190 138 -554 0
-970 275 -816 0
-248 988 -931 0
447 505 -653 0
-622 951 983 0
-548 668 -188 0
489 706 391 0
146 -492 -225 0
660 194 -923 0
-281 -855 288 0
-765 -893 601 0
378 956 260 0
805 -122 207 0
-195 -447 414 0
137 -632 -354 0
31 201 -555 0
-428 -567 -824 0
21 -234 -676 0
-956 -698 -755 0
973 631 749 0
-775 853 -762 0
286 746 -277 0
234 -230 -601 0
-724 942 -944 0
-130 693 -523 0
991 216 -684 0
-633 599 458 0
234 -756 639 0
360 -256 -572 0
236 -931 -452 0
-280 -9 -553 0
736 -794 -149 0
917 -177 -641 0
380 -492 861 0
-631 194 -204 0
139 698 -69 0
419 -976 781 0
-234 -189 37 0
797 122 -616 0
164 -246 -141 0
-519 -100 -17 0
213 685 -376 0
-566 744 -520 0
936 -820 864 0
849 566 863 0
555 -916 441 0
-137 949 162 0
708 595 309 0
217 306 117 0
461 -397 -584 0
206 650 -662 0
465 -496 795 0
877 782 606 0
876 -735 -547 0
664 -441 502 0
-932 -680 496 0
-578 -891 83 0
-615 657 153 0
-863 -348 883 0
-908 -855 -458 0
225 -896 786 0
704 -685 -236 0
779 737 -393 0
-621 -417 460 0
-972 -619 933 0
631 262 263 0
79 -739 223 0
-299 979 186 0
832 392 -716 0
147 -651 553 0
-378 448 -429 0
314 -501 218 0
-703 353 784 0
-237 -23 513 0
593 480 -5 0
103 -649 195 0
86 667 742 0
-569 91 -111 0
809 -242 -351 0
585 194 -71 0
-771 -915 262 0
-128 907 328 0
-367 865 359 0
-624 -666 -126 0
321 446 -542 0
-417 326 -498 0
-447 -141 -389 0
-111 619 -672 0
-475 -691 931 0
153 164 304 0
995 -689 -578 0
-521 -598 508 0
-940 -872 265 0
-351 -637 621 0
567 911 -599 0
-495 -850 -352 0
880 -897 -652 0
-927 434 315 0
605 -864 840 0
630 -502 -611 0
753 808 -688 0
-26 -76 423 0
797 89 210 0
258 -891 228 0
-278 -654 7 0
595 -600 67 0
520 -297 -805 0
299 -674 -363 0
-351 322 -773 0
257 592 -86 0
-415 884 -151 0
-422 -613 619 0
-413 -72 -891 0
572 -127 -693 0
-969 741 -676 0
-104 323 -740 0
-371 -187 -940 0
-321 256 -800 0
-332 -885 52 0
880 -61 560 0
371 -791 984 0
781 -397 -132 0
834 -764 -262 0
145 77 515 0
132 -306 -108 0
-580 -412 -199 0
-201 -645 596 0
221 -996 789 0
-211 450 349 0
619 -470 710 0
653 -261 -991 0
844 -903 95 0
-160 922 -188 0
-966 524 -596 0
-195 -815 635 0
288 -661 -106 0
-299 406 -588 0
50 40 -833 0
-272 -723 -846 0
-210 56 116 0
95 817 -39 0
202 -335 -150 0
596 837 767 0
-724 -237 -92 0
-870 706 37 0
20 173 -285 0
-236 104 -345 0
294 -62 -277 0
44 805 51 0
-12 942 -371 0
-187 355 26 0
141 -90 714 0
-519 -89 -806 0
777 -299 -535 0
-311 578 881 0
638 -237 -136 0
765 -1 -943 0
858 289 16 0
405 -229 544 0
-211 -446 -166 0
-840 -602 981 0
454 -293 197 0
794 46 641 0
18 -650 -698 0
-659 89 -295 0
276 -630 742 0
456 -766 -433 0
582 -53 -430 0
266 -646 860 0
-70 -699 -243 0
-72 -659 -96 0
487 906 -184 0
772 -531 -849 0
-469 862 -74 0
599 -226 -597 0
534 -288 999 0
-413 122 586 0
756 -428 -10 0
-586 -620 425 0
334 -628 506 0
-255 -101 -717 0
-710 -795 964 0
-761 -799 890 0
298 -388 569 0
453 352 -307 0
-595 202 721 0
-662 614 628 0
746 -246 172 0
-190 -229 -619 0
-430 706 454 0
206 -482 -387 0
663 492 -589 0
366 80 -629 0
-57 594 176 0
371 -635 -222 0
-299 743 882 0
797 654 758 0
-837 -956 390 0
320 715 204 0
-546 -277 124 0
-383 -796 -244 0
-773 388 639 0
647 748 -610 0
6 93 341 0
501 166 -396 0
-628 -349 350 0
-532 85 -888 0
-685 -409 646 0
-61 940 326 0
393 -601 296 0
875 -615 -749 0
216 -464 974 0
874 -319 -148 0
936 -305 297 0
-726 -583 -861 0
302 -173 -399 0
701 -764 -932 0
-11 288 92 0
664 -735 335 0
110 538 422 0
76 912 933 0
865 -177 -747 0
-586 575 284 0
-311 38 -761 0
-919 811 565 0
186 -271 497 0
249 -187 560 0
783 289 744 0
-200 -95 955 0
8 699 -692 0
226 -656 28 0
749 161 388 0
996 257 -883 0
-461 -991 -328 0
436 307 -718 0
892 -147 -335 0
-129 -363 606 0
-104 615 -489 0
103 -315 -786 0
-330 938 919 0
-965 996 913 0
547 -44 -675 0
-593 -872 440 0
428 505 599 0
250 745 572 0
397 -70 -21 0
56 466 -672 0
-911 879 501 0
451 -218 272 0
-343 516 -991 0
-910 588 -491 0
-477 -466 397 0
-734 226 -86 0
-524 -261 222 0
18 459 -826 0
-866 -736 689 0
-236 -998 -44 0
-922 359 -590 0
-185 -738 357 0
215 -272 752 0
-555 793 -615 0
933 328 410 0
538 -943 -640 0
911 -801 -256 0
-16 286 -86 0
-708 -416 839 0
981 987 -362 0
284 -463 -803 0
90 -44 -270 0
-518 937 -992 0
661 -559 922 0
-626 -874 -383 0
-448 161 916 0
-101 -223 435 0
276 -153 -328 0
226 -152 -776 0
457 -374 958 0
809 462 -666 0
276 245 109 0
936 -749 665 0
-677 14 476 0
-301 766 737 0
-39 21 -733 0
-152 432 -745 0
-334 -632 -284 0
-15 286 -766 0
969 834 -329 0
610 787 157 0
496 -832 -76 0
-694 513 832 0
963 669 -55 0
-777 119 -790 0
529 -46 298 0
979 662 173 0
-739 698 372 0
324 -643 458 0
-212 322 -343 0
-649 -136 866 0
-713 283 -998 0
-93 905 -266 0
-273 738 150 0
241 740 -714 0
-40 345 995 0
-49 977 269 0
-267 -115 -38 0
-531 125 -369 0
-243 -613 -663 0
152 930 -505 0
-516 735 181 0
-678 -560 -121 0
473 137 -621 0
-339 -126 -391 0
994 -421 756 0
-915 504 -298 0
-206 -535 125 0
727 -706 -842 0
-130 924 918 0
896 -321 327 0
621 -386 -262 0
879 693 254 0
419 -160 -596 0
-204 -250 728 0
247 173 -666 0
-283 -714 160 0
-836 -925 -240 0
-234 -838 -121 0
237 466 22 0
571 -209 333 0
645 298 -989 0
54 -722 721 0
335 -485 -457 0
947 625 172 0
-352 630 141 0
-325 782 -750 0
771 552 847 0
810 563 414 0
931 -942 -385 0
625 391 -877 0
975 -829 319 0
375 63 171 0
962 111 492 0
-297 85 -460 0
306 -360 -90 0
53 -811 -51 0
239 570 -914 0
136 -957 -919 0
-565 -203 954 0
823 -457 -994 0
741 237 -582 0
703 565 651 0
23 250 976 0
539 -476 -612 0
130 -124 863 0
-868 240 -618 0
92 -411 775 0
576 309 -894 0
-677 953 560 0
471 -744 -197 0
1 376 320 0
192 441 568 0
-781 -646 -79 0
301 889 -521 0
221 -83 886 0
925 -673 -788 0
-206 32 2 0
464 699 -168 0
-971 845 218 0
-124 -649 913 0
-16 365 -69 0
142 487 782 0
797 -961 -565 0
-701 -496 671 0
514 312 -210 0
372 5 101 0
703 -936 -372 0
-143 849 472 0
509 833 -995 0
195 105 -367 0
126 -733 -73 0
709 -224 -950 0
-79 -620 564 0
299 -973 48 0
-638 93 940 0
-970 798 -128 0
-246 461 660 0
100 81 288 0
-724 -280 -335 0
-814 -517 -956 0
864 -457 -55 0
200 818 -755 0
905 -667 -928 0
-672 -845 787 0
852 -22 269 0
-844 -43 -103 0
-887 458 -636 0
-168 586 -487 0
-896 -743 -939 0
590 884 -163 0
-904 -607 663 0
985 -376 -584 0
782 7 426 0
-711 -505 597 0
-8 528 832 0
164 -298 206 0
136 -997 521 0
559 -124 -944 0
-79 779 -248 0
-178 597 -197 0
114 649 417 0
-251 818 164 0
720 295 -529 0
725 161 -299 0
-718 -65 -611 0
-921 -993 -906 0
-481 828 668 0
-763 -364 -751 0
154 -456 937 0
-915 63 389 0
263 -206 71 0
418 -411 479 0
-472 899 -760 0
-454 201 797 0
473 -536 443 0
852 -561 175 0
-910 -119 -500 0
-713 898 180 0
-748 438 860 0
-30 -459 892 0
882 710 -857 0
122 177 440 0
368 -943 642 0
449 -151 202 0
553 -357 -323 0
-988 -927 836 0
505 -63 -932 0
278 289 467 0
688 230 -376 0
-198 -187 -79 0
13 -675 -782 0
715 808 -144 0
-742 -414 -256 0
570 -78 17 0
-599 240 994 0
729 674 428 0
-550 -209 730 0
-852 -500 31 0
-704 -962 485 0
-616 -595 -1 0
289 -856 -459 0
-519 154 -658 0
526 376 -818 0
-828 874 -296 0
539 329 363 0
519 779 -668 0
728 814 502 0
-977 157 771 0
-297 966 204 0
398 621 710 0
28 396 822 0
-237 -964 8 0
-266 -79 -940 0
175 439 707 0
750 66 -144 0
72 -843 369 0
489 -115 -812 0
105 366 -912 0
-923 301 30 0
-451 -578 -644 0
889 -138 219 0
667 743 -794 0
-682 467 -894 0
-182 82 -850 0
543 416 676 0
728 738 -283 0
-371 992 172 0
995 -425 -127 0
-149 -570 160 0
503 -888 -208 0
991 33 199 0
-799 436 -920 0
293 -781 54 0
-58 136 -95 0
831 404 88 0
-250 -780 85 0
862 647 -734 0
847 929 -617 0
180 -96 -120 0
-212 229 -73 0
-439 -44 -911 0
-222 -148 340 0
808 -211 -764 0
-4 118 549 0
604 83 270 0
-314 391 587 0
-823 541 77 0
-22 -29 -962 0
-77 -425 625 0
-119 -886 -611 0
-422 322 -135 0
943 -61 351 0
888 856 -426 0
-396 797 -616 0
-235 -676 -713 0
-443 929 228 0
771 253 928 0
370 -230 -881 0
-521 -793 -133 0
872 -237 213 0
-233 571 -674 0
-67 510 -366 0
-256 -792 621 0
-827 284 216 0
775 885 354 0
-561 -991 -879 0
-731 327 412 0
722 702 -433 0
966 436 213 0
578 465 -534 0
709 867 -74 0
921 -557 443 0
-564 -420 698 0
467 272 -679 0
-780 200 663 0
-129 -920 456 0
-458 326 -898 0
459 682 -350 0
-451 -148 965 0
-829 564 -473 0
-424 -967 -284 0
779 -941 588 0
-990 892 -107 0
-905 -87 -726 0
-416 -226 150 0
924 179 171 0
749 645 -579 0
-776 -379 -896 0
-65 315 -297 0
912 -766 10 0
-339 -372 698 0
-559 -314 -978 0
-73 208 24 0
257 591 -196 0
-491 903 539 0
849 444 -268 0
731 -587 551 0
-17 -40 196 0
-365 570 -782 0
4 -707 -595 0
882 138 -904 0
-93 -108 90 0
479 552 488 0
-884 333 -620 0
800 606 -245 0
266 17 -325 0
239 -791 -128 0
-685 459 -185 0
542 -71 13 0
-660 695 305 0
-987 -69 -146 0
-840 -597 -476 0
-603 989 503 0
-308 737 -249 0
-217 -482 363 0
64 -367 520 0
73 -21 -863 0
-517 -956 400 0
-34 -75 -52 0
-437 -644 716 0
237 -124 856 0
-986 -514 226 0
-498 -954 -66 0
-553 -228 72 0
981 -717 -816 0
-254 -716 266 0
-478 704 752 0
-52 -363 -215 0
-403 -213 490 0
-717 -998 -742 0
312 409 690 0
-23 -899 856 0
935 211 -613 0
-695 -470 902 0
947 348 114 0
133 -170 -469 0
-312 276 -517 0
-841 -627 -592 0
-75 164 -605 0
438 -516 -845 0
-909 411 961 0
680 238 -375 0
687 163 -517 0
920 -657 5 0
147 709 925 0
-377 917 894 0
-206 -32 -491 0
-957 44 -572 0
-70 380 -14 0
109 537 -88 0
-940 727 -895 0
925 900 -10 0
951 -242 -339 0
922 -807 454 0
-481 350 619 0
992 -410 -622 0
580 -651 -159 0
35 -749 -896 0
845 -611 -822 0
149 -865 -84 0
198 -40 66 0
-373 353 989 0
-446 -569 476 0
497 757 885 0
-962 -798 843 0
-957 -124 775 0
-176 -318 479 0
-869 -381 330 0
-462 -603 979 0
-95 -885 -989 0
699 315 669 0
-735 181 -392 0
757 74 760 0
-513 -926 246 0
-620 81 -670 0
108 -498 -364 0
726 501 -540 0
406 -22 -36 0
605 688 516 0
136 946 -16 0
405 14 -507 0
295 572 -727 0
-918 -457 -647 0
997 270 -635 0
242 82 -171 0
-713 227 -875 0
483 -464 -161 0
-496 -168 731 0
-414 17 -709 0
-734 707 -542 0
-408 223 -451 0
466 -458 -700 0
915 -707 776 0
996 13 -805 0
653 -322 -850 0
-628 488 -721 0
-565 -456 -601 0
533 -384 643 0
-756 641 94 0
763 869 621 0
149 -284 831 0
-809 65 -943 0
645 917 653 0
-678 -215 -839 0
782 883 -258 0
-738 -920 254 0
-72 -162 361 0
-366 258 134 0
958 140 -807 0
-23 -180 333 0
175 435 -371 0
-855 -694 -509 0
428 -121 870 0
855 392 -841 0
22 -993 786 0
264 758 726 0
581 368 202 0
455 -183 -321 0
957 131 205 0
408 285 590 0
641 -571 -109 0
395 855 810 0
-226 60 881 0
184 488 -908 0
-852 853 520 0
603 -92 -903 0
-286 -523 -844 0
-960 148 -12 0
-704 -932 -987 0
-831 -680 -595 0
65 399 -904 0
-753 231 272 0
160 232 -39 0
-728 -884 -452 0
138 149 -445 0
381 839 659 0
90 -437 -996 0
-373 568 -7 0
-452 -393 -570 0
504 -663 -764 0
-753 630 -506 0
597 187 702 0
88 414 -338 0
681 -921 -828 0
-761 83 -991 0
876 908 629 0
-595 902 -813 0
403 -217 792 0
-579 -542 20 0
-18 -465 245 0
35 134 -58 0
-406 34 -518 0
-404 -744 960 0
-819 425 43 0
-545 -34 -817 0
267 904 -206 0
611 327 -122 0
-173 68 -898 0
-561 -297 -716 0
114 723 353 0
654 -14 -281 0
-757 -207 193 0
-886 -509 -530 0
826 -251 889 0
-251 -800 -823 0
740 770 -833 0
671 684 -378 0
-715 -1000 -240 0
916 359 479 0
-612 357 -646 0
8 386 -679 0
-460 300 403 0
-644 635 -915 0
-224 -354 -630 0
-398 466 670 0
649 -842 -839 0
-390 158 553 0
-719 566 455 0
163 -698 -518 0
435 -801 155 0
-492 883 430 0
584 439 300 0
298 -418 410 0
-631 149 -679 0
701 34 -18 0
-301 -90 269 0
-756 -432 569 0
156 -725 -79 0
113 242 -635 0
850 -93 -978 0
-967 25 -645 0
-920 -599 -158 0
-790 -803 -827 0
612 -915 269 0
-785 863 -454 0
-438 -480 -912 0
280 -248 -622 0
-79 -494 934 0
-900 198 474 0
356 -440 -157 0
-892 -981 -345 0
212 914 -704 0
582 167 927 0
-769 -279 98 0
-515 -928 483 0
-998 15 401 0
-186 83 -392 0
267 630 -610 0
-312 -749 -675 0
-5 -965 -692 0
-377 471 17 0
111 -884 -700 0
-211 921 424 0
-688 -533 -56 0
-936 -907 -704 0
801 -916 515 0
588 -169 18 0
-515 -484 -139 0
-928 914 -309 0
934 -274 345 0
291 -368 -751 0
143 6 -593 0
990 -678 361 0
21 847 -164 0
40 12 26 0
503 916 -801 0
69 475 743 0
-91 -206 334 0
-172 880 -745 0
-455 -190 -878 0
254 -885 87 0
692 716 -65 0
429 143 -471 0
-179 -187 -526 0
-386 -625 -538 0
807 307 -656 0
-815 467 627 0
827 226 -526 0
411 -875 209 0
-508 -480 -833 0
-30 815 -740 0
-617 -958 802 0
606 -794 672 0
867 199 -58 0
786 178 -221 0
-54 -293 -512 0
997 697 -821 0
-648 765 187 0
-662 963 628 0
-181 645 983 0
-911 -212 -353 0
-705 905 177 0
-907 -299 890 0
630 521 -157 0
-157 845 455 0
767 912 925 0
228 622 -160 0
402 -27 413 0
-765 -349 -941 0
-318 752 223 0
-335 145 -577 0
267 548 320 0
293 40 705 0
-843 -227 645 0
930 -428 190 0
744 -292 -458 0
-426 -500 -934 0
205 -35 -517 0
-745 432 -393 0
548 -443 -649 0
171 372 -752 0
393 332 -782 0
-789 823 -618 0
85 -354 -53 0
-740 -203 192 0
160 172 937 0
103 338 863 0
620 768 998 0
-610 413 469 0
-168 -595 -739 0
-919 25 -725 0
-147 30 322 0
831 -539 96 0
-346 88 -385 0
146 -872 413 0
-154 421 -162 0
243 -485 959 0
-711 124 373 0
-423 195 -843 0
-334 -800 -325 0
669 -47 -464 0
940 677 -612 0
496 -593 248 0
705 559 -236 0
-290 -569 -983 0
903 -415 917 0
-336 960 -519 0
132 -871 423 0
-634 -117 925 0
456 543 936 0
719 453 733 0
-727 -41 343 0
866 -930 -452 0
-864 -263 -788 0
-730 601 -184 0
576 194 -944 0
888 206 685 0
341 598 293 0
988 919 -947 0
574 238 166 0
-72 524 546 0
-526 45 913 0
755 -879 519 0
853 -12 541 0
-150 681 -479 0
879 -44 40 0
-360 647 -380 0
289 629 903 0
307 90 801 0
-623 48 -485 0
580 664 -803 0
787 -312 969 0
-687 384 -580 0
-101 313 967 0
671 -579 -88 0
-812 -370 575 0
287 839 -96 0
-433 148 972 0
-977 461 -673 0
-593 -968 -476 0
152 -932 632 0
29 622 435 0
-414 -361 -502 0
-369 217 -270 0
-138 809 253 0
408 136 66 0
-901 138 849 0
-133 322 728 0
700 -302 -758 0
859 -64 469 0
521 -364 590 0
996 927 182 0
-15 961 149 0
345 577 -425 0
-188 -43 329 0
-956 -876 -652 0
-325 99 -621 0
501 -636 707 0
-55 -706 -827 0
995 153 -870 0
-110 -724 -1 0
-294 625 -719 0
293 -168 254 0
429 672 -973 0
376 -775 662 0
-263 890 -406 0
176 358 -809 0
174 345 -419 0
444 -203 141 0
-470 -177 237 0
-298 123 -834 0
-274 33 -834 0
-479 84 -301 0
872 -944 -340 0
645 -146 -170 0
342 83 -433 0
60 444 396 0
305 -934 956 0
432 -212 885 0
94 36 -50 0
189 -786 -592 0
-108 -779 -182 0
-636 -963 -523 0
-65 714 -362 0
-201 38 -557 0
-686 -371 -192 0
-88 229 149 0
-48 -955 -59 0
-450 -385 214 0
-13 291 -771 0
-790 -94 -109 0
-969 856 209 0
-571 -586 -957 0
554 -599 -146 0
733 6 148 0
88 726 891 0
-762 379 56 0
-20 568 220 0
794 -883 678 0
106 14 304 0
35 441 693 0
-747 -572 -306 0
672 -165 -287 0
-939 -478 630 0
-368 53 2 0
398 -545 59 0
317 197 877 0
-1 -327 -938 0
-179 -344 205 0
-535 -273 974 0
-352 -931 875 0
-240 -862 226 0
978 753 -616 0
716 21 -856 0
-965 177 -790 0
-695 733 -584 0
649 -664 729 0
-612 -734 -611 0
157 -572 269 0
626 -64 -354 0
-450 968 -702 0
48 -186 -168 0
-981 205 -541 0
834 412 -860 0
445 203 -668 0
-446 220 -3 0
644 -993 340 0
802 634 71 0
-354 -438 -228 0
-117 689 793 0
395 347 725 0
-81 -329 -975 0
295 555 664 0
42 -398 -774 0
228 75 40 0
-583 70 -48 0
-547 -428 615 0
-565 -829 -20 0
392 948 -386 0
719 745 -835 0
939 422 -19 0
193 -861 92 0
-381 436 380 0
309 -552 -494 0
343 -689 -40 0
761 457 -428 0
-549 -196 -931 0
125 373 -597 0
-209 -270 -154 0
-545 446 -663 0
452 -932 -958 0
696 437 -378 0
721 858 -680 0
-885 520 878 0
-928 -146 -103 0
31 588 248 0
-564 190 -427 0
-399 241 -160 0
161 -944 -800 0
361 -365 842 0
883 -282 387 0
30 -964 636 0
667 -507 -377 0
-986 145 -146 0
833 100 24 0
-7 227 -414 0
631 -703 266 0
-484 935 -396 0
946 -271 568 0
-701 75 -48 0
-492 -436 398 0
-980 -213 795 0
-712 -315 -42 0
892 909 -11 0
-541 -902 -128 0
-844 -244 93 0
11 967 -898 0
909 16 -718 0
-128 -307 97 0
866 703 380 0
926 -978 -832 0
725 -162 -324 0
-957 -779 -544 0
591 -333 -850 0
-474 -375 -677 0
878 -374 -855 0
101 384 -526 0
-579 684 857 0
-320 -1000 -275 0
