p cnf 500 1525
253 250 -366 0
-346 368 389 0
208 -318 457 0
238 477 183 0
-257 33 413 0
432 -166 -128 0
-35 -276 138 0
443 -283 296 0
138 -431 -295 0
-28 347 -422 0
255 468 362 0
-194 60 216 0
-470 -214 -219 0
-451 241 465 0
-431 -187 -82 0
-332 275 111 0
498 283 386 0
266 150 -338 0
69 294 245 0
435 -452 -161 0
-286 -40 -16 0
-2 -144 -213 0
-131 215 -139 0
-234 -463 -100 0
200 -172 212 0
-280 408 -106 0
-240 -348 75 0
14 54 323 0
-122 138 330 0
-42 142 85 0
275 -254 -80 0
-141 396 -126 0
-479 -462 -250 0
111 359 -144 0
-322 43 -357 0
33 40 291 0
-280 353 -446 0
-73 -465 323 0
113 130 50 0
228 -244 62 0
103 -29 -321 0
314 -63 205 0
-292 -218 -289 0
94 -426 -411 0
-452 473 321 0
396 -456 -49 0
-127 -179 107 0
-434 -428 228 0
94 349 23 0
-124 -454 -65 0
138 -365 144 0
373 146 -245 0
439 -23 -103 0
359 -227 -341 0
187 5 155 0
499 117 -442 0
432 402 67 0
331 377 359 0
89 -408 497 0
-182 -238 -380 0
-453 -191 420 0
-237 -312 -55 0
305 -158 -362 0
-156 -254 -138 0
329 -289 184 0
-113 99 300 0
152 -6 -102 0
-118 -228 -224 0
-317 107 345 0
55 -112 -237 0
-240 49 -353 0
-335 79 428 0
281 201 -103 0
167 194 74 0
-155 51 276 0
-224 233 408 0
-18 -1 363 0
133 189 -64 0
425 16 -187 0
215 -111 201 0
-332 285 225 0
336 351 104 0
84 -311 212 0
-145 40 480 0
163 -288 -51 0
-84 -312 -329 0
-1 66 256 0
-362 171 -404 0
157 287 -486 0
-476 89 -165 0
14 -241 -180 0
193 -123 -25 0
164 -380 356 0
-6 -103 94 0
433 410 468 0
457 -102 389 0
197 -18 19 0
-412 219 351 0
139 -153 269 0
-179 -239 -6 0
439 496 356 0
-381 397 96 0
131 44 70 0
151 461 191 0
339 -394 -253 0
-99 -64 -80 0
12 -382 451 0
76 306 43 0
393 -417 -406 0
399 -72 -4 0
-377 32 -249 0
79 -332 -385 0
459 232 -111 0
-423 59 212 0
-163 -82 182 0
-479 301 -342 0
444 -63 -38 0
110 242 405 0
391 347 -226 0
-316 -29 460 0
-113 408 -227 0
-114 -8 251 0
482 -305 7 0
349 221 -155 0
-356 -14 -139 0
-348 -450 -433 0
351 218 -414 0
-280 -87 -341 0
495 -119 372 0
-85 87 125 0
234 -457 -121 0
163 420 351 0
-99 277 -493 0
428 254 -140 0
-214 -350 -488 0
-286 -231 386 0
-395 240 11 0
-468 -228 288 0
-73 -169 -211 0
-384 -171 207 0
-12 200 117 0
-37 -210 -71 0
-314 -342 -168 0
377 -294 -300 0
92 37 423 0
-338 328 103 0
125 284 88 0
458 403 173 0
16 -274 -104 0
70 -340 150 0
340 -418 190 0
-449 18 -48 0
-40 300 -275 0
-400 -487 -445 0
344 165 -419 0
209 -339 431 0
469 195 -227 0
-134 82 31 0
43 381 -268 0
-198 -305 92 0
177 66 -470 0
-375 -492 381 0
-44 115 -428 0
391 -213 149 0
246 -333 -344 0
-498 426 254 0
-214 -12 -53 0
401 -168 -328 0
-117 119 250 0
-53 -169 -182 0
-398 -75 101 0
-201 191 11 0
-209 161 269 0
188 68 175 0
267 426 66 0
464 -3 275 0
194 -354 -128 0
336 -215 188 0
350 -187 -457 0
-248 292 235 0
-26 282 -23 0
258 201 -30 0
328 -396 313 0
78 -67 274 0
-356 -213 134 0
-467 -135 326 0
399 67 317 0
385 -72 -267 0
-412 188 -376 0
-483 -61 283 0
281 -338 -9 0
139 133 360 0
-494 -205 -346 0
456 -127 478 0
454 -225 221 0
58 150 126 0
-32 195 -148 0
76 248 -407 0
323 416 -214 0
-58 2 228 0
-327 341 463 0
-374 -134 177 0
-367 -9 29 0
-37 29 -293 0
341 -385 90 0
-411 421 -440 0
476 259 -134 0
-381 236 -75 0
392 -274 -416 0
132 338 -469 0
382 -366 -170 0
-364 -127 222 0
107 378 -117 0
-237 319 -118 0
-453 -178 -123 0
62 -267 -344 0
-158 -334 86 0
407 309 -446 0
317 -42 -158 0
-255 -329 -312 0
275 -149 -485 0
286 -111 489 0
410 -235 -400 0
194 -65 -52 0
435 -90 -368 0
298 314 -321 0
166 386 248 0
-10 370 -321 0
53 111 325 0
432 -356 384 0
-337 -332 -421 0
-433 -332 326 0
-298 497 21 0
-203 -1 -369 0
-30 399 -10 0
-83 289 338 0
-339 -40 -15 0
218 104 -241 0
101 -489 -42 0
128 39 367 0
-411 -14 -20 0
-43 159 498 0
496 1 -441 0
-406 168 389 0
43 500 -324 0
-466 -134 416 0
-421 -337 -275 0
-97 -114 -260 0
342 -61 453 0
-205 -482 -343 0
-55 331 -313 0
-322 -331 281 0
274 -485 170 0
317 323 -256 0
-365 305 -175 0
-127 285 -169 0
372 266 226 0
-250 343 291 0
-111 -99 390 0
178 211 -28 0
-30 470 391 0
237 -444 119 0
-290 -135 -306 0
-434 -127 210 0
-391 -126 -416 0
-451 -280 430 0
-390 -432 -373 0
-4 411 -151 0
192 45 -90 0
125 -375 -328 0
-29 343 67 0
-466 -25 -45 0
315 -353 13 0
38 -159 -381 0
-214 116 -249 0
-250 -174 -265 0
198 -404 106 0
95 387 189 0
-397 289 -261 0
338 265 -423 0
228 -492 -362 0
386 -211 -475 0
-288 -261 -38 0
291 6 -355 0
109 275 98 0
133 -407 -436 0
-362 205 -444 0
35 -401 424 0
-482 -266 480 0
-412 344 414 0
337 -419 50 0
315 -171 277 0
494 -269 -480 0
334 -8 -483 0
496 189 167 0
236 26 123 0
-315 86 230 0
81 -238 -458 0
-180 -293 -82 0
321 99 336 0
-427 -465 182 0
-16 471 -248 0
9 175 -37 0
-311 -342 -434 0
-174 326 489 0
-16 -213 -310 0
430 79 -316 0
-90 -8 -270 0
305 266 -265 0
362 16 344 0
271 -53 -36 0
-198 337 -24 0
55 126 -95 0
-83 289 217 0
318 -402 390 0
181 -201 171 0
315 220 -273 0
-194 -214 42 0
289 -314 186 0
-74 -424 485 0
326 -129 38 0
-460 -17 436 0
391 -250 -103 0
434 400 421 0
-145 -27 318 0
-166 -335 -55 0
-364 297 232 0
-61 -376 -396 0
322 -376 -73 0
362 -381 -479 0
106 307 404 0
118 -111 98 0
-401 -81 -371 0
6 -261 40 0
311 97 124 0
-233 -4 487 0
341 315 -406 0
59 -410 -365 0
328 321 -325 0
-385 65 190 0
359 -136 227 0
498 -499 451 0
-128 336 -440 0
-69 -362 412 0
-137 27 -35 0
-43 127 -32 0
267 352 118 0
-3 454 292 0
-482 -137 397 0
-133 423 -222 0
-162 -263 -209 0
-460 341 -371 0
-268 -133 -192 0
368 -161 -5 0
-482 38 92 0
-262 120 -495 0
424 -188 406 0
-351 300 -114 0
270 -259 -189 0
124 -225 -343 0
-44 454 123 0
289 203 93 0
145 403 474 0
98 -420 -392 0
460 -61 429 0
174 -454 -238 0
-426 -91 355 0
432 -112 417 0
-328 115 233 0
-42 454 -223 0
-444 -158 -245 0
100 210 312 0
298 -387 -29 0
374 71 110 0
258 -215 458 0
54 -12 188 0
-355 56 131 0
98 331 377 0
5 -310 201 0
-363 140 -161 0
-404 271 -165 0
76 105 15 0
-387 317 209 0
-193 -110 48 0
-446 321 203 0
136 -487 248 0
-451 419 -391 0
110 256 -465 0
457 340 222 0
-471 190 483 0
412 -113 -18 0
67 -368 191 0
120 -75 336 0
151 463 -31 0
-309 -451 497 0
50 7 69 0
373 8 -104 0
-230 -90 21 0
97 -151 -60 0
107 118 -472 0
-309 -466 426 0
2 -317 38 0
429 312 36 0
390 194 78 0
48 -464 -79 0
84 -261 4 0
-198 169 -176 0
29 135 -202 0
-473 263 104 0
-374 186 175 0
-324 -221 335 0
-92 274 101 0
284 -83 -457 0
460 -70 124 0
-87 -47 297 0
-49 -143 -229 0
-114 413 -54 0
-5 -229 495 0
-254 352 410 0
180 -428 -36 0
431 65 -368 0
205 334 -186 0
489 -402 -2 0
30 -304 462 0
-223 368 -161 0
-240 -34 313 0
-139 182 127 0
401 78 -36 0
375 -177 366 0
-89 -490 275 0
-388 61 -97 0
37 443 141 0
-6 -195 147 0
156 -123 -196 0
-480 378 187 0
190 -425 34 0
497 -444 -338 0
-328 -435 84 0
-218 -50 -439 0
366 -241 -387 0
319 -389 -169 0
438 -25 203 0
140 -118 10 0
36 -486 339 0
314 262 96 0
351 -299 -20 0
-60 26 -146 0
355 -319 73 0
-292 -447 67 0
-435 417 197 0
-270 168 -458 0
184 386 -178 0
466 -289 325 0
-181 210 37 0
228 192 -334 0
-471 -223 477 0
72 -192 345 0
-51 -337 -89 0
81 410 454 0
457 -373 -282 0
-95 300 -306 0
314 45 -212 0
70 -271 -19 0
-451 103 100 0
-179 401 -371 0
-238 -75 59 0
330 -475 214 0
-496 -279 346 0
-75 -370 248 0
-337 344 469 0
-406 -193 -148 0
-105 233 -337 0
-222 124 -135 0
-278 -85 -328 0
242 -448 264 0
-333 269 -219 0
-241 486 245 0
-225 54 399 0
14 -421 480 0
422 -300 -196 0
-169 -280 156 0
-198 -300 -212 0
166 40 214 0
-125 145 -39 0
-250 -256 138 0
-141 83 475 0
221 300 341 0
-175 5 365 0
204 -214 32 0
220 -70 439 0
178 475 -246 0
223 170 436 0
-33 -214 -100 0
11 161 284 0
-102 447 -299 0
344 10 -282 0
426 -428 496 0
-390 399 441 0
321 -390 -303 0
-455 407 406 0
-216 306 -444 0
194 -147 241 0
-172 220 446 0
-229 152 -124 0
356 175 267 0
374 -339 -237 0
-153 -308 419 0
-147 -101 125 0
-446 362 232 0
-473 -200 -420 0
-220 258 393 0
-336 -34 -19 0
-97 -63 120 0
149 -453 -286 0
442 -395 222 0
-184 -356 278 0
-352 -408 -369 0
-403 395 266 0
-385 315 157 0
-186 -110 450 0
101 -405 347 0
-116 -475 450 0
195 -416 -421 0
439 254 -45 0
137 149 343 0
376 -54 -131 0
102 -100 32 0
92 -142 164 0
-107 43 173 0
119 -217 105 0
-262 -236 169 0
-78 333 296 0
-267 141 -30 0
240 -397 -251 0
237 32 -119 0
355 -500 -126 0
-113 -439 -228 0
80 -85 446 0
-288 -223 -307 0
-355 25 415 0
-24 -459 386 0
-455 185 -427 0
356 -357 -30 0
-53 218 156 0
-448 419 197 0
168 277 497 0
108 -364 -282 0
351 289 -160 0
358 465 223 0
-297 -167 -164 0
108 220 -331 0
-248 -78 178 0
122 -334 -189 0
14 400 477 0
341 106 191 0
371 136 -339 0
-495 39 193 0
401 109 -482 0
-73 -194 -468 0
377 231 -88 0
-261 -147 36 0
128 172 -41 0
-315 -358 265 0
348 327 -3 0
277 -20 -97 0
-159 266 422 0
86 -385 -309 0
-370 427 -31 0
356 -445 202 0
-74 238 -193 0
120 -252 308 0
258 -360 342 0
396 -117 99 0
383 -410 6 0
22 -5 400 0
-437 -443 -410 0
-397 -265 19 0
279 -133 355 0
382 276 419 0
389 312 67 0
402 422 262 0
118 387 -159 0
233 366 179 0
258 -138 481 0
-249 -384 -442 0
309 435 243 0
110 431 80 0
471 -187 -90 0
108 -440 488 0
5 258 142 0
-6 157 -34 0
-250 -244 376 0
485 -404 55 0
88 53 -439 0
87 -80 -90 0
-219 353 -25 0
-446 -386 410 0
-495 -61 7 0
468 141 -122 0
-419 -237 -298 0
-208 -181 185 0
-221 44 215 0
171 3 -111 0
393 113 19 0
-301 -71 257 0
41 -364 -225 0
-326 287 53 0
-2 -404 -23 0
226 -121 -209 0
-356 92 -204 0
17 -123 353 0
-476 92 416 0
306 286 -317 0
173 -399 -151 0
57 -304 -349 0
-37 -486 -439 0
-85 -12 338 0
-397 -73 408 0
83 217 -138 0
-83 -254 144 0
455 -218 176 0
-271 -367 302 0
-482 408 199 0
-86 350 482 0
91 -344 -361 0
-236 141 495 0
397 -185 -57 0
-100 416 -138 0
246 -145 -322 0
424 391 -491 0
-419 339 -392 0
49 -37 422 0
139 -121 -193 0
162 -18 -118 0
228 110 -333 0
366 -351 -130 0
-326 225 2 0
-315 320 -40 0
-193 -84 303 0
380 392 -46 0
-342 112 55 0
338 304 -32 0
200 303 -486 0
294 114 -417 0
-99 -39 419 0
408 -476 379 0
339 -85 -313 0
-98 -81 18 0
-309 -215 -162 0
-399 -20 -9 0
-176 -282 -109 0
208 38 202 0
159 480 -269 0
-420 -31 84 0
-391 451 -138 0
-320 -500 -253 0
414 185 -165 0
86 195 291 0
-302 175 -445 0
-34 -433 250 0
-6 327 -147 0
118 -286 97 0
-386 -87 206 0
431 476 -388 0
276 221 -379 0
-436 -497 -168 0
95 327 -106 0
229 220 397 0
350 146 -280 0
-298 393 -175 0
95 16 409 0
85 41 474 0
-412 193 -323 0
338 -172 -156 0
357 -381 -488 0
255 229 53 0
277 -271 -135 0
-497 -197 315 0
-345 -269 226 0
-65 111 341 0
205 -468 164 0
12 363 -288 0
-302 377 -131 0
-256 258 28 0
269 28 -375 0
161 104 347 0
392 41 475 0
-57 318 -278 0
94 99 -329 0
266 -414 391 0
476 127 480 0
296 27 198 0
-466 417 382 0
-434 -343 500 0
283 170 117 0
109 -446 216 0
-293 -215 -422 0
183 -252 445 0
-453 -382 -316 0
458 482 -101 0
-246 -129 -128 0
152 57 19 0
206 3 158 0
-487 316 456 0
73 445 -462 0
-248 -71 -347 0
3 447 487 0
160 340 -267 0
498 -178 106 0
416 409 -220 0
-304 14 481 0
-211 -324 -318 0
-47 -82 353 0
-118 150 452 0
394 -157 -447 0
-263 -412 -36 0
339 -416 202 0
-45 -408 487 0
311 -436 -366 0
-496 111 266 0
305 164 48 0
-232 -421 -123 0
-490 -455 -82 0
228 -133 -433 0
-391 423 118 0
46 -221 387 0
138 -87 468 0
-93 -203 -299 0
64 -425 324 0
-151 247 -388 0
-190 -238 390 0
86 293 -393 0
381 59 -312 0
455 435 -386 0
314 317 -71 0
-53 -260 -103 0
-285 329 -392 0
47 200 -94 0
349 -271 259 0
-103 429 447 0
175 -423 314 0
-194 -80 32 0
469 372 -495 0
-22 151 -124 0
-252 -378 -175 0
-433 174 289 0
-52 -220 292 0
75 199 265 0
242 -373 -101 0
163 -6 312 0
171 -187 -310 0
-50 -376 49 0
442 384 297 0
364 433 361 0
131 209 295 0
-374 -62 -215 0
-403 387 14 0
102 -222 -422 0
215 213 199 0
195 -428 285 0
-398 -13 -207 0
349 -256 107 0
-248 -498 -375 0
-490 120 203 0
62 22 463 0
-430 398 366 0
300 -169 430 0
-38 293 269 0
399 189 350 0
-298 471 -391 0
69 284 221 0
-72 -11 20 0
52 264 -325 0
-72 423 -242 0
-407 -45 197 0
89 140 462 0
-205 90 119 0
106 -163 -179 0
-238 41 358 0
165 35 -160 0
-318 -26 20 0
-229 -140 46 0
427 -189 -420 0
-124 220 435 0
-158 -79 -422 0
359 -110 271 0
426 137 -210 0
-58 -328 -382 0
-43 -383 451 0
-200 -127 374 0
325 490 215 0
-85 124 -343 0
41 46 -430 0
-66 -109 -194 0
176 -51 -211 0
-245 -452 293 0
-151 -104 175 0
309 -261 201 0
-215 161 93 0
-123 315 -191 0
270 167 54 0
-190 -316 -13 0
-314 -190 -134 0
-15 463 185 0
17 395 328 0
118 417 410 0
-171 -115 2 0
-44 -482 -263 0
-376 397 -64 0
165 28 -127 0
-296 226 -387 0
-104 -198 -459 0
340 -196 -1 0
389 194 382 0
-87 -470 375 0
268 -118 361 0
268 -374 -449 0
264 -1 -178 0
-304 381 43 0
-25 -295 -288 0
138 -71 202 0
-366 -388 -190 0
50 259 174 0
-224 308 -64 0
-5 11 -361 0
490 47 -26 0
253 475 453 0
346 53 457 0
-233 424 163 0
-49 -115 -179 0
-235 -1 432 0
492 274 -174 0
215 431 39 0
-171 128 -406 0
254 429 141 0
287 115 -27 0
-96 -456 438 0
3 70 146 0
-48 198 204 0
-370 -31 -475 0
-434 232 -37 0
-414 -57 222 0
54 425 -199 0
-256 -391 220 0
58 387 -327 0
-480 -272 -364 0
-419 95 384 0
-145 -9 -63 0
128 -283 -193 0
181 -465 -383 0
437 -119 106 0
-156 -263 -315 0
-154 8 392 0
414 164 -459 0
210 -61 402 0
-406 -435 -245 0
-466 -67 -64 0
-400 -388 73 0
-286 438 307 0
-128 -338 7 0
-340 11 375 0
280 448 -362 0
-34 33 196 0
-11 495 160 0
-437 -124 2 0
-131 230 -45 0
321 268 -137 0
-345 434 -319 0
265 261 258 0
-402 -21 305 0
-48 -465 417 0
-277 44 -33 0
-183 200 17 0
-404 441 -468 0
-194 71 66 0
-134 340 -151 0
-412 -195 74 0
-8 411 -72 0
118 367 493 0
228 8 -432 0
-23 152 -332 0
-239 -317 337 0
-1 499 -481 0
153 -184 -338 0
-436 -281 -296 0
-347 -72 -452 0
336 237 -402 0
-405 -110 109 0
-236 -353 219 0
205 446 -469 0
-232 57 462 0
-233 185 113 0
43 14 -56 0
-147 -356 -107 0
56 108 443 0
458 7 -474 0
26 423 -433 0
-58 210 -300 0
318 -336 120 0
12 213 166 0
-292 -382 309 0
182 -147 -173 0
148 48 -478 0
-122 -273 328 0
-423 276 -244 0
198 378 -280 0
469 -178 -138 0
470 361 -222 0
-311 -491 -299 0
422 -232 256 0
156 242 -322 0
134 393 -254 0
9 190 193 0
-380 -371 51 0
410 434 -422 0
482 497 455 0
352 422 -64 0
313 82 16 0
36 265 347 0
-135 -125 198 0
-154 -236 298 0
-46 53 369 0
-241 -277 53 0
-89 20 26 0
28 137 443 0
334 432 -492 0
-252 -481 -232 0
400 -440 425 0
-234 -442 169 0
-243 177 202 0
-53 63 -253 0
-32 388 -391 0
86 155 -230 0
192 -475 -267 0
-196 202 -348 0
311 77 -255 0
-430 -358 -363 0
234 62 150 0
-43 -453 -114 0
113 180 -369 0
-293 -484 -316 0
138 422 396 0
149 480 11 0
22 160 43 0
472 -76 -92 0
448 -340 338 0
430 242 294 0
-325 476 -315 0
-134 212 -468 0
-240 -173 329 0
275 462 94 0
-87 -188 -240 0
-150 -448 15 0
-182 -82 -236 0
276 445 -33 0
276 70 323 0
290 352 -424 0
292 85 441 0
-90 317 461 0
312 346 372 0
-17 -266 322 0
-325 -143 -23 0
124 233 -176 0
262 399 -496 0
-110 -172 -61 0
-228 -455 -254 0
-416 -433 -265 0
-291 -428 392 0
-309 476 498 0
-306 421 25 0
414 -348 317 0
-141 -469 -197 0
275 -220 -93 0
-174 -120 -386 0
322 122 -47 0
-122 218 441 0
291 463 422 0
425 434 -470 0
-224 481 237 0
344 -210 -444 0
-182 -402 -24 0
-355 -394 -347 0
-158 307 -222 0
-108 175 462 0
-263 -477 92 0
233 121 -369 0
321 286 116 0
274 344 -201 0
473 199 -484 0
439 -148 297 0
-363 -360 179 0
-276 88 222 0
89 107 -14 0
-33 -50 260 0
-364 378 163 0
-456 127 -257 0
276 -406 168 0
-345 32 -366 0
254 -49 76 0
299 -32 -110 0
-398 352 33 0
-208 -348 204 0
-479 307 -387 0
312 -105 -466 0
-169 414 278 0
29 -194 152 0
23 -257 201 0
-183 459 272 0
231 245 496 0
117 198 249 0
455 324 183 0
351 -309 445 0
-107 483 -127 0
-462 -409 137 0
-485 -16 50 0
210 -388 116 0
-42 424 -267 0
-134 -371 365 0
314 121 -380 0
-412 498 -22 0
-429 450 234 0
113 -444 -35 0
458 -478 -237 0
-66 -433 488 0
61 374 -315 0
-144 -302 179 0
353 161 -71 0
-232 92 -42 0
-374 -329 10 0
-57 -177 -146 0
-343 2 242 0
336 -205 269 0
-376 -328 -294 0
54 -393 111 0
-450 -2 -244 0
-456 86 216 0
-102 186 373 0
484 -379 -132 0
75 55 180 0
42 124 307 0
496 371 236 0
-58 127 429 0
369 381 -171 0
229 162 54 0
55 -12 405 0
-365 223 -421 0
96 236 416 0
139 109 -160 0
197 391 225 0
-256 486 -226 0
-163 140 18 0
-311 347 -267 0
-75 -170 400 0
-65 330 87 0
288 400 11 0
-386 41 -246 0
85 -390 372 0
51 422 451 0
-486 117 -490 0
144 343 -489 0
372 418 -253 0
342 249 186 0
-72 -374 -216 0
252 -148 333 0
-132 286 393 0
-50 261 -495 0
-298 457 430 0
483 449 -87 0
168 -353 -204 0
-144 231 -143 0
468 339 -127 0
-137 342 17 0
485 -274 201 0
259 404 -62 0
188 -203 425 0
196 18 -207 0
222 -270 -180 0
-316 -434 289 0
-480 -300 387 0
412 -411 -156 0
276 -33 -244 0
223 -382 164 0
242 -379 417 0
483 191 271 0
-363 -303 -496 0
-212 -387 -229 0
-303 -113 152 0
-15 374 490 0
-437 48 -446 0
257 437 372 0
-222 459 -207 0
41 126 -473 0
-421 -479 -494 0
105 466 -175 0
-137 237 92 0
202 211 20 0
238 347 188 0
94 270 267 0
240 396 -151 0
109 348 366 0
454 347 -419 0
353 -130 235 0
467 -447 -441 0
483 50 34 0
-335 -252 -349 0
236 46 -13 0
-92 10 -5 0
-226 -91 425 0
118 312 329 0
136 208 426 0
494 3 160 0
426 295 -165 0
-82 -143 -171 0
-33 184 243 0
-379 82 -481 0
-390 -421 -145 0
-404 49 -483 0
-326 -135 -354 0
-445 -107 217 0
6 -392 -371 0
443 -302 274 0
-417 -500 -98 0
-181 316 83 0
-391 -130 -342 0
394 -16 6 0
157 -409 -267 0
-414 121 77 0
99 377 275 0
-351 135 452 0
45 -449 481 0
434 25 -401 0
124 488 16 0
267 417 -60 0
413 -2 -450 0
-99 -147 -472 0
-286 477 -274 0
490 130 250 0
232 253 144 0
260 -150 -280 0
-273 326 201 0
-29 386 148 0
-448 -362 112 0
442 -477 -128 0
211 458 -370 0
-194 -102 -490 0
-489 -94 -151 0
-314 -205 -206 0
-283 -58 -249 0
440 57 -66 0
184 -199 -58 0
175 76 316 0
-40 -105 -62 0
152 -330 243 0
166 83 -315 0
-22 167 18 0
-195 -352 -486 0
-143 -430 97 0
101 422 363 0
30 -151 215 0
236 364 153 0
462 -266 -481 0
-363 -63 -83 0
101 12 284 0
-383 -459 358 0
454 282 -277 0
267 -427 475 0
483 -153 -139 0
253 181 385 0
312 -490 -151 0
469 1 347 0
-160 358 316 0
316 -223 52 0
-75 411 -111 0
-455 -451 1 0
-297 -57 3 0
-126 231 -55 0
-477 -264 439 0
302 -457 58 0
428 464 367 0
10 -95 -349 0
-309 54 -151 0
-350 -158 -276 0
340 195 -320 0
-20 7 -354 0
249 -168 251 0
140 400 451 0
-480 20 -288 0
-325 -180 -24 0
102 -68 -357 0
185 -69 438 0
232 256 96 0
66 291 -300 0
121 24 -365 0
-86 -265 13 0
-449 -70 -85 0
300 -382 -438 0
-221 -220 162 0
237 -73 -67 0
130 305 -264 0
-295 312 317 0
-444 -474 454 0
-337 -248 26 0
-110 -159 -208 0
94 432 214 0
-35 225 343 0
343 -183 415 0
35 245 -199 0
23 354 137 0
-225 -98 -278 0
401 -426 193 0
147 106 494 0
-40 268 264 0
-389 436 62 0
-128 283 -405 0
382 -144 13 0
364 -51 95 0
310 273 -275 0
407 237 477 0
344 102 -334 0
-137 -286 2 0
-79 -300 315 0
-338 -426 476 0
-417 -268 -81 0
154 202 -139 0
330 253 -167 0
-237 372 79 0
-467 90 -247 0
176 -388 202 0
-9 -238 -444 0
-140 -4 167 0
293 -169 381 0
-494 -436 -102 0
353 -391 -467 0
365 -197 -476 0
357 -200 149 0
358 456 -341 0
-468 166 -282 0
-20 -486 -157 0
-98 -293 438 0
99 -338 452 0
-83 446 -388 0
-192 -228 181 0
394 -16 -354 0
-359 366 -309 0
-474 470 430 0
341 152 -61 0
139 -497 410 0
-164 -334 129 0
-23 137 -348 0
-138 -309 417 0
-457 436 -45 0
487 345 -406 0
-313 121 -209 0
-90 113 324 0
101 -77 478 0
426 -165 -419 0
-13 -15 -447 0
-441 356 200 0
-60 57 19 0
500 43 277 0
-135 38 125 0
-345 322 421 0
-28 -24 143 0
-305 -42 -172 0
443 236 -91 0
-6 480 95 0
-441 84 79 0
455 -423 -490 0
-262 82 -43 0
454 -376 -151 0
-298 -47 -246 0
-44 -158 -330 0
347 -215 -440 0
264 -280 -287 0
483 79 -145 0
253 -22 -391 0
278 -453 -134 0
119 101 354 0
-63 -17 -233 0
48 229 481 0
430 -357 -212 0
-242 224 317 0
189 169 465 0
-282 -461 -14 0
410 -105 275 0
180 224 128 0
85 2 -188 0
19 308 285 0
-342 -480 370 0
-183 306 -142 0
291 -341 -362 0
385 -116 174 0
-139 -99 417 0
386 253 -54 0
-269 -424 385 0
282 -221 137 0
-288 -367 33 0
-331 -490 -114 0
-388 -70 150 0
357 81 277 0
453 -344 -200 0
-322 -278 -496 0
59 -440 -190 0
-378 -455 466 0
132 180 -63 0
-120 340 94 0
129 -112 56 0
60 -193 -466 0
160 -417 466 0
139 382 426 0
407 -171 -271 0
75 -25 -42 0
436 -212 89 0
3 -52 193 0
-304 6 3 0
-106 453 -420 0
371 395 -140 0
-250 391 -455 0
27 -455 -173 0
156 373 261 0
-68 459 -373 0
305 -290 25 0
-345 -122 -261 0
-405 419 -173 0
-223 -53 204 0
123 -143 -177 0
19 -363 137 0
465 109 -184 0
494 168 407 0
55 463 153 0
-72 298 -384 0
-221 266 401 0
-488 53 305 0
-303 -22 -27 0
-467 158 45 0
-235 -34 -475 0
438 496 -43 0
-449 131 500 0
194 -441 -451 0
485 -490 -401 0
-128 -216 -299 0
-326 -491 216 0
-478 488 -486 0
224 475 -244 0
437 297 -205 0
-95 350 336 0
-14 405 442 0
-16 -152 -205 0
-403 334 362 0
-489 -240 113 0
307 -241 -65 0
-355 359 19 0
98 -364 201 0
-286 -108 -274 0
-134 -448 -198 0
-450 391 -202 0
347 -451 -371 0
33 267 84 0
194 -490 -1 0
298 -464 -95 0
-279 -123 311 0
-486 305 -469 0
243 -47 127 0
-54 -248 214 0
21 188 -384 0
-63 451 -179 0
-157 428 50 0
-213 -196 75 0
-184 108 -153 0
-140 -408 430 0
-200 122 404 0
450 -74 -277 0
21 -220 103 0
-280 -175 -247 0
299 -206 -198 0
-336 -239 -469 0
-157 79 97 0
-313 209 304 0
-430 230 -281 0
-84 -246 444 0
73 -428 -169 0
-297 441 -48 0
301 -380 -359 0
356 -248 -442 0
-345 -124 -475 0
100 -40 241 0
275 187 -191 0
-462 -383 -162 0
-337 354 -162 0
179 239 439 0
457 -422 111 0
-353 360 403 0
157 -218 465 0
-383 -95 287 0
-7 311 -429 0
-162 -326 275 0
74 487 7 0
-435 -346 -459 0
-311 324 -464 0
-273 413 -493 0
489 -360 249 0
-398 140 70 0
-366 -460 253 0
152 -83 -288 0
341 402 61 0
-66 218 -206 0
-344 -147 -175 0
23 -396 -293 0
66 -55 313 0
13 188 -78 0
-259 -447 -188 0
-90 464 -11 0
110 -371 -314 0
-137 286 332 0
-15 369 443 0
-86 345 -447 0
-193 -259 485 0
249 242 -432 0
485 446 -26 0
93 357 444 0
-245 106 -90 0
-271 433 85 0
-303 -474 -31 0
-34 -423 36 0
-117 -50 431 0
88 -478 -454 0
359 466 354 0
-81 462 -170 0
469 242 -143 0
-363 405 106 0
132 494 -158 0
-206 -144 214 0
-343 302 -137 0
79 -160 182 0
240 28 -385 0
451 -325 -330 0
144 -174 388 0
73 414 -72 0
196 339 454 0
-495 184 249 0
-325 -85 -394 0
-366 -326 266 0
-334 -351 401 0
-138 458 -404 0
87 -287 102 0
-331 437 404 0
368 69 -390 0
133 151 -278 0
-264 -484 379 0
460 -75 324 0
241 457 -380 0
-200 -212 90 0
99 -253 -49 0
-117 -11 -249 0
-215 19 3 0
193 -96 -362 0
-292 347 496 0
-199 182 35 0
-82 -314 329 0
51 -249 77 0
447 375 296 0
-360 480 -41 0
108 17 189 0
155 -314 -435 0
439 10 393 0
-62 -263 477 0
428 239 -355 0
-38 388 211 0
-57 244 -330 0
476 -307 313 0
219 108 -243 0
193 -361 3 0
-402 -201 494 0
-257 -324 -100 0
414 270 -74 0
160 193 240 0
490 281 -427 0
-365 -295 -408 0
-115 340 -34 0
126 -134 -339 0
-351 -145 -76 0
-169 -423 -452 0
4 -404 345 0
-207 240 -466 0
75 10 282 0
-24 -381 198 0
-438 190 495 0
-430 -140 52 0
-153 176 -226 0
146 -351 72 0
199 424 7 0
110 -306 6 0
112 291 470 0
112 -175 -292 0
-355 -403 149 0
-81 295 463 0
-291 -349 -222 0
-139 -94 -367 0
-475 -115 18 0
-477 -425 -139 0
-60 -175 148 0
-83 239 394 0
124 -23 63 0
118 -74 -409 0
433 -302 -13 0
-136 366 -110 0
398 477 -419 0
73 316 -101 0
-309 152 324 0
-183 88 -125 0
13 109 -138 0
139 104 450 0
-477 316 278 0
-477 136 185 0
31 -180 200 0
-322 -309 395 0
-429 -465 -107 0
302 -107 136 0
300 198 -173 0
-427 122 -292 0
348 -129 -54 0
190 -449 187 0
-459 -472 -410 0
110 -387 275 0
341 464 195 0
