p cnf 500 1525
126 -422 6 0
-208 41 314 0
30 138 -479 0
112 455 -163 0
-189 -296 205 0
-166 264 350 0
328 -331 421 0
-312 -147 -343 0
-4 275 294 0
355 -62 -324 0
464 493 -303 0
315 449 -424 0
-95 -19 -15 0
145 390 428 0
-181 -236 -398 0
451 -383 -164 0
326 393 -41 0
-435 -465 384 0
-336 339 123 0
134 -12 -100 0
302 280 56 0
-175 -264 50 0
-250 242 -496 0
260 317 -274 0
-387 454 -140 0
-375 310 69 0
-432 -230 66 0
-364 183 280 0
356 -499 472 0
364 248 241 0
-424 -35 108 0
-228 398 233 0
406 155 -213 0
-432 -438 30 0
336 -312 499 0
-71 -491 -91 0
-23 -416 300 0
-403 349 461 0
-214 -288 -326 0
-420 -403 -265 0
-287 248 291 0
-20 377 339 0
-326 -472 104 0
221 54 191 0
370 -333 143 0
-217 -293 -379 0
424 323 -404 0
-54 -37 -195 0
-174 377 207 0
292 -3 395 0
-43 -222 115 0
-362 149 174 0
-102 -266 -193 0
-2 -318 80 0
367 216 453 0
-371 25 66 0
37 101 366 0
357 79 -158 0
326 -134 437 0
480 17 -206 0
333 178 216 0
223 315 471 0
394 -239 -315 0
-464 57 50 0
-448 304 306 0
-236 389 -284 0
314 -351 -500 0
-166 -128 41 0
346 -82 439 0
112 -196 422 0
-215 -108 -181 0
191 405 -193 0
-493 114 -265 0
-368 -237 312 0
227 289 -383 0
260 -442 128 0
-92 20 420 0
-495 299 -105 0
-86 -203 334 0
261 289 -277 0
-290 328 -488 0
-296 361 -39 0
-93 -285 -352 0
98 -393 -299 0
-153 402 -234 0
-78 44 403 0
-160 152 -467 0
358 139 361 0
-201 -24 -143 0
280 140 -340 0
11 475 -225 0
-186 -263 -495 0
312 266 -413 0
461 22 378 0
-475 29 143 0
-8 9 393 0
239 -121 -95 0
264 81 356 0
35 -422 17 0
-182 -296 284 0
480 277 -262 0
-459 -117 -453 0
344 311 -6 0
212 56 344 0
-385 439 -147 0
312 81 -246 0
-461 -150 -468 0
-353 -21 229 0
-459 77 -104 0
-6 159 204 0
-497 -234 -277 0
-103 -396 -387 0
-30 -436 -437 0
-309 411 -130 0
-457 -124 -71 0
-367 105 -266 0
10 278 225 0
197 213 -181 0
-384 -416 -179 0
-418 -239 346 0
93 225 220 0
89 -453 392 0
-468 429 26 0
455 363 -177 0
39 92 154 0
-99 160 -301 0
-109 -40 79 0
-114 166 -13 0
-475 -8 1 0
-128 -330 -101 0
236 -372 -222 0
417 409 383 0
-156 -307 -175 0
177 38 452 0
-199 -108 68 0
205 483 359 0
-120 -63 -459 0
465 -212 -401 0
-103 -179 -498 0
-97 348 248 0
282 269 -106 0
-94 450 493 0
290 -227 259 0
430 -186 -110 0
-67 -313 173 0
-214 325 96 0
-356 -461 463 0
89 -151 99 0
-234 -150 284 0
-381 -173 359 0
-19 -274 76 0
-147 256 -318 0
135 -149 -435 0
29 275 442 0
26 -421 272 0
-452 -201 1 0
299 -112 -57 0
113 -76 -363 0
-370 -282 21 0
-401 -259 -397 0
-96 -330 128 0
-167 231 401 0
466 360 90 0
314 -453 -251 0
-22 417 187 0
-490 -364 -284 0
343 -488 -31 0
420 -415 -195 0
226 267 -246 0
38 -239 -384 0
150 -111 443 0
-83 -454 403 0
475 65 336 0
229 -278 -157 0
304 -416 -439 0
-348 477 -43 0
-373 -425 149 0
423 -35 461 0
-253 205 -115 0
125 -72 -319 0
-335 -30 -118 0
79 -203 460 0
414 306 -144 0
-212 334 -427 0
452 346 144 0
-100 -297 -172 0
66 -420 251 0
-374 -497 -119 0
182 261 -333 0
-163 296 40 0
281 482 -77 0
-330 446 493 0
-442 -472 -74 0
-1 -127 284 0
-463 -483 213 0
117 -20 292 0
304 407 136 0
-163 398 -421 0
-132 -37 18 0
2 133 -10 0
-468 -495 425 0
265 -26 333 0
-68 163 -236 0
174 -159 -180 0
436 473 158 0
391 -198 -316 0
243 85 -262 0
-496 -230 349 0
23 403 -173 0
-424 -493 -315 0
-100 -290 179 0
-124 -227 -135 0
32 -402 -109 0
296 -27 -389 0
-106 -100 113 0
25 -183 -150 0
269 -415 -295 0
114 129 414 0
158 -95 8 0
-290 252 -4 0
132 -500 323 0
-293 120 -370 0
-113 271 202 0
323 -374 232 0
401 434 278 0
-402 -72 -112 0
-45 -175 335 0
-310 -344 100 0
427 -150 -329 0
134 -439 -108 0
-229 -137 -20 0
152 255 -274 0
-251 276 163 0
-221 210 -138 0
-35 358 -295 0
-499 -29 271 0
336 231 -67 0
-424 -45 325 0
17 -91 450 0
-488 324 -147 0
336 -384 -293 0
291 407 -199 0
-57 235 82 0
158 329 -17 0
191 -446 321 0
-500 364 46 0
-349 199 297 0
308 195 136 0
-133 -423 381 0
-40 -237 -302 0
481 -439 192 0
71 455 463 0
-278 -257 -243 0
362 278 370 0
65 -389 60 0
-494 104 252 0
-230 268 352 0
-304 -366 154 0
301 -29 -427 0
-222 91 351 0
406 428 294 0
-362 -205 -21 0
460 -48 354 0
-219 -443 213 0
-102 -69 25 0
338 110 34 0
-81 -359 -162 0
-377 -39 160 0
208 258 91 0
-494 -225 448 0
212 -476 380 0
-484 28 -438 0
492 48 -188 0
28 6 471 0
297 -215 -418 0
448 -449 71 0
482 -133 -274 0
489 16 465 0
-342 -99 476 0
64 -350 -277 0
463 -222 -26 0
430 -448 452 0
-231 35 286 0
204 471 207 0
-310 431 360 0
-445 -225 144 0
254 -290 55 0
-186 -302 -348 0
161 -35 476 0
-222 -264 324 0
395 -397 369 0
-13 485 68 0
-90 -11 -235 0
138 412 -489 0
287 427 -444 0
269 -25 424 0
347 360 -391 0
-276 95 -48 0
-292 -175 -72 0
472 -387 156 0
328 -143 103 0
430 303 -166 0
-185 65 250 0
-396 433 -56 0
15 -449 32 0
-275 253 137 0
334 -500 48 0
154 34 229 0
-272 357 -230 0
-104 -271 -181 0
-452 361 33 0
-155 -494 -133 0
397 -235 -205 0
-384 428 -335 0
-498 -193 -83 0
-289 -347 -493 0
-76 -63 -27 0
79 -364 -254 0
-399 -490 -8 0
54 -126 -365 0
361 -441 238 0
290 -176 95 0
-428 488 180 0
-424 -481 -320 0
481 245 -416 0
375 -232 -500 0
409 94 -449 0
207 463 298 0
-445 -485 -314 0
407 273 50 0
275 -168 416 0
294 134 386 0
237 -348 -56 0
207 -359 72 0
107 -500 71 0
-99 106 117 0
184 -483 121 0
-105 420 -242 0
-474 385 -356 0
243 466 464 0
-110 -365 392 0
443 10 375 0
287 -364 -328 0
11 -403 53 0
-268 -112 486 0
468 445 370 0
456 -16 17 0
293 465 -85 0
203 356 167 0
234 103 167 0
110 400 389 0
-127 16 -334 0
-415 115 470 0
493 83 134 0
120 -102 -148 0
431 -434 212 0
-491 481 372 0
-330 -115 -487 0
183 475 341 0
19 45 -396 0
361 -81 467 0
14 426 201 0
-322 -226 494 0
413 48 -226 0
-388 -210 145 0
-110 -83 -269 0
-469 122 -6 0
-205 -57 150 0
-61 -3 280 0
-289 -263 72 0
-200 230 324 0
-66 225 -269 0
491 -364 329 0
284 499 -273 0
255 -31 358 0
-436 251 163 0
242 -110 48 0
-172 -361 96 0
107 -371 312 0
367 -150 -159 0
295 -444 -410 0
-165 158 -381 0
-90 -166 -256 0
-83 387 144 0
153 -13 77 0
16 98 394 0
309 476 -14 0
-330 251 -335 0
-195 119 -137 0
286 -491 462 0
-6 -144 -435 0
-284 392 107 0
251 107 304 0
380 -489 207 0
-386 -20 45 0
-212 237 386 0
-499 -67 -486 0
-161 218 -156 0
-327 493 186 0
167 -317 414 0
-55 -221 449 0
245 -78 295 0
353 334 -166 0
389 203 126 0
185 -470 -313 0
398 413 147 0
346 -88 -458 0
-111 161 -467 0
-310 470 431 0
329 395 -204 0
-218 268 -39 0
138 354 316 0
232 337 211 0
28 137 213 0
-215 419 421 0
313 -472 -162 0
29 -381 332 0
-46 -271 -329 0
203 -261 -101 0
-139 -397 -286 0
400 300 310 0
-169 191 -416 0
-311 4 361 0
435 -79 -125 0
232 -311 144 0
-416 -36 406 0
-291 248 434 0
436 -473 -289 0
374 435 423 0
-48 -453 476 0
323 -412 -114 0
154 454 252 0
410 28 -227 0
339 178 48 0
411 -120 241 0
-403 283 -118 0
-448 -439 -286 0
242 -11 -315 0
130 -423 -13 0
-323 -414 -122 0
478 -31 289 0
404 442 119 0
236 345 -247 0
380 -20 84 0
172 -458 -223 0
360 312 -220 0
273 -16 -127 0
150 -398 -485 0
22 -346 159 0
-453 -23 -68 0
41 -139 -337 0
91 207 -79 0
26 -90 -37 0
-163 -72 -346 0
-132 306 216 0
-87 286 -72 0
127 -312 -117 0
320 467 -482 0
428 -395 -405 0
91 47 46 0
442 496 204 0
-80 495 456 0
-141 317 -205 0
453 492 -2 0
-461 -381 494 0
-61 -101 -339 0
450 -481 -378 0
-284 -337 291 0
232 -4 -373 0
136 -273 -422 0
-108 240 361 0
251 26 428 0
303 482 217 0
-169 -234 237 0
221 82 -400 0
251 134 113 0
306 59 -178 0
42 418 -209 0
-305 -80 -201 0
313 3 -417 0
89 -287 -162 0
404 328 440 0
337 -365 205 0
87 106 144 0
393 375 -56 0
-459 5 426 0
354 65 -12 0
462 221 -48 0
66 -490 391 0
-207 -462 326 0
53 386 9 0
213 -162 -308 0
345 -306 -141 0
-74 -43 358 0
-5 -116 78 0
6 412 -166 0
-244 -90 -114 0
-275 282 19 0
7 -103 -432 0
-172 -483 477 0
233 216 180 0
311 -173 -92 0
278 -192 486 0
-381 -339 123 0
446 -445 -17 0
500 -262 242 0
432 -317 -465 0
-240 329 -296 0
-494 -267 375 0
78 41 466 0
183 69 -426 0
-53 -417 454 0
-498 -82 -376 0
-350 -244 -315 0
-380 -490 108 0
-90 175 326 0
-497 330 404 0
-108 -107 335 0
-469 346 -63 0
-445 297 379 0
214 -306 -371 0
-362 347 -325 0
161 -325 -172 0
413 -130 33 0
378 -411 290 0
75 -275 -97 0
-333 429 103 0
411 -300 466 0
-70 406 -61 0
47 69 240 0
102 -219 146 0
-431 -427 360 0
341 304 229 0
272 301 26 0
-193 420 -344 0
73 67 465 0
-152 408 -210 0
333 -292 -437 0
20 -233 -38 0
-333 278 226 0
-319 -240 131 0
-81 -223 215 0
317 105 171 0
60 -342 -271 0
307 189 470 0
36 -232 -434 0
125 441 8 0
-443 464 378 0
-143 481 200 0
357 -379 407 0
80 167 -483 0
-135 -255 -437 0
389 409 -108 0
-117 -353 -374 0
70 -72 -79 0
208 318 -150 0
-355 -91 439 0
148 137 -319 0
-488 11 -458 0
108 225 -304 0
-156 -438 490 0
137 -146 -309 0
167 -397 31 0
26 103 -187 0
475 -380 192 0
-389 78 -104 0
435 374 -341 0
-133 209 -409 0
-162 83 -167 0
-204 -372 -449 0
-320 -365 -448 0
161 493 341 0
-71 -275 -138 0
-328 320 -87 0
-346 446 -292 0
-191 472 219 0
-31 458 -341 0
147 -499 165 0
450 -353 -53 0
454 441 -110 0
-280 -351 -71 0
-251 195 -326 0
132 -148 -121 0
229 356 97 0
80 159 329 0
114 -174 -381 0
317 -308 281 0
-184 476 353 0
-497 430 -36 0
-163 -464 -89 0
400 209 -341 0
-231 436 -361 0
137 -398 -261 0
-139 95 494 0
146 295 -450 0
-411 447 -375 0
-50 -112 320 0
-442 429 431 0
57 -235 -492 0
-493 66 413 0
60 68 -495 0
-266 -195 33 0
341 278 -495 0
-219 -255 -320 0
-369 84 281 0
-31 -72 175 0
66 41 149 0
356 -235 -39 0
-90 -170 291 0
464 195 -408 0
-114 399 -257 0
422 -471 310 0
-116 -25 177 0
-443 -227 -135 0
-296 -289 -406 0
22 3 -266 0
-237 -425 -78 0
-411 438 3 0
355 94 10 0
-245 -137 185 0
438 29 269 0
-9 -461 -268 0
8 236 -122 0
-401 159 -325 0
-290 -341 364 0
368 -36 -108 0
36 298 431 0
-301 142 -22 0
-298 92 397 0
224 67 418 0
448 -301 -357 0
188 446 352 0
452 -253 -439 0
-221 -35 325 0
10 -191 -4 0
78 165 413 0
-262 137 48 0
421 -324 -434 0
75 -116 212 0
-130 284 -229 0
-29 308 -97 0
-113 -395 -142 0
-264 -239 173 0
150 -143 -73 0
-456 -452 48 0
-391 483 120 0
-65 208 51 0
79 361 278 0
-373 -252 134 0
-422 -43 -475 0
-27 258 -42 0
198 -287 85 0
371 404 -9 0
-108 173 240 0
316 321 -270 0
-378 351 53 0
479 189 -304 0
-331 -423 389 0
-361 20 466 0
472 355 -229 0
181 42 -153 0
-500 328 -356 0
-316 -326 172 0
-379 345 355 0
311 252 -413 0
90 -413 -320 0
-375 -132 -344 0
-84 -148 -50 0
221 145 -42 0
98 -470 -262 0
303 -156 -279 0
-44 -211 -116 0
-132 -250 443 0
348 -176 -295 0
-345 346 -374 0
-309 465 -17 0
-355 -127 183 0
233 10 231 0
-121 -461 477 0
234 -271 457 0
216 425 201 0
175 452 384 0
41 371 -241 0
399 443 -263 0
491 -387 188 0
454 -430 104 0
115 -100 -448 0
-240 335 -174 0
382 -129 -156 0
-40 -268 274 0
69 -142 464 0
-431 247 200 0
86 -169 469 0
-262 -336 -275 0
-226 -95 -223 0
-392 -221 159 0
-120 -402 -200 0
445 92 231 0
344 -310 -178 0
74 -58 319 0
22 -150 109 0
208 336 305 0
344 325 -428 0
281 -145 -315 0
4 -276 218 0
56 299 285 0
499 -368 312 0
474 -248 -322 0
73 -448 23 0
-277 127 254 0
209 414 -353 0
471 360 -100 0
230 194 -141 0
-316 -392 -365 0
-42 -304 -152 0
394 205 266 0
-327 247 328 0
231 227 -205 0
292 -459 -490 0
151 8 -468 0
-154 -412 16 0
-44 -149 152 0
68 483 348 0
-5 -442 -186 0
463 482 116 0
-120 -46 266 0
-280 477 355 0
135 -32 -177 0
310 -192 -460 0
-479 385 -427 0
216 -31 -260 0
111 -390 10 0
160 280 245 0
178 -64 22 0
-69 209 -433 0
-393 319 -258 0
-263 -370 -350 0
-68 -403 303 0
-185 20 385 0
-43 -85 -223 0
-378 360 -371 0
72 34 -495 0
-162 341 -310 0
-48 6 -134 0
-51 -144 302 0
149 139 4 0
-383 -369 6 0
-305 -80 495 0
-198 154 139 0
-152 -56 368 0
482 246 -13 0
182 232 244 0
36 -161 222 0
-64 123 -359 0
340 6 229 0
118 -23 146 0
396 -273 -239 0
69 -440 322 0
-163 293 7 0
-57 -210 174 0
-380 -404 211 0
-317 87 -133 0
104 -232 -130 0
232 -260 -445 0
13 199 102 0
400 -333 -373 0
-212 -412 114 0
328 280 12 0
390 159 475 0
-468 465 87 0
123 229 66 0
-49 -394 -374 0
-304 294 423 0
292 -99 368 0
85 -410 261 0
233 230 42 0
-283 352 -465 0
-417 -129 -298 0
426 91 166 0
-31 423 -244 0
413 -186 -179 0
-27 331 274 0
358 -5 -306 0
140 39 -42 0
181 -493 261 0
80 59 500 0
144 17 -34 0
264 272 -325 0
-465 125 -328 0
210 125 211 0
273 231 130 0
-172 -400 161 0
170 60 -255 0
216 -137 257 0
-88 -1 -500 0
239 -13 130 0
-231 -500 349 0
209 239 -114 0
-330 298 -206 0
-267 417 397 0
-470 -82 -84 0
168 213 -82 0
219 -426 162 0
-430 344 -128 0
440 -382 -118 0
-226 -476 -338 0
-128 -300 12 0
402 400 106 0
376 -163 -132 0
415 -448 -28 0
472 -477 497 0
485 -234 -346 0
218 109 -447 0
427 246 -247 0
499 5 -68 0
-191 -194 312 0
85 -78 -305 0
-498 -417 199 0
31 494 32 0
-297 -425 468 0
-225 367 100 0
-142 394 70 0
101 -411 479 0
-104 183 -43 0
79 324 176 0
7 405 -461 0
212 -111 435 0
-217 167 -344 0
300 -489 408 0
-194 121 259 0
392 99 206 0
-6 -225 351 0
18 122 -440 0
344 244 332 0
-414 104 -348 0
139 496 206 0
162 251 -486 0
228 225 39 0
-399 -160 358 0
-281 -31 -474 0
161 298 329 0
226 294 -99 0
-66 -397 -105 0
-258 -211 -215 0
127 270 132 0
427 435 193 0
-78 360 -5 0
162 -65 -282 0
-441 -427 -184 0
-106 453 307 0
-341 126 275 0
183 329 60 0
-437 -251 105 0
-97 -358 83 0
-203 353 112 0
261 64 -188 0
21 445 418 0
348 157 -164 0
189 208 220 0
433 -108 27 0
330 18 -321 0
362 280 132 0
474 468 -448 0
-76 431 -348 0
-148 -36 227 0
-343 -256 -3 0
-327 278 199 0
47 -28 -197 0
-489 -24 -105 0
90 -465 -289 0
-106 -11 -383 0
32 319 463 0
340 -447 -160 0
-262 -40 460 0
338 229 -462 0
92 -263 322 0
-237 -49 -150 0
353 -456 366 0
-52 -246 149 0
-140 486 -11 0
-449 -177 130 0
-485 177 -355 0
372 -77 88 0
391 -126 81 0
-197 212 71 0
36 -498 -438 0
358 -379 400 0
407 -32 101 0
-256 21 -369 0
-38 -301 445 0
-289 -491 297 0
149 107 -471 0
-359 -285 -443 0
-9 379 -377 0
-63 -315 121 0
-170 385 -28 0
225 -24 -221 0
-454 -151 -409 0
233 -327 -406 0
462 -132 229 0
206 326 368 0
322 -477 -367 0
362 -268 -138 0
31 177 439 0
263 73 -314 0
-461 -100 -126 0
-100 -172 -158 0
-223 55 89 0
-385 -287 182 0
-114 289 -244 0
257 141 -381 0
116 303 -28 0
296 435 -33 0
217 -287 375 0
128 -196 334 0
-446 6 487 0
202 -56 493 0
-138 -452 437 0
-8 -15 -406 0
300 276 -365 0
273 -146 -295 0
23 -488 72 0
330 -298 -317 0
29 364 269 0
-251 110 459 0
-202 122 -354 0
-216 425 22 0
399 -189 -294 0
-70 220 -219 0
-450 -263 283 0
-493 -78 263 0
27 462 -117 0
258 56 43 0
-470 222 264 0
-48 -476 -323 0
213 -83 -9 0
140 449 163 0
458 335 456 0
-28 477 191 0
-483 321 137 0
425 142 -272 0
497 -458 -121 0
-295 -89 35 0
306 -200 -500 0
435 11 16 0
360 192 50 0
-190 385 -73 0
380 -143 -343 0
33 404 119 0
-20 112 -289 0
103 -274 -152 0
-213 -41 -337 0
255 423 499 0
-174 -231 381 0
-183 -500 -257 0
98 155 -428 0
391 -319 -462 0
400 -439 361 0
-229 271 -34 0
440 352 -466 0
258 -311 386 0
103 485 -447 0
17 90 367 0
-98 295 -38 0
-427 52 -385 0
218 -35 168 0
74 422 -94 0
147 -9 412 0
53 377 -318 0
474 -70 -386 0
311 12 -258 0
193 492 -385 0
-350 246 -304 0
322 27 -54 0
353 -315 239 0
134 240 455 0
304 105 -218 0
-11 234 41 0
174 362 -135 0
98 326 -409 0
-482 -286 -208 0
398 -420 258 0
-321 -15 -392 0
48 -333 145 0
427 163 74 0
-439 -213 -378 0
-490 -84 -480 0
16 -260 -470 0
37 55 -77 0
-330 -247 350 0
-89 498 460 0
-111 -469 -445 0
-189 28 -77 0
-485 174 -42 0
185 -468 397 0
-349 -210 403 0
-486 -148 -379 0
-412 -496 -312 0
343 471 -180 0
-44 -353 -334 0
-61 -464 -321 0
342 363 -492 0
431 -302 164 0
480 417 63 0
173 255 -368 0
495 -26 496 0
-39 81 -5 0
442 120 -71 0
-52 361 142 0
-352 329 84 0
371 -339 -150 0
430 195 -314 0
-477 -250 143 0
372 27 -171 0
-140 216 175 0
337 359 400 0
30 305 334 0
-426 -195 -125 0
-175 299 -31 0
-194 -39 409 0
-62 -294 381 0
86 -482 -274 0
-426 453 -85 0
122 -58 150 0
-195 314 -61 0
-316 353 352 0
239 -393 -121 0
-19 484 87 0
426 365 410 0
375 139 149 0
-301 357 404 0
366 -328 350 0
11 -398 474 0
-49 217 303 0
437 166 370 0
218 389 -375 0
-41 -135 380 0
-52 150 -129 0
-81 470 282 0
18 -201 493 0
391 38 -367 0
358 -188 167 0
-177 -344 -317 0
323 -363 -356 0
-368 307 431 0
242 9 -393 0
253 -465 -232 0
-17 -457 216 0
-444 198 -358 0
82 343 -286 0
365 361 149 0
-283 170 -474 0
-311 445 411 0
-73 -379 392 0
-98 -416 46 0
367 -287 55 0
399 90 -487 0
253 285 291 0
19 314 442 0
404 -117 477 0
222 -56 316 0
-62 133 -343 0
-442 303 -190 0
390 -158 405 0
54 233 -206 0
-433 -249 -104 0
-343 -76 320 0
-157 -406 488 0
-358 -94 -5 0
-175 285 -208 0
90 -89 229 0
-173 162 -263 0
-404 -46 66 0
447 209 -84 0
-119 418 373 0
-22 348 175 0
54 96 -368 0
-65 108 -236 0
-162 -13 -382 0
296 -160 -92 0
-112 -347 -96 0
389 18 4 0
-292 231 -106 0
158 -43 85 0
498 353 448 0
437 -308 146 0
-363 104 101 0
301 458 210 0
230 457 -88 0
-210 -48 229 0
-142 -155 -117 0
408 496 400 0
-225 265 303 0
-248 -481 -270 0
-482 -444 251 0
177 -423 131 0
-452 -287 -123 0
210 -214 -449 0
-408 -431 267 0
-114 -263 -239 0
484 -468 59 0
-220 57 -94 0
-170 62 217 0
489 -47 331 0
417 412 -496 0
223 -72 -356 0
462 250 -351 0
-121 -460 -394 0
-193 -95 279 0
373 -108 -447 0
206 235 -371 0
-226 6 -286 0
1 -467 -406 0
-73 12 -285 0
-450 257 251 0
224 -212 -171 0
-330 143 -375 0
-244 343 -409 0
-198 467 388 0
439 438 493 0
-183 -440 363 0
-339 -421 -423 0
-43 486 -249 0
273 135 -475 0
-84 -68 415 0
-278 -216 50 0
256 95 74 0
-438 142 228 0
-244 -429 418 0
-6 -353 -48 0
-294 -450 -418 0
-337 50 -193 0
-242 -207 240 0
420 -384 58 0
-270 32 -101 0
-304 174 -334 0
-330 -464 -380 0
-71 -90 -56 0
280 196 247 0
29 -253 -183 0
-355 367 265 0
253 -308 -394 0
207 496 -128 0
471 161 44 0
468 -119 98 0
-426 381 136 0
-11 -109 -234 0
192 358 4 0
-242 436 470 0
71 -496 -322 0
-340 192 230 0
-383 360 268 0
-376 185 380 0
43 337 -374 0
353 -16 174 0
-333 -246 -230 0
-229 176 -383 0
-15 404 -195 0
-436 263 325 0
410 -457 373 0
-428 -287 337 0
361 339 39 0
-299 352 -128 0
137 -173 15 0
9 -188 -326 0
-78 390 154 0
-437 -480 240 0
264 -248 -152 0
154 -5 191 0
-154 92 186 0
315 -161 441 0
31 -196 -446 0
43 -435 149 0
-319 471 301 0
-473 250 26 0
-373 490 82 0
-234 -421 -91 0
412 -217 -422 0
-109 -106 -310 0
-221 332 -334 0
-203 14 -210 0
-468 411 257 0
-30 -315 417 0
-240 -403 -98 0
311 -408 -391 0
197 205 -431 0
362 -450 -121 0
-99 -83 -374 0
-2 -163 -164 0
423 88 209 0
324 78 135 0
29 -492 35 0
176 435 476 0
-277 321 -248 0
252 -134 -218 0
-261 202 -139 0
-8 -347 -11 0
-155 163 222 0
48 -5 -45 0
362 468 -83 0
-480 95 -407 0
-173 -306 397 0
-401 461 -355 0
150 -185 45 0
469 -365 7 0
-486 -65 -423 0
-397 61 444 0
210 -42 -189 0
-157 268 482 0
-247 221 184 0
262 271 -273 0
164 -366 -256 0
298 158 -372 0
470 -142 -227 0
-13 145 195 0
-68 1 -288 0
96 422 -31 0
-461 -237 -181 0
-148 32 20 0
-129 -490 -156 0
316 -222 -49 0
174 11 468 0
346 -41 -273 0
301 149 479 0
91 481 -125 0
-96 426 -457 0
60 -442 104 0
-407 358 -175 0
-173 -361 -346 0
-273 168 13 0
-314 370 129 0
-83 -61 -341 0
306 325 459 0
383 220 286 0
408 -377 -125 0
-344 370 105 0
-267 194 -483 0
-193 89 -398 0
-401 166 319 0
357 -30 281 0
-331 333 -109 0
-33 481 198 0
-389 -283 -42 0
453 217 317 0
132 -162 422 0
174 -450 119 0
51 93 64 0
-432 141 239 0
-257 -219 429 0
287 -31 -177 0
2 216 58 0
-288 -410 -157 0
53 -248 18 0
243 413 -448 0
274 -143 -258 0
-67 -283 149 0
-65 92 417 0
-274 442 51 0
-188 -264 462 0
-372 -40 210 0
-453 497 78 0
168 406 -229 0
19 236 -269 0
-436 276 -226 0
-429 219 -183 0
-404 -469 -81 0
-342 -18 -408 0
-234 305 -338 0
16 363 -472 0
55 500 374 0
-465 413 230 0
-4 363 -272 0
-278 468 -345 0
-456 284 -392 0
312 397 356 0
-339 -195 500 0
330 -349 345 0
490 421 -448 0
-11 -441 140 0
-356 87 241 0
97 225 -56 0
-328 -95 322 0
178 -451 -27 0
-421 -156 -416 0
-439 -105 -67 0
-190 -54 -106 0
306 326 -445 0
-87 -326 463 0
113 -59 465 0
-405 421 -395 0
267 -396 216 0
310 17 215 0
-400 51 235 0
-201 -450 138 0
282 -365 -279 0
-134 -26 89 0
149 353 -384 0
-466 -46 -61 0
-33 -123 -365 0
135 20 476 0
-130 -431 407 0
-421 -150 -126 0
190 153 290 0
447 484 -470 0
-90 116 -35 0
-170 15 -434 0
223 39 32 0
-428 -362 -306 0
48 452 -159 0
-450 -96 -317 0
-312 120 -185 0
408 356 -289 0
243 130 -448 0
-291 25 -301 0
-136 192 -39 0
-150 325 -225 0
435 -161 -85 0
-343 16 237 0
214 -450 191 0
69 -448 -315 0
-221 -152 -235 0
127 -198 -329 0
107 476 -81 0
10 -402 257 0
267 186 431 0
-245 -42 -452 0
312 188 -402 0
-7 251 492 0
-366 -376 -477 0
305 -324 -470 0
195 431 426 0
454 -378 320 0
206 -129 259 0
154 -326 -336 0
-420 -160 -271 0
183 -232 130 0
119 -174 102 0
411 134 207 0
471 388 127 0
-300 407 -201 0
-23 -187 -229 0
-327 -398 131 0
95 -497 258 0
-375 -16 -198 0
-456 390 54 0
-480 -275 -228 0
-26 -297 -41 0
215 154 297 0
-485 -250 -500 0
-450 -10 179 0
-37 65 341 0
314 446 -73 0
-12 -330 446 0
-204 166 421 0
284 -285 -312 0
276 -412 377 0
-248 273 85 0
439 497 360 0
40 -30 113 0
27 156 -412 0
-60 -56 -312 0
252 -63 -331 0
-267 -372 446 0
-59 297 187 0
-380 306 353 0
-344 3 296 0
-401 278 380 0
-242 -233 -366 0
-135 -2 75 0
-43 134 294 0
-337 -20 -381 0
53 -298 -377 0
-361 -143 302 0
179 147 229 0
-94 -447 -25 0
-493 376 170 0
307 16 268 0
-473 -440 452 0
427 -230 -373 0
85 -483 -4 0
-87 -315 -169 0
3 478 216 0
-73 -427 271 0
192 344 -428 0
125 -422 455 0
-116 30 -195 0
-253 462 -459 0
254 353 -327 0
394 474 -373 0
105 43 118 0
88 -112 27 0
-211 -477 441 0
-325 392 -107 0
198 246 -4 0
232 -216 100 0
422 -287 -326 0
419 -387 -458 0
-471 218 282 0
416 90 384 0
-199 464 -284 0
-489 92 -269 0
-31 -281 -139 0
237 -448 430 0
402 318 -155 0
356 12 221 0
472 -174 -151 0
-440 -138 381 0
18 291 278 0
-76 -262 374 0
364 -279 192 0
-14 -169 -472 0
6 102 95 0
-417 -420 -223 0
117 -36 -309 0
-350 -74 217 0
-208 -37 -401 0
-93 149 128 0
183 -403 -143 0
-221 463 -212 0
291 -338 117 0
-85 -357 428 0
413 -168 133 0
-438 -454 97 0
195 -120 257 0
378 -153 -269 0
290 402 58 0
-373 495 358 0
225 307 248 0
414 -193 -428 0
-109 113 -259 0
335 12 336 0
314 -426 391 0
242 -489 413 0
-87 387 255 0
-337 467 -241 0
303 -161 418 0
-205 398 166 0
97 496 150 0
-369 -165 -350 0
360 444 178 0
297 143 282 0
414 245 -161 0
200 165 458 0
-146 -295 -21 0
-239 -245 -412 0
262 -121 154 0
-412 -367 47 0
-289 -12 426 0
482 111 -413 0
-277 -336 201 0
-417 -447 72 0
-235 -22 467 0
291 236 -196 0
377 -93 -491 0
-76 -285 -43 0
-245 71 229 0
-150 136 -308 0
-470 185 438 0
53 17 -65 0
350 355 13 0
117 -57 297 0
320 -292 395 0
219 -85 5 0
493 442 -266 0
-112 -448 -85 0
-4 254 209 0
156 24 -202 0
-35 100 99 0
-284 -239 -50 0
-199 -179 15 0
378 -430 -371 0
91 -429 -394 0
460 142 -255 0
257 57 -225 0
-204 -215 145 0
135 -407 -23 0
-226 -263 -344 0
116 83 115 0
396 227 -222 0
480 -112 264 0
333 67 -299 0
19 -48 44 0
445 413 486 0
38 201 367 0
-26 146 245 0
-395 492 247 0
-237 356 494 0
250 -380 -241 0
144 -297 -28 0
25 73 358 0
-441 -395 252 0
-221 421 -333 0
-330 371 192 0
-421 155 292 0
298 -250 1 0
121 147 217 0
310 -382 45 0
235 163 133 0
276 -137 145 0
-439 463 295 0
-195 160 151 0
289 110 381 0
192 51 14 0
162 206 291 0
-410 385 122 0
-41 221 347 0
430 -98 -296 0
-151 -251 1 0
-16 348 216 0
171 439 2 0
-154 374 395 0
19 421 -261 0
212 -303 352 0
496 -181 -8 0
-389 358 416 0
-34 302 -6 0
-222 -350 -410 0
-458 -434 -309 0
-69 -126 144 0
363 419 -456 0
221 -406 -435 0
-331 378 50 0
-303 -231 -218 0
-63 311 312 0
210 -302 -123 0
