p cnf 200 890
85 -170 -64 0
-20 144 192 0
-77 103 -81 0
151 193 153 0
-73 48 147 0
-176 -93 -102 0
50 133 122 0
-33 75 90 0
-187 188 88 0
-171 153 -6 0
-61 92 104 0
158 53 41 0
33 158 97 0
104 -72 -4 0
81 -56 125 0
-51 -41 -15 0
-135 153 -78 0
-43 -181 -94 0
190 31 172 0
-48 111 -162 0
100 159 122 0
97 -96 44 0
-107 -17 82 0
-10 -153 -53 0
158 128 177 0
-80 -31 53 0
9 69 -183 0
20 -181 -35 0
13 9 137 0
143 28 -83 0
-199 127 2 0
-195 -86 139 0
194 101 135 0
59 -55 145 0
23 -157 41 0
-12 -120 55 0
-190 -150 -194 0
186 52 50 0
120 -46 -32 0
-57 -55 -93 0
44 77 134 0
-144 -26 -41 0
-188 191 62 0
120 -130 -4 0
-40 -153 51 0
96 -11 -73 0
175 -28 -183 0
72 101 112 0
-137 -58 110 0
-197 -131 36 0
-133 -110 179 0
-57 -109 139 0
27 174 -199 0
-172 -144 117 0
-2 -166 -94 0
-121 48 53 0
163 130 -65 0
-117 -3 184 0
56 -90 -119 0
186 158 28 0
147 179 156 0
-119 -84 -95 0
65 112 -12 0
165 -63 184 0
151 -189 -146 0
-43 100 -97 0
26 -92 12 0
-185 183 -186 0
-107 34 -134 0
-38 -77 68 0
82 21 -190 0
-28 -130 -90 0
-134 -196 -154 0
98 4 196 0
-88 18 142 0
26 101 10 0
101 71 58 0
-119 -89 81 0
-154 27 -111 0
89 -5 -22 0
-127 -15 -6 0
-110 82 73 0
-188 170 -194 0
-116 -17 188 0
-38 -175 20 0
162 -90 142 0
162 -193 -15 0
-55 -195 -184 0
-75 -6 151 0
39 66 53 0
-111 179 -137 0
-26 -97 63 0
36 -154 -97 0
-112 182 113 0
145 -64 -147 0
182 -2 64 0
-173 -150 176 0
-79 12 -92 0
-15 39 157 0
178 172 102 0
-55 33 160 0
136 50 174 0
148 -156 -84 0
-10 -200 196 0
-109 -26 44 0
14 -20 149 0
164 -74 124 0
-40 159 -192 0
142 98 -123 0
-172 -19 -100 0
-83 15 2 0
140 -151 -2 0
8 20 -186 0
-193 -163 -14 0
-3 -188 -8 0
112 141 -160 0
-23 69 18 0
39 181 -131 0
-124 -110 -57 0
69 -123 68 0
-46 -129 33 0
-144 -123 110 0
198 -13 37 0
-143 76 -20 0
-40 193 89 0
3 -78 55 0
-173 182 -128 0
164 -4 72 0
-1 -158 -9 0
154 110 -132 0
-103 188 86 0
129 108 -47 0
132 -138 69 0
25 -165 -76 0
-187 130 40 0
106 52 11 0
-171 25 -66 0
23 -14 51 0
160 -125 -171 0
118 7 83 0
-67 155 -36 0
143 23 -107 0
-187 -25 46 0
-121 -172 166 0
-36 131 -182 0
177 102 -81 0
170 -55 -15 0
200 198 -138 0
-15 -72 -32 0
-112 -52 -64 0
65 -179 -27 0
104 -200 162 0
-21 -110 100 0
-83 103 -153 0
-6 -169 -3 0
111 128 65 0
87 34 -199 0
186 -142 172 0
-108 -170 143 0
-148 153 -95 0
-149 25 -116 0
158 120 38 0
101 -81 -10 0
116 -190 -74 0
71 -139 67 0
23 89 -75 0
2 -163 123 0
71 31 -168 0
3 -146 -30 0
-17 -20 -7 0
-33 -47 -186 0
-180 -136 8 0
-79 77 -110 0
108 -46 70 0
185 57 -127 0
176 -120 -108 0
-84 -152 -117 0
78 30 44 0
80 114 61 0
-93 -68 175 0
194 -90 175 0
142 -20 -77 0
160 56 40 0
-180 120 -122 0
-135 85 164 0
162 -135 85 0
-132 25 -191 0
181 -85 125 0
-85 39 178 0
176 93 200 0
77 -88 -132 0
-185 -98 27 0
-85 79 198 0
192 -64 -42 0
-81 65 189 0
-110 -128 61 0
187 198 183 0
105 45 -31 0
24 -154 -184 0
18 155 70 0
43 -4 -87 0
-118 -182 112 0
-17 -40 -32 0
-194 -164 138 0
24 81 182 0
173 51 114 0
-173 132 94 0
-7 183 -137 0
-137 58 17 0
86 -80 28 0
179 -153 -40 0
-7 198 -5 0
165 137 38 0
60 38 189 0
-110 -140 118 0
-117 -176 10 0
86 -21 -194 0
37 -18 77 0
42 -79 -115 0
-158 159 37 0
114 -175 -86 0
-172 89 -2 0
8 162 143 0
-129 94 -62 0
3 -188 133 0
-35 12 94 0
-7 -1 -118 0
139 61 -89 0
73 194 -162 0
-163 -152 153 0
147 191 178 0
29 -175 -185 0
-169 -67 125 0
-22 65 -13 0
-172 41 160 0
-12 -8 -67 0
56 -61 -183 0
-153 73 -48 0
-8 42 -41 0
-71 20 65 0
-30 141 -75 0
25 9 190 0
-76 182 -130 0
-155 -41 -25 0
144 -51 112 0
174 187 45 0
73 49 100 0
-56 -79 -4 0
-37 -3 -142 0
-151 -4 174 0
180 -83 70 0
-171 63 -46 0
-162 168 -119 0
173 -151 -192 0
94 53 -96 0
197 -51 66 0
133 128 -163 0
-76 179 96 0
-173 -127 46 0
1 -81 42 0
156 -198 58 0
155 68 111 0
-120 7 -116 0
134 -11 -88 0
-153 -8 -27 0
198 97 143 0
-126 -113 -165 0
167 -47 -16 0
174 100 71 0
104 -118 -58 0
43 -44 4 0
-180 54 -132 0
91 137 -47 0
-137 -38 82 0
98 -162 117 0
62 -196 -68 0
-94 111 -36 0
-179 181 66 0
67 125 -37 0
-166 -184 -34 0
-33 182 -75 0
-185 63 -56 0
-92 188 7 0
-174 -34 88 0
-140 18 125 0
31 176 186 0
178 12 106 0
3 114 -117 0
-65 34 140 0
-149 -114 96 0
192 32 7 0
-53 153 -44 0
-115 68 -96 0
46 -19 101 0
-163 -138 114 0
-75 -72 89 0
-14 190 70 0
16 12 -79 0
111 43 -70 0
179 151 -43 0
-163 -76 -10 0
91 194 164 0
39 178 85 0
-120 6 36 0
85 55 89 0
161 129 -158 0
188 105 10 0
110 172 -176 0
-94 -166 45 0
196 -113 80 0
-69 -179 -139 0
115 -79 -200 0
9 183 188 0
168 107 81 0
118 -126 -11 0
-190 185 -61 0
86 157 148 0
-129 -195 77 0
20 66 -7 0
150 -4 55 0
-91 58 -130 0
-128 -92 -124 0
-149 145 191 0
-65 -183 -137 0
-24 -142 57 0
80 -101 42 0
150 -184 63 0
-166 64 -45 0
-119 -15 145 0
60 -119 184 0
-39 -41 -175 0
118 -127 -106 0
4 180 122 0
-78 -70 -123 0
-78 119 51 0
-29 171 -46 0
-199 -195 58 0
195 -92 -151 0
198 -176 -167 0
-90 -189 -27 0
30 -154 -13 0
-127 -144 131 0
44 177 77 0
72 34 159 0
-78 47 70 0
-28 -144 127 0
-169 5 -65 0
6 40 125 0
181 -81 108 0
17 1 45 0
35 160 -157 0
200 183 176 0
84 -148 81 0
100 -138 -4 0
-98 -79 107 0
81 8 53 0
-136 66 -83 0
98 -120 89 0
96 -23 5 0
74 -141 96 0
40 88 -8 0
16 -22 -138 0
-34 -56 -176 0
179 61 187 0
-183 -128 178 0
55 30 5 0
-179 -69 4 0
-16 154 177 0
-57 127 -25 0
43 -135 112 0
42 41 -17 0
40 92 15 0
67 20 154 0
-52 14 197 0
-39 -85 -116 0
-124 -14 -1 0
191 -23 91 0
173 145 -22 0
-74 118 38 0
-134 145 93 0
46 -137 131 0
-145 -122 167 0
-195 180 174 0
-137 47 -131 0
194 -172 -107 0
49 119 -53 0
-38 138 15 0
174 -126 91 0
-153 -86 -142 0
-68 -4 117 0
-33 -89 -101 0
94 180 -15 0
23 159 36 0
-20 -128 146 0
-105 157 59 0
88 171 124 0
196 -92 199 0
162 -157 65 0
99 166 95 0
-26 159 -45 0
-150 196 48 0
-3 -41 -89 0
76 -182 -141 0
-10 111 -81 0
24 117 31 0
-157 77 173 0
-83 -99 -37 0
-170 8 175 0
187 5 -16 0
-93 -118 -123 0
170 109 68 0
105 3 130 0
-33 -38 199 0
-79 -57 -125 0
177 -54 136 0
-127 44 -4 0
-95 -33 91 0
-36 182 -26 0
-182 -27 88 0
169 93 147 0
107 128 -9 0
32 -173 151 0
176 -173 -86 0
53 -181 52 0
4 -20 111 0
-125 60 135 0
179 -128 -1 0
-75 -151 23 0
124 -99 -93 0
144 -1 161 0
-14 77 -45 0
178 -53 154 0
-30 142 199 0
124 -138 140 0
124 169 181 0
-118 -124 107 0
182 65 -118 0
-168 10 -105 0
-67 -185 -96 0
-13 -172 -82 0
12 56 32 0
-73 17 193 0
139 113 124 0
184 111 116 0
-37 159 76 0
86 180 133 0
-199 -115 -184 0
195 77 -175 0
83 150 -15 0
-146 -187 46 0
39 75 -14 0
-100 -67 163 0
88 35 21 0
67 170 25 0
-4 123 160 0
-66 170 116 0
-175 -28 160 0
-186 113 -150 0
53 -78 -103 0
70 -128 -127 0
-8 32 124 0
-62 -11 -171 0
149 -114 145 0
16 111 82 0
-184 168 119 0
154 45 -7 0
-63 94 -8 0
-135 139 -122 0
52 94 45 0
-24 -79 -51 0
28 -121 42 0
-82 -96 -49 0
-10 101 -103 0
-180 61 -194 0
-192 -88 -197 0
-88 -157 -55 0
97 165 125 0
55 199 -13 0
-8 -109 -84 0
-151 -142 113 0
-182 67 -164 0
108 25 -123 0
179 -31 1 0
128 117 -100 0
-147 107 -137 0
12 129 126 0
175 42 -116 0
-51 115 49 0
-11 194 -86 0
172 29 -187 0
-138 -129 -154 0
159 70 93 0
119 100 97 0
-54 74 142 0
180 -142 167 0
75 -9 -82 0
-189 -73 -91 0
-94 142 194 0
28 -114 120 0
-183 -194 87 0
-140 123 55 0
-139 -51 122 0
-185 -130 -198 0
93 41 74 0
21 157 -10 0
66 181 29 0
-27 2 -75 0
-182 169 -141 0
-123 -23 -186 0
79 -107 193 0
-170 72 -9 0
6 198 125 0
41 55 -181 0
48 -83 -163 0
144 -172 32 0
-140 -21 24 0
-113 -31 -170 0
145 42 -158 0
-101 -54 168 0
-136 -154 189 0
45 40 -190 0
57 -180 -138 0
95 -159 -154 0
20 185 150 0
-149 -138 -78 0
75 58 10 0
-191 -89 150 0
5 -195 118 0
-21 -90 197 0
-21 -57 -103 0
117 26 169 0
163 193 -45 0
174 -101 93 0
159 -121 32 0
-186 32 19 0
89 -24 -33 0
-39 -198 -31 0
184 -89 198 0
-91 -73 92 0
169 -100 166 0
60 175 -78 0
-31 -16 37 0
176 128 -135 0
-125 -24 25 0
127 -130 180 0
-20 -160 -60 0
146 -35 4 0
-47 -29 -96 0
171 -194 -14 0
135 -156 -176 0
161 164 176 0
9 -104 144 0
122 148 144 0
-138 157 -83 0
137 89 123 0
-16 -152 -60 0
176 -189 175 0
-137 -1 -51 0
-140 16 -142 0
-178 36 -88 0
-51 142 50 0
-191 -13 -85 0
180 -22 -163 0
-91 92 5 0
-50 10 -15 0
-197 -140 94 0
169 108 105 0
63 123 176 0
-98 -66 -106 0
24 113 64 0
-186 151 -166 0
73 -15 102 0
22 -147 -180 0
107 -37 34 0
180 161 -60 0
69 137 72 0
63 -9 -13 0
-6 90 -58 0
168 120 4 0
54 97 -84 0
-17 -171 120 0
-93 197 64 0
14 -136 -77 0
43 -125 -1 0
-124 -80 107 0
129 128 66 0
-193 92 13 0
136 -24 -175 0
25 -3 179 0
-22 -58 -36 0
88 -64 76 0
138 -115 -98 0
21 -95 195 0
-22 124 -155 0
-78 144 -184 0
14 115 -80 0
-186 87 -175 0
-40 159 -164 0
-91 72 77 0
70 -181 69 0
-99 -17 -105 0
94 -133 -82 0
93 101 25 0
-188 -150 -145 0
-183 117 -78 0
56 -114 -172 0
58 -11 -9 0
-200 -99 -116 0
21 -105 114 0
-62 -4 174 0
-120 -75 -134 0
-31 140 184 0
114 -194 128 0
-26 93 95 0
-158 104 55 0
161 -191 193 0
-54 -52 -114 0
82 54 107 0
-70 35 54 0
28 20 -170 0
32 12 150 0
88 177 -84 0
-8 -6 -142 0
-198 63 26 0
-66 185 -153 0
106 -113 95 0
-157 186 -88 0
108 -87 -62 0
-180 -80 -177 0
-171 90 188 0
-105 -115 190 0
-181 -129 33 0
-119 -144 -55 0
-103 -3 147 0
91 72 -39 0
-181 132 -198 0
114 -49 -96 0
-92 -69 -54 0
1 -65 101 0
-26 -200 -139 0
-190 -150 -94 0
55 -44 47 0
125 80 -88 0
20 144 -74 0
-179 -152 -72 0
-170 -89 -166 0
-60 124 -65 0
-54 -86 -43 0
169 -163 174 0
-51 -96 52 0
10 193 186 0
-2 31 157 0
-96 -107 78 0
-136 26 -60 0
173 9 179 0
155 -176 77 0
-125 -155 -46 0
125 -104 34 0
-111 -166 22 0
15 -134 156 0
123 -102 159 0
-115 180 -55 0
-56 117 -144 0
-99 172 -23 0
69 -178 -122 0
177 41 -6 0
-68 -4 131 0
156 -108 195 0
-3 159 98 0
114 -197 -144 0
-5 -12 38 0
-7 134 102 0
-183 174 -7 0
18 -30 164 0
4 -161 53 0
-73 192 -113 0
-198 -125 104 0
13 -38 -181 0
173 64 -195 0
-174 78 191 0
57 -134 -54 0
195 33 133 0
188 99 200 0
-40 22 76 0
93 -109 57 0
-21 -125 -184 0
-52 171 -154 0
-88 -108 163 0
166 2 22 0
81 -198 -37 0
147 -99 -23 0
-189 -162 -150 0
72 -94 48 0
168 166 158 0
194 -89 -37 0
-40 -34 52 0
125 -146 110 0
123 97 -41 0
-80 -79 112 0
100 -13 -70 0
111 -11 85 0
-110 20 145 0
-156 -22 48 0
147 163 185 0
47 118 140 0
-135 13 130 0
80 -195 71 0
22 7 -162 0
60 33 128 0
187 -44 -176 0
-26 67 102 0
69 -93 -142 0
-123 150 -75 0
-75 107 101 0
186 134 162 0
-164 104 -60 0
186 -5 118 0
34 101 -36 0
-81 190 -77 0
190 52 -186 0
-75 161 152 0
-74 -167 -50 0
190 -142 107 0
17 -110 -70 0
166 -60 -111 0
94 -62 61 0
71 43 100 0
101 -47 -189 0
34 -191 -29 0
42 104 105 0
-26 -30 -198 0
-154 67 199 0
-181 -154 178 0
147 12 9 0
28 19 -180 0
-52 106 103 0
-32 79 -140 0
82 -104 -93 0
-79 137 -118 0
194 1 109 0
179 -133 -102 0
156 -90 -91 0
87 -42 72 0
68 106 94 0
105 -141 194 0
39 159 -131 0
162 -156 -53 0
27 63 62 0
111 -9 -43 0
80 -4 -27 0
154 94 29 0
34 -48 -8 0
-160 -98 -194 0
-163 -154 -114 0
-66 -133 47 0
13 -102 -200 0
-164 -100 -23 0
-132 -139 57 0
49 -161 -90 0
86 89 -197 0
13 98 -79 0
146 1 -162 0
-163 -200 -17 0
-98 -181 52 0
-113 -10 60 0
-190 151 -79 0
-71 191 139 0
46 -153 97 0
34 -184 -36 0
64 -5 164 0
-147 195 -172 0
-145 23 11 0
199 24 -61 0
-14 -114 -169 0
-103 -63 8 0
-69 168 -38 0
68 -10 187 0
23 -10 -5 0
-148 124 -181 0
-64 -55 33 0
-1 17 -182 0
105 152 -41 0
-78 57 -45 0
171 170 156 0
-155 -123 -185 0
11 -162 87 0
-112 29 -3 0
198 155 116 0
-161 -75 84 0
150 -43 99 0
-108 -22 -72 0
67 -41 -26 0
-56 -82 -20 0
40 -170 -132 0
-72 -200 -151 0
-114 -83 -56 0
44 -126 4 0
115 35 27 0
-136 -33 103 0
71 29 28 0
3 124 70 0
168 194 159 0
-184 198 180 0
23 24 -28 0
159 5 194 0
148 7 -98 0
119 -139 -156 0
198 194 179 0
-8 150 -41 0
168 108 -78 0
1 -39 -146 0
-148 95 -118 0
140 179 188 0
60 -168 5 0
-100 44 104 0
16 -165 -34 0
183 101 127 0
-190 16 -5 0
34 -106 -126 0
-195 -159 -1 0
-51 165 -52 0
-38 -20 113 0
-80 -41 -61 0
-149 -59 -37 0
-51 41 82 0
-187 194 47 0
-31 156 100 0
-193 -13 179 0
-3 -47 -182 0
-54 -95 -158 0
-25 70 167 0
138 143 -161 0
-85 20 162 0
35 17 184 0
-187 -26 -149 0
-168 -4 94 0
163 -55 106 0
-134 194 -86 0
61 141 -54 0
105 29 -10 0
-142 36 -80 0
-164 65 -7 0
-44 -85 -18 0
-10 -166 199 0
194 -177 187 0
-172 25 112 0
162 93 -61 0
103 131 96 0
137 -191 -193 0
-36 101 176 0
-120 130 -30 0
-56 199 181 0
-106 -64 78 0
-37 33 57 0
179 192 -84 0
-58 -81 124 0
-6 -104 114 0
29 -52 145 0
79 62 -12 0
-177 -46 83 0
-169 -190 -168 0
-68 -67 -193 0
-43 -56 -171 0
176 9 -183 0
-36 -76 -172 0
192 152 150 0
-154 49 151 0
-109 -134 128 0
181 86 170 0
111 -47 169 0
1 -87 93 0
-25 -2 -57 0
140 -75 107 0
-111 196 -181 0
-32 2 78 0
-59 67 89 0
-19 38 -24 0
159 152 85 0
-184 -108 119 0
-108 -197 -1 0
-146 -191 -160 0
140 -166 -92 0
-113 -161 -70 0
87 156 -158 0
-133 -102 59 0
9 -59 -73 0
10 87 108 0
-123 75 -121 0
34 65 -88 0
101 90 -147 0
