p cnf 200 710
196 -24 89 0
12 149 75 0
-192 -91 -160 0
-44 85 -52 0
35 -189 183 0
-130 -165 99 0
160 -133 -84 0
58 162 -45 0
-137 162 93 0
-44 156 72 0
-174 -84 42 0
187 -191 -50 0
17 147 -154 0
-73 84 -163 0
75 -34 37 0
86 51 -32 0
161 -104 -140 0
123 78 33 0
75 161 -180 0
80 76 -109 0
18 -119 -117 0
23 -174 -94 0
-161 -4 81 0
161 -59 45 0
153 -104 195 0
193 -92 153 0
-187 -107 69 0
183 116 -173 0
-5 -35 -192 0
49 -46 -136 0
-119 184 48 0
-79 -164 -193 0
12 159 -109 0
174 182 -171 0
-182 44 -118 0
57 -10 -150 0
-151 85 -16 0
84 -183 173 0
124 -38 -83 0
119 -171 132 0
-88 25 12 0
28 110 136 0
-67 147 30 0
12 113 -144 0
-52 -155 -49 0
-112 -42 -96 0
-46 24 172 0
-123 134 -192 0
9 82 -17 0
126 -51 -180 0
-131 160 100 0
137 169 186 0
62 -41 -30 0
-33 -11 91 0
-49 91 -146 0
169 166 84 0
-69 125 27 0
-82 -136 -173 0
56 -96 -58 0
149 197 179 0
-7 -196 -56 0
-21 -93 133 0
-46 -44 26 0
73 -31 120 0
-7 -23 -184 0
-32 149 189 0
170 116 -108 0
82 -29 -148 0
18 -149 -85 0
79 198 48 0
32 20 23 0
-71 88 102 0
-103 150 -71 0
9 183 126 0
164 -183 -78 0
77 -44 114 0
-115 -164 183 0
86 -15 -55 0
-108 31 9 0
107 -86 42 0
-75 -105 3 0
107 -112 142 0
-29 -111 -113 0
163 31 42 0
156 115 108 0
107 87 67 0
28 -30 79 0
-61 -16 -170 0
138 -6 185 0
71 93 -140 0
3 197 88 0
-24 -99 -138 0
-38 65 -106 0
172 156 32 0
-161 -125 58 0
-83 -163 107 0
11 114 75 0
-71 64 177 0
183 16 30 0
191 -189 80 0
-90 -67 -10 0
20 48 -53 0
22 -151 25 0
-40 -119 39 0
25 164 134 0
-152 -5 -179 0
129 -21 157 0
-61 -102 -45 0
154 -158 81 0
-106 61 8 0
199 -132 -149 0
-77 75 105 0
-107 120 -165 0
-59 33 -38 0
-161 1 109 0
-179 -14 -61 0
-200 -190 51 0
169 159 -81 0
101 200 82 0
129 -49 115 0
70 -8 -9 0
123 132 -133 0
133 76 86 0
91 -90 42 0
-19 -182 84 0
185 -111 145 0
-127 157 -72 0
52 21 28 0
-35 100 21 0
-68 140 161 0
198 -186 -20 0
-139 -95 106 0
144 -87 7 0
103 179 193 0
-195 122 -13 0
64 -73 17 0
181 171 63 0
145 -131 197 0
152 -22 51 0
-146 194 -60 0
-51 -33 -168 0
1 -46 47 0
-188 150 128 0
-60 -24 -88 0
-182 119 -103 0
17 64 -184 0
-19 -104 9 0
183 123 -25 0
-139 120 64 0
40 13 58 0
-77 -138 -194 0
-98 -71 -54 0
119 114 -154 0
-184 -155 133 0
-190 69 70 0
140 -149 -3 0
-188 23 141 0
-188 -59 -44 0
143 163 186 0
83 105 -93 0
-130 106 -160 0
107 -159 -100 0
-186 160 -57 0
-62 -170 191 0
-67 -146 -77 0
82 -85 199 0
166 -177 -146 0
-91 -24 -173 0
-198 -200 -189 0
-33 -144 6 0
-116 188 37 0
133 -31 -170 0
-71 15 97 0
100 28 -180 0
-10 -9 -56 0
-60 173 189 0
-99 -67 -186 0
77 -65 -102 0
14 -110 -10 0
-96 -93 8 0
80 -112 100 0
79 149 148 0
-81 163 -54 0
-37 -42 138 0
64 40 -173 0
-195 60 158 0
178 183 -191 0
-107 186 -199 0
88 -64 -23 0
-108 -75 6 0
2 -81 107 0
-136 -143 -189 0
-179 10 93 0
89 24 93 0
39 188 128 0
-64 -199 127 0
-51 50 -152 0
-105 4 110 0
-88 -91 14 0
44 82 -7 0
-166 152 -178 0
-111 -113 -165 0
52 -186 -9 0
-145 -166 -97 0
-133 -140 -18 0
-173 -168 -138 0
103 31 115 0
39 74 184 0
-150 39 -96 0
40 146 -74 0
-26 -185 47 0
1 -45 -190 0
132 -130 93 0
46 -173 90 0
198 24 94 0
76 44 114 0
-51 -84 -135 0
91 -42 6 0
-11 -191 179 0
139 9 26 0
-58 -90 -100 0
179 173 106 0
-18 -109 -97 0
-60 -13 14 0
-97 56 -18 0
-54 34 -123 0
88 137 113 0
111 -106 -32 0
133 132 -122 0
184 -1 -151 0
48 -188 195 0
-173 -28 -30 0
132 142 -40 0
-156 95 108 0
75 155 30 0
142 3 -95 0
24 -141 65 0
-184 -150 -102 0
191 -66 165 0
55 180 -30 0
92 49 -45 0
152 178 179 0
-40 72 44 0
147 172 -54 0
89 -199 193 0
82 -105 -184 0
-177 -106 -146 0
-17 -150 143 0
-37 -59 2 0
179 -45 122 0
-193 185 40 0
163 126 158 0
-82 -90 -6 0
-156 -165 -70 0
111 38 65 0
-127 -125 129 0
159 163 113 0
-48 -128 -137 0
51 -86 141 0
20 90 62 0
45 -170 -171 0
66 194 23 0
18 95 144 0
-6 75 80 0
-99 -93 -186 0
110 -59 142 0
-34 19 74 0
-32 146 145 0
91 119 -34 0
99 29 -199 0
143 109 -24 0
-48 42 -115 0
-25 193 177 0
-28 -41 -59 0
44 -59 -108 0
-114 -73 -15 0
-98 -91 15 0
162 -50 24 0
19 -187 99 0
38 118 101 0
2 148 38 0
76 -65 -66 0
48 116 59 0
36 -53 -142 0
-158 6 -103 0
64 -42 27 0
-139 -156 21 0
140 -60 38 0
-97 -61 125 0
116 182 -58 0
-115 -80 28 0
199 95 112 0
87 -103 -83 0
117 -18 8 0
-18 134 -68 0
-186 87 -26 0
-80 106 146 0
13 -111 20 0
132 80 67 0
-48 17 182 0
-101 -150 93 0
-122 146 190 0
-29 -140 -195 0
-131 -87 53 0
-24 164 -157 0
-32 200 -46 0
137 19 81 0
122 84 -134 0
93 198 -160 0
182 -27 -22 0
-160 -18 26 0
-119 -138 -174 0
-127 -75 -98 0
-18 -91 -1 0
169 17 -122 0
66 8 168 0
78 -184 126 0
-35 -107 -34 0
-44 -64 -130 0
133 89 -181 0
35 -191 10 0
-101 129 176 0
-51 -24 -17 0
60 184 40 0
-27 195 15 0
-107 91 -77 0
169 126 -142 0
173 -130 5 0
6 -48 50 0
12 173 -87 0
-102 136 106 0
-140 29 67 0
5 8 -69 0
-86 40 107 0
7 22 5 0
-101 126 -83 0
67 -87 101 0
80 -136 157 0
-47 -1 106 0
9 7 -16 0
136 -54 17 0
-84 -44 181 0
197 -183 -39 0
-166 141 164 0
-147 32 1 0
91 98 -122 0
72 -127 -141 0
-114 -39 89 0
157 156 96 0
-69 87 124 0
-102 13 106 0
163 -92 134 0
88 130 -112 0
10 -186 137 0
-59 171 -52 0
37 9 125 0
-111 155 181 0
-113 -92 -110 0
-6 -29 162 0
-35 -37 -194 0
-191 166 21 0
41 64 162 0
-92 -20 -47 0
89 13 133 0
123 87 196 0
-109 98 10 0
-106 72 -95 0
-198 63 -142 0
-74 117 37 0
145 -39 179 0
86 53 -198 0
-4 93 149 0
20 12 -92 0
-157 169 -117 0
62 119 88 0
-107 -35 -138 0
-20 103 -64 0
-134 170 167 0
176 117 -137 0
63 -127 148 0
-137 -22 -140 0
-101 123 92 0
67 110 -77 0
-62 44 11 0
162 -99 -69 0
146 -5 18 0
-178 -57 96 0
-155 -26 -184 0
-175 -96 32 0
32 7 137 0
165 14 30 0
-64 -57 20 0
67 49 -140 0
176 50 14 0
-7 -51 -116 0
-190 79 90 0
-11 -9 14 0
-11 56 146 0
17 -83 197 0
-12 125 184 0
-72 85 -170 0
-139 -155 159 0
23 84 125 0
76 -45 -26 0
66 -199 -183 0
-196 -23 -89 0
163 172 -197 0
-129 94 172 0
-25 -142 48 0
-33 -43 -168 0
-101 -87 184 0
102 3 132 0
-124 -131 -70 0
-21 147 140 0
-134 -21 -62 0
14 138 -142 0
-175 64 122 0
135 -177 -99 0
25 166 -32 0
144 -171 182 0
-140 3 -112 0
35 85 -139 0
-37 -159 170 0
-84 -82 16 0
-13 69 186 0
-15 -70 -44 0
-194 -105 32 0
181 -86 167 0
-22 124 -52 0
-111 7 -119 0
27 94 197 0
63 -173 -5 0
177 191 93 0
147 20 -106 0
-135 -15 -6 0
-66 -59 -150 0
171 182 104 0
-80 183 -195 0
-107 -110 -131 0
-1 190 -72 0
-197 46 137 0
-183 122 28 0
-38 -64 70 0
-69 104 -95 0
-109 101 -94 0
-84 108 52 0
-42 160 110 0
167 65 -85 0
146 -130 -169 0
63 148 -110 0
173 190 113 0
161 -135 -102 0
176 144 -150 0
106 188 -81 0
100 187 -131 0
-191 25 141 0
-133 -197 -77 0
-31 125 127 0
9 78 -148 0
46 39 20 0
-144 138 130 0
-79 -24 22 0
-166 96 -106 0
150 -4 152 0
111 82 -91 0
-16 175 -194 0
109 -43 50 0
-189 -71 4 0
-91 170 127 0
-154 -32 25 0
-138 70 -83 0
-51 83 -92 0
-15 147 145 0
-153 162 -55 0
-166 139 136 0
128 -51 -182 0
-36 -119 -76 0
121 120 -4 0
-49 -177 190 0
84 -150 106 0
192 61 200 0
-186 174 -77 0
-129 79 -150 0
-196 -53 26 0
-177 -138 40 0
106 -148 -25 0
-119 -27 -194 0
-88 100 -21 0
-52 -10 -148 0
178 -11 114 0
-153 61 -183 0
-143 -34 147 0
-122 88 -37 0
-10 -100 140 0
-177 -193 65 0
-111 -63 -129 0
44 101 164 0
-161 80 -46 0
-111 -176 -83 0
-7 77 -81 0
82 -32 -36 0
162 -146 167 0
-169 39 -75 0
20 -5 -165 0
58 103 89 0
47 21 108 0
-132 129 -77 0
98 47 103 0
197 -77 143 0
-20 137 117 0
-131 -31 86 0
99 -3 -188 0
120 -64 187 0
-43 121 -81 0
132 167 164 0
177 117 55 0
174 43 127 0
11 155 89 0
-18 -166 97 0
144 -191 22 0
-52 176 146 0
-47 -114 179 0
-171 -15 -173 0
-195 110 159 0
-118 -2 103 0
79 142 -84 0
166 9 91 0
106 4 168 0
-41 102 58 0
50 -2 64 0
56 -193 187 0
35 -59 171 0
192 -176 141 0
159 14 -149 0
-97 74 -101 0
-56 130 160 0
103 147 189 0
127 -23 102 0
130 -1 60 0
-90 -49 -19 0
-158 70 -140 0
174 -109 126 0
-44 -121 -16 0
66 -111 118 0
107 -53 -5 0
-122 25 1 0
43 108 74 0
-11 -174 -46 0
130 -160 79 0
102 -18 -116 0
98 -6 10 0
183 -74 151 0
-124 91 52 0
116 -196 -179 0
-155 -172 175 0
72 -32 119 0
57 164 -88 0
130 -67 122 0
-24 -23 -11 0
-164 -159 135 0
148 -179 197 0
-165 160 -104 0
-83 -163 -44 0
-88 -44 185 0
31 -142 -130 0
136 7 -128 0
-153 79 94 0
135 62 23 0
-139 -128 -99 0
51 -124 95 0
89 120 142 0
-80 116 -119 0
15 96 61 0
51 69 60 0
133 173 15 0
112 140 134 0
-155 -187 -78 0
-46 142 -96 0
-104 15 68 0
-71 122 -53 0
-190 25 191 0
-179 17 100 0
-137 168 -151 0
158 -167 145 0
197 -139 9 0
-128 -175 147 0
78 172 52 0
-179 -128 -102 0
-16 136 177 0
-198 -158 -153 0
-22 -179 -57 0
49 183 71 0
-147 -56 -51 0
179 138 -181 0
-13 -128 103 0
-4 -112 124 0
-199 -142 55 0
-88 -79 -127 0
-123 56 156 0
129 42 -177 0
90 192 -198 0
20 174 -14 0
-15 150 91 0
23 -110 -87 0
21 18 -60 0
90 186 -161 0
-198 176 -35 0
133 -6 193 0
85 10 147 0
-122 47 56 0
-161 62 -126 0
63 -182 178 0
149 116 -54 0
107 -52 -117 0
169 -87 43 0
176 -45 -24 0
131 -160 -113 0
-8 76 -115 0
-77 -139 -83 0
163 -42 193 0
150 97 15 0
-150 -53 89 0
-114 141 -166 0
-163 198 107 0
-44 167 65 0
-190 -75 1 0
-141 -196 -169 0
12 -57 139 0
86 -174 14 0
61 21 104 0
-49 -41 133 0
-6 -7 -122 0
23 168 92 0
-47 -148 65 0
83 -119 -185 0
80 41 100 0
-82 -115 34 0
139 166 -121 0
-184 -164 54 0
152 -154 91 0
132 -137 48 0
-81 134 128 0
-176 -103 6 0
23 64 194 0
47 82 -66 0
143 128 -154 0
-67 132 -98 0
114 42 60 0
-156 101 144 0
138 107 100 0
162 -34 85 0
81 49 -116 0
-29 180 -62 0
182 -73 -186 0
82 -36 -106 0
106 -158 1 0
120 -16 -161 0
-107 127 -19 0
191 190 -21 0
-160 -97 -54 0
-32 -150 198 0
173 -32 24 0
-174 -152 6 0
15 -73 -68 0
-187 -29 52 0
97 43 6 0
-189 24 27 0
12 -108 -171 0
37 38 -168 0
-109 -46 131 0
21 84 -72 0
-172 -199 194 0
-2 67 40 0
140 102 55 0
-72 -27 -5 0
120 25 -3 0
-83 -52 71 0
13 -84 28 0
171 157 113 0
-126 -150 -81 0
-1 -134 108 0
-34 -9 -36 0
-82 169 40 0
180 15 145 0
-128 -141 -130 0
200 -29 -84 0
-193 -13 48 0
-70 92 116 0
45 178 -54 0
-103 -153 -173 0
136 64 110 0
16 -43 55 0
-180 139 -59 0
-84 180 -4 0
-131 50 134 0
-99 -142 18 0
186 -2 78 0
175 -179 167 0
-133 -163 -54 0
199 -129 -84 0
-93 161 -44 0
190 -124 88 0
146 164 79 0
-168 -80 111 0
-153 -98 -103 0
-139 36 1 0
-170 -23 52 0
39 149 5 0
-119 196 -4 0
-197 -185 -165 0
