p cnf 200 690
-91 -96 -60 0
-81 -61 134 0
-13 173 65 0
-127 14 -74 0
123 97 98 0
62 -121 42 0
-173 1 15 0
-22 -184 154 0
-71 69 125 0
-105 -104 158 0
192 9 118 0
76 -92 166 0
-125 121 -138 0
-120 -19 -199 0
126 -97 84 0
73 -175 189 0
19 197 -174 0
56 72 16 0
-200 128 28 0
-181 -56 25 0
-112 49 -118 0
172 163 194 0
135 -119 4 0
-136 -109 -59 0
-3 141 -188 0
108 -18 146 0
170 -199 175 0
115 144 47 0
-163 -24 66 0
195 143 -158 0
-71 118 20 0
100 -85 -53 0
83 18 19 0
28 10 -155 0
165 -126 -64 0
-137 57 115 0
138 1 137 0
67 -199 28 0
-140 14 -174 0
-74 -77 -130 0
173 101 -7 0
-192 115 -15 0
164 -166 -66 0
-7 -64 16 0
-147 -121 -141 0
44 104 -182 0
-192 -178 149 0
-39 139 191 0
-124 99 -12 0
-107 -23 154 0
-51 -193 57 0
184 82 -39 0
-163 64 61 0
-164 67 -135 0
193 -51 109 0
199 -47 147 0
-189 -17 135 0
-189 -152 -47 0
199 112 -142 0
-73 13 52 0
-28 -96 141 0
149 -67 1 0
-61 150 -145 0
99 176 -131 0
99 -190 -74 0
-193 -87 65 0
129 123 35 0
95 -58 175 0
53 179 -12 0
173 -15 71 0
-5 -193 42 0
152 -15 197 0
71 -90 -171 0
-156 106 -57 0
26 -19 194 0
-76 20 -38 0
-92 -97 -89 0
78 -195 19 0
-158 -54 169 0
108 -179 -64 0
48 -182 107 0
48 -196 107 0
-186 193 -39 0
116 -15 57 0
-7 -95 78 0
41 -76 86 0
3 1 -14 0
-154 -200 -109 0
-48 115 -140 0
171 150 56 0
-37 -2 58 0
166 -162 15 0
34 168 113 0
-66 -9 24 0
-188 22 101 0
-141 -67 23 0
-143 66 -23 0
179 -19 40 0
172 -198 -167 0
-105 129 128 0
-148 -21 -161 0
136 169 -53 0
31 83 -177 0
-59 40 195 0
-132 -153 -102 0
-74 -132 -88 0
61 53 166 0
78 -173 -100 0
87 120 167 0
-35 117 -101 0
158 58 46 0
-132 -198 195 0
139 -152 64 0
115 -63 151 0
-153 73 -93 0
86 -93 -155 0
-139 -138 -85 0
-141 -171 -45 0
162 -100 -104 0
-14 -168 -39 0
-169 39 164 0
-13 -81 200 0
52 111 127 0
-107 -88 -95 0
13 148 -131 0
37 -151 -69 0
44 -194 133 0
96 52 95 0
-25 -33 43 0
80 178 -143 0
-155 44 -60 0
-39 -19 -7 0
81 -182 -195 0
-115 71 178 0
185 -78 152 0
96 -43 -26 0
190 -57 -64 0
-67 81 28 0
-116 -42 72 0
129 -163 -177 0
195 105 -156 0
45 -44 193 0
116 74 73 0
192 -20 -191 0
169 -69 -112 0
-142 67 -171 0
-121 -172 186 0
-86 -182 162 0
2 134 -137 0
50 170 61 0
139 157 141 0
-134 182 -87 0
45 -91 -200 0
69 -90 4 0
182 90 61 0
150 160 45 0
21 -147 34 0
39 -43 118 0
120 -138 115 0
-165 -200 49 0
52 89 -174 0
-12 -43 -192 0
41 195 -47 0
-67 142 -30 0
-184 -124 88 0
182 -4 -125 0
-89 -163 28 0
176 -170 169 0
177 22 -123 0
196 54 -56 0
-8 40 32 0
-100 -66 -80 0
66 -130 -64 0
-127 -77 -69 0
3 67 9 0
-110 -115 -38 0
146 -169 152 0
199 -86 191 0
-41 -77 38 0
54 -59 69 0
47 129 84 0
-75 90 85 0
46 -32 -26 0
165 22 -162 0
-149 156 -176 0
14 26 -76 0
-132 -123 78 0
70 -79 183 0
-193 -18 146 0
128 54 -161 0
-146 125 -12 0
-154 59 -5 0
12 -164 -75 0
-6 19 156 0
-173 -73 -94 0
-78 75 -135 0
-123 -59 99 0
199 101 10 0
179 -55 165 0
-173 -49 -53 0
173 174 -120 0
-106 70 -34 0
97 35 71 0
115 -58 128 0
-2 53 57 0
-154 -151 128 0
91 -39 -9 0
115 -30 153 0
-130 -73 -161 0
-137 28 -107 0
-170 -99 21 0
-65 -2 135 0
-200 96 145 0
186 -176 79 0
62 183 -170 0
144 12 56 0
-193 -99 -144 0
43 -1 -58 0
-4 -188 -2 0
132 -71 -4 0
-62 29 77 0
101 80 174 0
41 142 -94 0
-23 -184 -46 0
-138 -4 -13 0
-185 100 -148 0
-101 -21 15 0
-80 -193 163 0
-71 -8 68 0
79 -20 -50 0
-140 -112 -66 0
69 195 65 0
-63 133 82 0
-103 146 -126 0
106 90 -118 0
-181 67 -5 0
97 -138 -188 0
-16 -34 50 0
200 84 134 0
-177 154 141 0
-189 17 155 0
-56 116 63 0
163 -101 -141 0
-145 -52 -24 0
-80 -96 -156 0
-3 -54 -150 0
89 129 -21 0
40 58 168 0
-199 -81 128 0
-126 -75 71 0
-195 142 -117 0
45 120 196 0
-170 -122 -6 0
-171 177 10 0
-172 89 -153 0
36 121 -145 0
91 61 6 0
6 -155 -46 0
81 -20 -159 0
-172 197 -93 0
163 -19 173 0
-31 -50 -4 0
182 41 13 0
141 -103 89 0
6 -94 -105 0
53 -11 134 0
149 -170 35 0
-13 -28 -60 0
-151 -147 168 0
188 64 -116 0
-18 164 -147 0
-41 -161 128 0
-93 -155 120 0
18 -39 -149 0
-182 180 -10 0
-60 93 -35 0
105 -101 -60 0
152 -49 -169 0
-156 -67 -135 0
-168 -100 -52 0
-29 -169 -132 0
62 -21 14 0
66 151 -142 0
-116 125 105 0
49 -131 88 0
165 8 98 0
-76 -31 13 0
75 -141 -154 0
140 77 -153 0
-145 -167 172 0
-148 172 -85 0
65 84 88 0
82 -101 29 0
105 -152 -126 0
-125 -10 -166 0
50 164 48 0
102 132 -10 0
-86 11 -68 0
90 -140 -182 0
-93 99 -23 0
68 16 -184 0
145 -173 200 0
65 -47 -30 0
-50 141 31 0
97 -59 -142 0
165 4 -155 0
-147 -29 2 0
-160 8 15 0
43 170 -198 0
-44 -45 154 0
-140 163 -112 0
-148 17 197 0
-76 178 58 0
-60 -141 -135 0
-23 -198 98 0
60 118 -176 0
105 22 119 0
18 -131 -45 0
126 34 167 0
-121 114 -77 0
-108 64 -162 0
93 -65 153 0
124 166 -73 0
-97 -185 181 0
-131 22 -82 0
-145 -102 124 0
38 -114 -12 0
108 75 -61 0
132 -195 123 0
186 -33 -5 0
-21 108 110 0
128 114 66 0
-183 175 -31 0
45 66 -141 0
149 200 112 0
-144 -80 190 0
54 148 -2 0
-143 169 16 0
-155 -142 151 0
-158 -177 59 0
160 -200 101 0
-43 193 -184 0
182 192 -146 0
-4 -150 -90 0
1 -152 -187 0
-183 10 155 0
-88 -163 135 0
186 -36 -80 0
-143 115 -99 0
-159 -34 184 0
129 -154 62 0
-33 -134 56 0
56 88 -193 0
164 57 162 0
83 189 191 0
126 30 -79 0
-129 42 60 0
180 23 -132 0
-182 101 194 0
131 69 -191 0
21 -145 -141 0
-55 -193 -198 0
113 -53 170 0
-45 56 -121 0
-98 44 42 0
-107 46 31 0
128 20 -161 0
-176 -105 51 0
-61 -117 136 0
-87 166 65 0
87 -114 150 0
-11 -124 160 0
40 41 -111 0
-189 -162 182 0
70 -123 -25 0
-82 -85 -49 0
31 82 109 0
-88 50 162 0
-143 60 87 0
-93 -33 -71 0
161 -186 116 0
-118 -36 158 0
115 -94 64 0
118 196 44 0
-47 37 107 0
44 5 3 0
33 -151 74 0
-134 -64 146 0
-189 -22 -99 0
98 58 -187 0
-199 160 143 0
-94 165 -18 0
182 59 125 0
150 -158 -66 0
-135 60 198 0
144 124 149 0
50 5 -122 0
-49 -70 25 0
-192 85 132 0
44 -108 68 0
79 147 -134 0
157 168 74 0
154 30 -95 0
28 -17 -131 0
-128 -166 -62 0
-8 -124 195 0
-28 45 -193 0
-116 -167 -67 0
-63 43 -92 0
-37 104 -27 0
135 -138 200 0
27 -7 17 0
165 -136 118 0
123 -114 190 0
-8 150 -18 0
112 155 -89 0
-69 -71 -32 0
-4 39 -96 0
-103 -122 -28 0
18 -143 59 0
175 8 155 0
-90 -151 171 0
192 -83 155 0
97 108 93 0
7 -32 -157 0
155 -108 -169 0
-81 -186 -80 0
15 -96 45 0
-6 66 -10 0
192 100 172 0
-84 -156 -38 0
119 125 108 0
82 -105 31 0
-87 186 -15 0
-39 -186 -150 0
191 -157 -92 0
-8 187 69 0
-97 -21 -34 0
157 -199 140 0
154 -193 -106 0
-87 126 -186 0
-70 169 -92 0
-167 144 -50 0
-49 5 -184 0
-41 -131 178 0
163 -99 -153 0
23 -67 92 0
55 -186 184 0
-164 -65 191 0
41 124 186 0
16 94 48 0
-65 138 68 0
49 123 135 0
-128 -120 -178 0
-8 -120 1 0
56 -61 187 0
-22 117 -46 0
-193 -163 85 0
58 -132 70 0
87 130 -69 0
44 -40 89 0
27 106 14 0
-64 194 129 0
95 86 -6 0
137 162 -76 0
115 103 160 0
-73 27 -129 0
-55 -11 -193 0
187 -94 -41 0
-141 142 -64 0
-146 134 152 0
141 -136 -123 0
83 176 -146 0
-179 -136 -23 0
-85 49 167 0
83 -166 160 0
-18 -29 -118 0
9 98 -34 0
125 12 160 0
-183 193 129 0
172 -48 -119 0
39 149 180 0
46 141 -94 0
-55 155 68 0
81 -152 -8 0
3 17 79 0
-200 -43 -91 0
90 -154 85 0
64 81 -1 0
-83 194 -61 0
172 -42 -112 0
42 -192 -118 0
-189 -89 -191 0
-63 69 -160 0
122 -29 43 0
19 5 188 0
81 60 -17 0
-24 -182 -172 0
-105 127 30 0
140 -105 163 0
-86 -58 188 0
-104 -72 -28 0
126 -101 -11 0
-74 -108 -47 0
2 156 198 0
-88 -68 152 0
78 -134 17 0
2 86 -72 0
36 -115 -53 0
-115 -6 71 0
34 14 144 0
-133 -110 -88 0
8 -73 -70 0
1 -139 -43 0
166 -159 -133 0
40 -89 -55 0
151 80 -146 0
-140 80 76 0
69 -13 -181 0
196 -79 -105 0
-27 -145 170 0
-5 -114 102 0
37 -9 86 0
97 70 193 0
29 -124 99 0
-85 50 73 0
67 -92 -151 0
-132 77 101 0
175 -23 -19 0
-48 80 17 0
159 -157 73 0
-174 61 -97 0
-117 166 136 0
154 29 -112 0
-165 164 71 0
-52 34 -32 0
-155 -113 -38 0
-58 -143 -60 0
186 -62 24 0
-100 131 -197 0
191 98 48 0
-167 28 180 0
57 7 -111 0
37 164 89 0
-86 73 177 0
123 42 -163 0
141 133 185 0
-94 1 103 0
170 118 -192 0
-177 -7 156 0
-170 24 154 0
-114 5 -19 0
-142 22 163 0
-78 33 116 0
-111 140 171 0
7 46 -67 0
-182 -68 129 0
65 -60 -64 0
42 -103 51 0
-46 -71 -11 0
173 14 -102 0
-185 42 -1 0
3 -178 55 0
172 127 169 0
-52 -128 76 0
-199 34 145 0
-3 164 -69 0
-138 -36 -7 0
-125 -83 32 0
-50 33 -195 0
23 113 189 0
-139 80 93 0
175 1 -100 0
3 -32 58 0
-148 133 -97 0
64 126 -99 0
169 173 64 0
172 92 -200 0
-30 -142 180 0
10 -107 55 0
72 -129 106 0
-68 -4 -177 0
-179 20 112 0
-96 -159 52 0
28 116 91 0
125 48 68 0
-164 151 -110 0
-54 146 48 0
178 48 77 0
-199 -154 4 0
-178 121 -56 0
-124 177 149 0
184 96 -110 0
-16 -142 110 0
170 117 143 0
-190 11 -101 0
91 14 -148 0
-174 -127 38 0
-45 -39 37 0
-49 126 -24 0
28 -86 59 0
6 -9 -177 0
22 148 45 0
-102 85 108 0
-67 143 30 0
-127 161 -21 0
-62 -130 10 0
79 66 187 0
-169 -46 -192 0
101 -24 -150 0
-20 -138 -196 0
175 -178 -92 0
-32 76 40 0
102 -192 -60 0
78 6 104 0
179 -181 98 0
-153 155 -187 0
143 132 -75 0
-169 39 -37 0
-53 195 -80 0
198 185 -56 0
117 -12 -175 0
-41 -185 -148 0
117 -181 -131 0
13 135 47 0
136 -153 -177 0
179 -135 -96 0
-7 -105 166 0
-117 -162 -30 0
19 44 150 0
-25 -37 190 0
-125 112 -98 0
173 -60 50 0
-1 19 -185 0
-199 134 172 0
-77 -123 -36 0
-157 136 -147 0
191 -24 -48 0
-121 -101 180 0
83 52 -44 0
-197 -82 -150 0
-17 -9 -64 0
-86 -186 -40 0
-67 -53 -74 0
181 -142 -59 0
193 114 -199 0
-26 -101 -47 0
113 139 66 0
-136 149 -82 0
-23 -159 172 0
-199 99 -31 0
-135 109 -125 0
-120 60 181 0
45 127 -27 0
67 125 146 0
-103 -43 -54 0
28 -75 -49 0
29 26 27 0
28 -94 -69 0
-46 197 -154 0
168 -142 10 0
86 -130 -134 0
-135 -15 141 0
120 -69 16 0
68 131 -24 0
50 143 -65 0
11 153 -7 0
-17 177 -158 0
-31 124 -168 0
-62 178 18 0
178 96 91 0
-16 144 -184 0
-131 -99 -188 0
94 -143 -30 0
11 -81 -180 0
135 -81 196 0
151 -103 -119 0
82 -49 105 0
-21 -20 26 0
-115 105 136 0
-188 163 55 0
-29 134 -149 0
-82 -78 -128 0
-187 7 73 0
-33 -158 66 0
165 156 69 0
-125 71 -22 0
-21 46 131 0
-99 198 12 0
128 -168 55 0
