p cnf 100 445
11 97 -54 0
-87 89 -43 0
88 70 -46 0
39 7 59 0
89 69 40 0
-7 -33 -9 0
21 36 -19 0
35 -26 77 0
-78 -44 -28 0
-42 -83 -68 0
-82 -24 -80 0
25 15 -88 0
44 32 17 0
-60 14 11 0
74 63 38 0
67 95 -37 0
-47 -14 25 0
-68 -71 -93 0
-99 -62 75 0
-99 86 -2 0
-11 -10 -63 0
-80 88 -49 0
-13 9 46 0
9 -73 23 0
-97 47 14 0
-87 -85 -94 0
-7 54 -85 0
46 -2 85 0
-35 -81 -7 0
31 -80 -71 0
12 56 91 0
-5 -4 84 0
90 84 -6 0
80 57 46 0
73 23 20 0
9 71 84 0
-10 -69 -51 0
70 63 76 0
40 -17 -33 0
77 -84 22 0
38 -43 -65 0
91 27 -6 0
80 36 -35 0
24 -39 -21 0
39 60 56 0
-69 51 64 0
-6 -24 1 0
-87 34 83 0
53 -13 99 0
-14 -10 -65 0
-2 -68 9 0
9 -14 34 0
-78 1 -97 0
71 -99 33 0
15 90 -42 0
49 -81 68 0
60 -44 -71 0
5 73 68 0
-23 -37 40 0
93 -35 -90 0
-51 -27 79 0
-64 49 -85 0
13 -24 -73 0
20 41 32 0
50 -45 -100 0
-87 -57 -61 0
79 -68 -42 0
24 -36 -55 0
33 -23 -5 0
-78 94 84 0
-38 35 -89 0
28 -56 -89 0
7 28 100 0
-45 58 -48 0
82 21 34 0
-27 -73 68 0
-96 -5 87 0
59 39 -3 0
-80 -22 24 0
12 4 -68 0
-94 47 97 0
4 -24 -67 0
-5 99 -9 0
-38 -57 44 0
-56 -72 50 0
33 -65 -36 0
-30 -66 80 0
55 -32 88 0
-28 55 61 0
76 -21 28 0
20 59 -48 0
80 73 -88 0
-82 -73 86 0
-9 -41 -72 0
-89 -49 33 0
-46 90 94 0
45 97 2 0
-74 -3 49 0
-92 -37 -99 0
-59 -96 64 0
-95 -33 29 0
-67 -35 20 0
-37 9 17 0
89 44 73 0
95 99 32 0
-46 47 -6 0
-19 -35 -44 0
-67 47 85 0
27 55 -46 0
45 11 -47 0
-57 84 -41 0
-16 56 -31 0
-94 -69 -42 0
-100 -74 25 0
47 15 -44 0
80 -22 -29 0
94 -25 -26 0
-39 -27 91 0
84 44 60 0
81 -31 -9 0
64 62 86 0
83 -5 -85 0
79 98 -18 0
-63 -60 -13 0
-33 24 48 0
44 32 -2 0
61 -94 97 0
-45 11 -39 0
-61 16 -71 0
87 -72 56 0
-40 72 95 0
-81 -18 35 0
81 -31 -35 0
92 -99 -12 0
-90 -40 -98 0
18 8 62 0
-14 -25 -56 0
45 27 91 0
82 37 -3 0
-36 45 56 0
-47 14 -63 0
59 52 -80 0
35 -44 -25 0
47 63 -19 0
41 -89 50 0
67 -10 22 0
-83 29 -96 0
8 91 19 0
-3 -97 64 0
-58 82 -34 0
-63 73 -24 0
20 -10 56 0
-31 2 -52 0
61 20 -77 0
1 20 -7 0
-11 -88 51 0
47 -68 58 0
44 76 24 0
25 41 -64 0
-68 -78 97 0
27 87 64 0
-93 -49 31 0
100 -29 92 0
-72 38 -53 0
-72 -17 32 0
68 -55 48 0
-76 -93 -34 0
48 -9 -30 0
62 -58 -64 0
94 -9 44 0
63 -27 -21 0
-90 -64 -48 0
-52 37 23 0
40 -44 -57 0
-62 -51 -38 0
18 -91 -73 0
-23 28 -63 0
-99 -79 -61 0
53 -98 -92 0
-60 -85 -74 0
40 10 -63 0
-38 3 -88 0
-5 -39 75 0
33 -78 31 0
31 50 -20 0
43 31 -84 0
-28 -21 -43 0
-44 62 83 0
80 87 27 0
-19 36 -98 0
-63 37 59 0
-37 -7 -20 0
-8 -15 17 0
41 -16 -93 0
-100 38 7 0
-82 -73 98 0
3 38 -27 0
-88 -43 -34 0
-74 20 -44 0
70 -62 13 0
30 -86 -42 0
17 -68 -72 0
35 97 -96 0
12 -45 -76 0
-92 -83 -76 0
3 57 -10 0
89 80 -64 0
61 -73 99 0
47 59 -10 0
57 36 -14 0
62 -50 -64 0
-62 -27 -13 0
18 -36 79 0
-21 -35 -24 0
39 16 94 0
-94 -99 85 0
74 51 63 0
3 -82 51 0
-22 35 -59 0
-3 39 56 0
-70 -12 84 0
41 -33 -50 0
48 -99 78 0
44 -48 -57 0
-62 -89 31 0
85 -49 -28 0
26 -24 64 0
27 75 -54 0
-86 85 -21 0
-81 -44 -96 0
77 -2 -84 0
-28 52 -40 0
-24 59 -28 0
99 -23 82 0
20 26 -67 0
-35 77 18 0
-3 67 97 0
-27 20 -22 0
-50 95 40 0
-19 72 34 0
93 -75 46 0
-99 -43 39 0
-4 -96 1 0
-39 -28 45 0
-68 -81 34 0
-23 -64 -68 0
-88 27 -82 0
63 72 -49 0
95 -61 10 0
-68 26 -88 0
-39 -7 -57 0
99 -98 49 0
-25 100 66 0
70 91 -5 0
41 -2 6 0
80 -18 -31 0
22 39 97 0
-26 11 77 0
-51 50 44 0
95 77 63 0
-9 84 -100 0
-11 98 10 0
-22 30 -91 0
62 41 -58 0
51 -45 33 0
55 93 -91 0
-82 47 29 0
-6 79 -26 0
-47 68 -86 0
66 -75 39 0
-15 75 71 0
90 14 -44 0
-56 58 -33 0
-43 -29 -24 0
-33 82 50 0
48 -89 51 0
-81 9 39 0
-52 8 11 0
-65 90 -96 0
-93 24 -38 0
-96 40 78 0
-1 22 -20 0
-1 -81 -37 0
32 -89 -38 0
-45 -58 38 0
4 -27 95 0
-19 -57 78 0
-88 -1 2 0
93 54 -47 0
-62 73 98 0
13 49 20 0
36 94 35 0
-36 -38 -85 0
20 -22 13 0
15 -55 29 0
-48 72 52 0
39 -38 60 0
56 -16 36 0
-73 -85 -23 0
-91 -92 -40 0
-85 27 -83 0
-48 13 -24 0
26 -81 -88 0
85 33 -20 0
-32 -98 -70 0
-38 -46 72 0
-28 58 57 0
-23 64 77 0
28 53 -49 0
-2 40 -70 0
-60 -76 -27 0
3 93 -36 0
75 -14 -8 0
-62 60 -74 0
6 77 23 0
64 -2 -71 0
-67 13 65 0
39 5 -76 0
37 -83 -25 0
66 -2 82 0
-51 -12 67 0
11 26 -3 0
61 100 44 0
-11 -40 60 0
-10 -2 54 0
-54 28 98 0
12 52 -37 0
13 -100 -72 0
-90 -78 -50 0
-72 -52 -12 0
-34 -35 -58 0
85 -35 -83 0
-63 89 37 0
-75 65 -61 0
-82 85 37 0
94 52 89 0
13 50 -58 0
55 78 4 0
-91 79 19 0
-43 68 -46 0
-26 -93 97 0
-100 -74 -26 0
-49 -31 41 0
-79 -12 55 0
-80 -75 26 0
38 5 32 0
61 -18 14 0
-15 83 11 0
-74 100 83 0
69 72 49 0
-6 -83 9 0
73 97 -84 0
-83 -33 -24 0
-51 -25 23 0
58 -61 -71 0
17 34 -30 0
8 -83 89 0
-79 99 -29 0
16 -41 -96 0
-43 -1 26 0
-41 24 -87 0
59 4 63 0
-49 -76 61 0
61 80 -4 0
14 -7 81 0
-37 -67 97 0
49 41 67 0
-3 92 64 0
-67 -9 92 0
-35 76 -100 0
-21 55 -20 0
66 -60 -94 0
54 71 -13 0
-32 -54 -22 0
-55 -99 94 0
19 57 -28 0
-49 -74 35 0
-16 -68 -26 0
-95 26 -85 0
-76 -65 87 0
43 41 -3 0
-45 7 50 0
67 66 82 0
-43 -30 81 0
70 -97 89 0
-20 -51 23 0
-13 97 44 0
26 -19 -71 0
-79 -89 46 0
62 7 46 0
-21 14 -69 0
-6 -7 -88 0
-11 -55 51 0
-87 15 83 0
67 -65 -80 0
-43 -91 -80 0
50 12 -66 0
22 66 32 0
-17 1 -49 0
45 23 -86 0
85 36 3 0
-13 45 -39 0
22 -89 87 0
-3 -89 76 0
72 95 -89 0
-71 -49 -5 0
-4 -36 18 0
79 48 49 0
65 27 -89 0
-44 5 55 0
68 -44 92 0
84 52 -21 0
96 -69 -6 0
-34 62 -70 0
1 92 63 0
-59 -12 -52 0
-50 85 -35 0
28 -70 -76 0
97 -18 -83 0
39 19 61 0
-64 71 -92 0
68 40 -29 0
-75 -38 -14 0
86 -51 97 0
-40 -18 -20 0
53 -31 -86 0
-31 -58 75 0
62 20 90 0
-59 -76 36 0
-47 -16 33 0
35 -99 58 0
51 90 -6 0
-77 -49 -34 0
15 -100 18 0
12 79 27 0
-5 -3 63 0
59 14 -78 0
-12 -95 -36 0
62 83 -98 0
12 -27 -78 0
16 17 64 0
-56 73 -82 0
-38 68 14 0
75 -36 40 0
52 -83 22 0
