p cnf 100 445
-11 -42 -25 0
88 -74 -5 0
93 72 21 0
-39 -27 -10 0
83 -69 93 0
46 97 -22 0
-24 -14 -97 0
-60 -81 45 0
-83 8 27 0
-49 20 55 0
-16 20 -41 0
53 -49 43 0
24 -41 61 0
-93 12 -86 0
97 4 -67 0
-86 16 -7 0
-16 -30 -4 0
80 11 62 0
-39 79 41 0
82 96 -85 0
-73 76 -44 0
-66 46 60 0
-61 -95 -59 0
18 -39 -64 0
-90 30 22 0
-57 20 91 0
-50 -91 -90 0
20 26 83 0
19 -76 -41 0
-46 41 -92 0
49 -80 -29 0
93 -52 98 0
-34 47 -99 0
-87 10 43 0
32 -28 38 0
14 1 100 0
-53 -60 -29 0
14 -86 63 0
-95 73 43 0
94 100 86 0
30 -47 -15 0
-93 -61 55 0
-41 -21 -62 0
-56 -50 -31 0
53 -97 -36 0
16 1 12 0
22 13 -82 0
63 -99 56 0
11 -62 -70 0
-1 -31 55 0
85 29 -11 0
-75 -28 -4 0
-7 32 -49 0
-8 82 -99 0
68 -51 -7 0
-52 -23 75 0
-21 -40 -67 0
-8 6 -41 0
-25 77 -21 0
35 -41 25 0
42 -7 -5 0
-21 89 -42 0
65 44 -2 0
92 82 -95 0
-26 -95 86 0
-73 85 -13 0
-37 51 -47 0
16 81 -72 0
79 -14 47 0
-20 60 13 0
-66 -47 -1 0
-4 16 88 0
-34 -49 85 0
-63 20 36 0
-23 72 -6 0
14 -67 -17 0
7 -68 83 0
-17 -84 -9 0
97 51 -55 0
-67 -16 -85 0
-82 68 -69 0
-14 11 74 0
83 -97 9 0
63 -13 -19 0
-55 -19 70 0
83 73 82 0
4 -58 -85 0
32 -78 -14 0
-20 -17 100 0
-4 72 11 0
12 68 97 0
76 28 -59 0
75 39 -86 0
18 17 -87 0
-69 -88 -52 0
-35 86 -47 0
-85 -54 -88 0
-47 -18 30 0
-62 -89 68 0
-52 36 -89 0
90 -89 -95 0
-82 75 -19 0
-30 -89 -46 0
32 -18 -23 0
41 -42 53 0
-3 -9 -5 0
-56 -37 67 0
-42 -51 -44 0
-81 -64 97 0
-38 -78 82 0
72 -89 -97 0
68 78 2 0
8 -41 53 0
-43 25 39 0
-57 59 80 0
-42 82 -18 0
96 -90 -61 0
21 -83 89 0
68 -8 -24 0
25 83 57 0
-59 18 -75 0
-6 83 30 0
-58 -24 -6 0
85 20 93 0
-55 -81 -96 0
37 64 -66 0
91 36 17 0
-14 50 37 0
40 32 33 0
99 46 64 0
45 77 99 0
29 59 -55 0
30 -49 57 0
-47 -72 -70 0
-24 -70 -37 0
100 17 68 0
-81 -45 69 0
27 -18 -79 0
99 -92 16 0
-29 52 -87 0
72 -91 11 0
34 25 -67 0
-54 13 -37 0
-45 -51 -5 0
-17 -58 -51 0
86 -34 59 0
-77 -2 69 0
49 -50 32 0
65 73 -100 0
-80 -2 45 0
77 -29 -35 0
12 26 -17 0
25 -29 70 0
-79 -92 -94 0
100 -17 10 0
56 -28 -74 0
46 79 -45 0
74 -72 53 0
28 -48 76 0
-30 13 -77 0
21 -11 -71 0
-11 -86 -97 0
-24 -41 -34 0
-57 9 -91 0
-15 -100 -79 0
-3 -98 -67 0
10 11 -20 0
-61 47 -48 0
-51 6 85 0
-55 44 47 0
36 14 -85 0
-94 -2 55 0
-33 -40 -70 0
-37 25 61 0
-38 -4 95 0
-69 83 -62 0
-25 88 -24 0
77 39 -38 0
-76 63 52 0
-47 -34 -74 0
-44 85 96 0
37 -50 38 0
64 66 -88 0
36 -20 40 0
-39 -38 -34 0
-77 67 -57 0
-29 -82 -88 0
75 -70 -17 0
-40 7 -75 0
89 -19 -53 0
79 -82 29 0
41 -17 -9 0
29 49 -3 0
-82 -37 -21 0
-4 -100 85 0
37 91 53 0
59 25 10 0
-38 -59 -27 0
-47 -85 66 0
84 18 -38 0
-53 -1 46 0
8 56 -3 0
-64 65 2 0
-45 -47 -32 0
-18 -42 81 0
-93 -62 -59 0
-80 83 53 0
-98 -21 75 0
-45 77 6 0
69 55 -62 0
62 22 -68 0
60 46 -94 0
88 80 -56 0
44 -50 22 0
-39 -14 23 0
-14 -26 41 0
-4 19 -21 0
-86 98 -94 0
-89 -88 -9 0
-6 -77 3 0
94 -3 -77 0
-74 95 51 0
-59 89 9 0
47 -91 81 0
-74 49 21 0
39 -2 -38 0
92 -28 96 0
5 -33 -68 0
-62 -97 7 0
73 97 -76 0
-22 15 4 0
-82 100 -81 0
-89 60 -27 0
24 17 60 0
95 -90 -16 0
-83 17 -28 0
-51 -52 14 0
73 -15 -49 0
96 86 -94 0
-44 60 43 0
-93 -52 71 0
86 -53 -75 0
99 -33 -10 0
72 -67 6 0
42 63 7 0
32 76 -86 0
42 4 -5 0
57 -86 -30 0
96 25 63 0
-31 49 97 0
100 87 27 0
69 -45 -1 0
-80 -7 96 0
54 -3 -11 0
-6 72 90 0
2 -76 -21 0
-17 15 -9 0
-68 92 51 0
39 -48 60 0
-36 9 -81 0
-58 4 -1 0
23 -39 6 0
-46 92 31 0
76 -48 6 0
29 32 7 0
8 -43 54 0
-63 19 -85 0
38 -18 63 0
-31 85 64 0
75 47 24 0
57 91 -32 0
47 -25 -83 0
83 -78 39 0
-74 -14 63 0
25 50 3 0
93 -72 -27 0
21 -76 -35 0
28 -81 -93 0
-93 -54 -59 0
12 -5 81 0
-6 80 -95 0
-66 -75 -88 0
-25 37 46 0
35 -28 87 0
56 -42 60 0
94 -10 -51 0
43 37 -74 0
39 -95 -84 0
-99 -56 37 0
65 3 71 0
-99 -1 -44 0
91 34 55 0
51 -45 -39 0
71 -80 21 0
-24 -42 27 0
33 -32 -26 0
-44 38 -74 0
9 -31 -76 0
-15 -38 74 0
47 -72 15 0
-24 84 31 0
-19 10 -9 0
22 53 81 0
42 -60 -5 0
-98 35 -92 0
-21 -39 -42 0
-37 -97 -100 0
-89 38 -67 0
-16 94 -67 0
-78 -23 93 0
66 -34 11 0
54 94 61 0
90 9 -100 0
35 80 -85 0
5 -43 -21 0
-69 28 -67 0
-98 -93 -99 0
45 2 -88 0
-76 -38 -56 0
67 25 28 0
-17 -60 -36 0
52 -79 23 0
-15 13 1 0
68 -73 -39 0
-57 -78 64 0
-19 52 90 0
42 -82 43 0
-94 17 -16 0
-62 -42 -30 0
24 -10 -48 0
-16 6 -41 0
97 37 -15 0
77 55 -7 0
-35 -60 -45 0
68 100 52 0
7 93 -97 0
90 -9 -41 0
-11 -91 -85 0
25 -28 -35 0
36 42 -2 0
-67 -50 53 0
-11 -21 -2 0
-52 94 33 0
-51 -60 -22 0
83 -82 63 0
-23 -100 -6 0
-80 -49 -28 0
92 95 -19 0
-32 -24 -100 0
-40 27 73 0
8 50 -48 0
43 -65 -14 0
-53 1 79 0
64 -22 -87 0
-83 6 -27 0
93 -68 -12 0
80 7 -14 0
-33 -48 -63 0
-4 -78 -53 0
-92 17 34 0
-34 -90 91 0
68 40 -90 0
3 -7 74 0
-29 -78 65 0
95 50 26 0
-73 57 -84 0
-77 -17 -38 0
-23 -91 41 0
-20 59 -27 0
-60 -98 -59 0
-84 91 -58 0
-60 56 -48 0
-58 -95 42 0
49 5 -33 0
45 -58 85 0
8 75 64 0
-53 -93 16 0
-3 81 -85 0
56 4 -11 0
-89 23 -1 0
19 17 24 0
-95 64 96 0
-58 -23 -11 0
61 79 -7 0
-78 58 -2 0
-85 -2 84 0
-66 -41 -57 0
45 -98 83 0
-86 -63 38 0
-8 -54 -11 0
-96 52 53 0
-81 32 -76 0
82 62 48 0
18 39 98 0
-7 -36 26 0
41 -82 -98 0
-62 -28 11 0
19 -77 86 0
-91 -31 -25 0
-31 -65 92 0
-42 -22 -27 0
-78 47 62 0
-45 -61 -8 0
57 3 46 0
87 95 36 0
98 -90 -77 0
52 44 -28 0
-26 18 39 0
-64 -1 15 0
58 -61 -33 0
-10 -100 17 0
36 52 9 0
48 22 54 0
46 56 -92 0
39 -44 -56 0
-66 -5 83 0
58 68 75 0
-52 -40 -53 0
-77 66 40 0
-20 -26 -40 0
-77 -9 6 0
84 -26 -97 0
-95 -72 -88 0
-33 88 34 0
-90 38 -52 0
95 -93 -46 0
46 95 -17 0
70 -79 -12 0
69 -8 -48 0
89 98 95 0
-68 20 -33 0
31 -90 -70 0
-72 -51 50 0
55 33 -88 0
-53 -55 -14 0
-5 -32 88 0
-79 -36 63 0
49 15 -55 0
70 -47 10 0
-59 -10 -77 0
-12 -88 8 0
7 -95 -60 0
-43 -65 68 0
45 75 -62 0
21 67 -41 0
