p cnf 500 1050
-113 271 258 0
-428 201 81 0
-233 260 -294 0
-386 166 380 0
-66 -111 416 0
402 286 422 0
23 -498 -137 0
284 29 -255 0
464 207 -134 0
54 254 -292 0
138 -392 -308 0
30 345 51 0
-289 -63 368 0
-116 -154 47 0
-494 -400 251 0
-114 366 67 0
-438 -337 -205 0
260 -147 21 0
-220 260 327 0
-296 470 393 0
470 -158 26 0
140 -353 264 0
215 220 199 0
-419 -402 -451 0
476 440 -320 0
35 226 -499 0
298 121 -185 0
-162 -430 -390 0
-278 301 272 0
-6 -152 308 0
252 -236 344 0
121 95 144 0
-343 -350 -189 0
-320 -113 -347 0
-122 -374 -381 0
-71 -410 284 0
437 -110 255 0
403 -493 -131 0
132 303 223 0
-350 218 -185 0
-36 309 451 0
-255 -324 -83 0
-476 31 -66 0
474 53 -131 0
499 1 -178 0
157 462 57 0
-419 439 -310 0
249 133 179 0
403 72 -234 0
362 -320 163 0
422 -396 293 0
-456 -251 -175 0
-137 306 20 0
407 -313 321 0
302 19 393 0
206 -166 -115 0
-107 -286 312 0
-19 -102 -472 0
-412 348 220 0
148 -161 -64 0
-432 315 -24 0
-491 475 456 0
-222 -324 -490 0
-50 441 456 0
-5 -383 -162 0
-118 325 -192 0
494 -329 -320 0
-103 -200 -484 0
-105 -130 273 0
-88 69 236 0
15 51 -56 0
-163 275 254 0
80 -47 -414 0
71 -121 40 0
432 -271 -61 0
55 -3 270 0
102 426 -41 0
-8 332 329 0
431 365 498 0
336 -436 -473 0
-330 65 83 0
435 -98 -343 0
-185 91 -429 0
-259 -113 366 0
214 147 -363 0
327 -437 4 0
-411 -57 306 0
127 144 16 0
1 -481 146 0
332 46 144 0
44 -245 -463 0
-396 -42 -341 0
-277 254 -494 0
-172 156 -302 0
4 -64 -59 0
-398 484 142 0
-97 -70 -48 0
-176 236 -78 0
420 485 422 0
-80 -94 -243 0
338 463 490 0
154 -464 111 0
-212 419 72 0
-265 274 -137 0
331 -355 -167 0
-373 -42 -229 0
-493 170 201 0
297 -89 350 0
-344 100 -390 0
-60 120 -190 0
-420 138 463 0
323 -37 191 0
-69 3 120 0
-279 459 148 0
294 -46 -32 0
299 -130 88 0
15 -2 -336 0
-339 -348 80 0
-454 67 320 0
-41 -93 -445 0
-274 -328 -455 0
80 394 255 0
171 -297 438 0
-266 -108 -405 0
386 499 -421 0
428 -60 321 0
-185 358 -263 0
298 301 254 0
-314 -401 -139 0
-86 429 -326 0
270 -485 160 0
22 -409 102 0
360 -379 197 0
-115 -183 -355 0
-439 315 -466 0
-418 -398 -11 0
53 405 293 0
-316 159 58 0
275 -285 436 0
366 -324 302 0
456 -298 374 0
37 -111 357 0
-38 420 350 0
231 -11 212 0
-295 -277 138 0
382 301 459 0
-103 169 -372 0
-83 -162 -408 0
-254 -258 291 0
281 127 426 0
-268 -365 73 0
131 475 380 0
62 84 -449 0
208 79 -405 0
-190 -318 -415 0
-195 -390 176 0
499 -172 423 0
-148 -307 -277 0
-79 421 357 0
-154 -395 -235 0
-392 -212 -10 0
-373 -275 -38 0
160 24 -457 0
-254 346 179 0
-388 -157 129 0
-428 94 -271 0
-367 495 -95 0
282 35 87 0
-461 -441 -36 0
-480 437 481 0
385 -364 268 0
83 123 -411 0
-356 77 -409 0
480 153 73 0
-435 286 390 0
453 -419 472 0
-426 389 346 0
67 10 85 0
361 -111 -331 0
404 447 494 0
-346 -72 25 0
419 -421 387 0
-386 322 -224 0
-438 320 74 0
-408 415 249 0
-390 205 278 0
98 -309 493 0
455 203 468 0
-421 -215 -166 0
40 231 99 0
-9 -379 441 0
-25 201 101 0
-265 398 254 0
254 -333 -490 0
142 150 90 0
-136 -52 212 0
170 -449 329 0
113 39 -386 0
491 -136 106 0
-135 -213 479 0
-344 50 -146 0
-401 -71 61 0
-175 318 -51 0
-90 284 451 0
332 395 -150 0
-190 -107 -209 0
-151 -280 -211 0
290 292 -181 0
-11 -19 465 0
-122 369 -169 0
-154 200 266 0
-123 -143 -409 0
-452 -247 -83 0
322 62 110 0
428 346 178 0
248 -112 -332 0
260 104 -314 0
-331 -113 204 0
-223 250 -302 0
268 -87 370 0
-272 109 -445 0
-425 -343 -143 0
-30 -65 16 0
281 477 172 0
145 243 104 0
352 -150 474 0
370 -450 281 0
89 9 -279 0
62 478 -274 0
146 185 12 0
323 -327 -365 0
-93 -217 89 0
-104 352 276 0
419 52 -465 0
-370 -363 223 0
187 253 -73 0
229 -201 -495 0
233 -103 -389 0
-119 213 -51 0
-488 242 350 0
-123 312 11 0
406 -418 -50 0
-56 -311 -422 0
255 -159 497 0
-95 451 -173 0
360 251 448 0
282 -71 -222 0
203 -138 -306 0
-373 -131 221 0
-440 -385 359 0
-198 345 278 0
-112 -412 -29 0
194 154 319 0
15 80 -485 0
-263 164 -346 0
-47 121 -472 0
411 -320 36 0
-437 245 221 0
-185 324 -337 0
-254 306 -41 0
-23 468 330 0
382 483 -125 0
-150 55 31 0
-239 69 -444 0
76 -471 108 0
376 -390 460 0
53 -453 411 0
-288 -399 255 0
198 50 -467 0
-345 -194 -124 0
75 198 -257 0
230 -13 -39 0
273 86 -68 0
329 239 251 0
-454 -422 181 0
147 -455 -105 0
-219 197 -252 0
-457 -135 3 0
411 -153 409 0
21 229 1 0
307 -373 361 0
384 -164 -272 0
-381 -496 -1 0
408 415 180 0
148 383 -344 0
-196 26 110 0
50 244 -133 0
-2 331 367 0
487 215 476 0
32 -463 -187 0
431 -369 -74 0
396 357 -240 0
-315 -323 14 0
22 -238 -294 0
-298 372 -269 0
-380 -278 -495 0
191 281 244 0
458 304 80 0
42 -347 500 0
470 246 -133 0
-77 170 232 0
-455 348 -65 0
-6 -462 -441 0
187 -427 -410 0
-27 -29 -336 0
292 406 -306 0
-267 -102 428 0
56 444 -328 0
-282 -235 325 0
272 438 -81 0
-427 480 142 0
331 -485 345 0
450 491 -176 0
121 397 -208 0
399 277 -194 0
-499 -388 -230 0
10 105 -12 0
390 286 -14 0
-467 -195 -152 0
416 -150 -356 0
-134 206 248 0
474 -454 37 0
-297 56 272 0
-435 452 -123 0
-152 418 230 0
-316 184 340 0
-382 272 -334 0
58 -396 -314 0
-283 121 -260 0
-266 -35 186 0
-315 -419 436 0
351 -310 416 0
-130 490 127 0
365 -190 -482 0
-330 -410 173 0
-33 -260 329 0
-193 -23 -89 0
409 -146 20 0
-343 -5 -15 0
343 379 161 0
260 -491 382 0
-481 -39 -464 0
110 50 -44 0
-43 -156 -301 0
107 -314 -478 0
153 -457 -225 0
294 142 364 0
345 457 -442 0
271 -200 27 0
-340 182 266 0
456 -427 86 0
437 193 -422 0
-23 -173 450 0
-439 355 230 0
11 193 -445 0
-320 -360 156 0
-443 315 417 0
-2 175 10 0
-72 -250 -450 0
-435 210 -132 0
-354 316 366 0
-276 364 373 0
-234 260 -456 0
-459 -460 478 0
78 -232 -35 0
-496 225 196 0
-89 4 113 0
69 117 258 0
319 -394 -128 0
403 444 205 0
-484 -211 -464 0
309 -406 -356 0
417 40 -141 0
406 -10 282 0
446 42 -16 0
395 366 -316 0
-131 -408 -444 0
79 -145 -131 0
7 133 -356 0
426 8 418 0
144 484 -500 0
481 114 104 0
249 257 491 0
388 -137 270 0
-388 -61 -335 0
338 -235 -63 0
329 -342 -446 0
-172 245 352 0
-174 -441 -224 0
314 -239 -256 0
449 -267 79 0
310 232 -86 0
-398 154 -396 0
334 -11 386 0
-277 409 310 0
-396 21 73 0
-55 -221 -300 0
380 -439 124 0
-454 156 329 0
-419 -45 409 0
473 -132 388 0
297 258 -43 0
284 427 -374 0
381 -436 -295 0
231 -372 440 0
-332 88 -166 0
-257 308 55 0
-24 -373 -66 0
-63 -283 -250 0
-207 325 365 0
320 163 405 0
-69 -312 -55 0
498 198 14 0
-384 -106 459 0
-365 359 -474 0
67 -484 -320 0
-222 -329 -42 0
-85 371 170 0
-217 125 -445 0
75 -247 -468 0
-286 -28 -188 0
309 355 80 0
-254 -284 -132 0
-355 -45 -476 0
-215 -65 142 0
239 -462 256 0
49 315 453 0
131 132 -339 0
137 -18 58 0
-222 457 -108 0
233 276 -159 0
-71 148 -274 0
360 -331 -500 0
154 -385 101 0
-179 123 185 0
135 -154 -480 0
90 175 291 0
-487 -236 -498 0
25 280 53 0
-247 315 373 0
226 183 -231 0
435 201 241 0
42 405 -282 0
-461 -428 411 0
438 -67 -198 0
-337 163 -183 0
302 166 -418 0
-464 101 -385 0
-394 391 102 0
-1 45 411 0
-90 -151 -192 0
-220 -112 -324 0
-83 -236 -470 0
-434 -348 102 0
419 33 -449 0
-382 -424 125 0
294 -211 377 0
94 32 -82 0
333 191 26 0
437 314 452 0
6 391 -370 0
272 386 6 0
6 248 281 0
121 -60 166 0
-236 -344 381 0
-417 18 -171 0
425 -349 491 0
300 -22 -150 0
-284 84 -289 0
-343 -63 11 0
129 12 432 0
319 -307 32 0
-188 -493 -421 0
-214 -337 380 0
-255 482 129 0
212 13 -192 0
442 273 -351 0
187 460 -9 0
-273 168 -56 0
485 -470 343 0
-180 17 156 0
-449 146 -288 0
90 -169 211 0
33 167 227 0
189 58 481 0
32 406 -259 0
-472 -344 -290 0
334 -358 -368 0
387 169 229 0
-447 366 -48 0
408 -181 -366 0
243 338 -459 0
-285 -201 -356 0
-352 104 148 0
-224 380 73 0
195 459 -210 0
475 17 314 0
441 182 -286 0
-247 -316 258 0
-320 -23 351 0
-191 -383 364 0
-114 -72 302 0
-162 83 25 0
-479 119 298 0
155 -386 272 0
-123 335 -55 0
486 -44 223 0
354 488 -179 0
-66 -485 85 0
-9 -49 -101 0
211 -357 350 0
-312 40 130 0
-497 -125 -352 0
246 -393 -38 0
-144 200 51 0
350 -325 397 0
-179 389 256 0
327 -378 -333 0
-193 -123 256 0
-315 -329 -497 0
-232 260 -314 0
357 177 406 0
50 -448 134 0
492 -156 286 0
-322 -36 492 0
440 225 269 0
-331 -189 -252 0
252 256 399 0
-376 -146 -209 0
16 27 -125 0
-390 223 -445 0
495 215 -481 0
495 -447 184 0
266 -103 244 0
-462 -64 -360 0
-318 -279 359 0
-388 347 -53 0
-346 68 283 0
141 -368 28 0
-474 136 489 0
461 -224 240 0
288 469 -466 0
326 85 -156 0
-115 -288 415 0
-457 468 -280 0
431 248 186 0
-74 -371 184 0
459 133 -36 0
303 -302 -395 0
325 187 -148 0
89 432 -346 0
-476 212 34 0
413 -79 165 0
-353 -188 -9 0
-227 149 -344 0
-468 -114 2 0
6 55 82 0
-332 -417 208 0
439 -363 -326 0
203 351 -240 0
-363 16 477 0
218 -448 -81 0
-165 -144 287 0
-44 126 -201 0
78 -493 286 0
-145 82 -407 0
353 -23 268 0
8 394 -221 0
127 338 -113 0
404 359 363 0
-415 359 478 0
423 41 -440 0
-125 39 -223 0
128 -414 375 0
206 -265 102 0
412 -103 58 0
277 447 -239 0
-391 156 193 0
438 362 -357 0
-391 -210 63 0
206 56 -164 0
437 157 8 0
409 290 337 0
-16 -61 166 0
401 243 -1 0
-470 -172 50 0
-430 283 380 0
198 253 184 0
-437 43 -471 0
-486 -299 -5 0
-74 455 -379 0
-343 26 -337 0
311 -328 498 0
78 261 322 0
320 -458 -160 0
-262 83 131 0
268 -9 476 0
-93 170 -1 0
325 196 -46 0
4 -232 401 0
-262 75 84 0
245 -394 151 0
-104 -59 -129 0
-352 72 -302 0
138 420 -31 0
231 32 216 0
-81 310 15 0
-136 -348 -352 0
7 110 -404 0
34 -202 216 0
-64 340 -212 0
-152 324 -83 0
166 48 477 0
97 159 -481 0
-288 -314 490 0
285 -287 -325 0
45 124 220 0
-443 -180 409 0
-341 -198 372 0
385 -249 -407 0
-338 72 -188 0
314 -38 -324 0
42 428 -110 0
-476 -155 -344 0
465 -94 -311 0
419 -99 -181 0
123 -161 427 0
-123 -72 -148 0
173 237 -12 0
336 471 -413 0
224 -63 -309 0
203 -419 -357 0
-398 -400 -483 0
174 188 -249 0
-371 109 477 0
369 53 300 0
-3 221 243 0
-157 389 1 0
-478 11 -282 0
-311 473 -414 0
449 34 -199 0
195 -347 374 0
409 252 -38 0
368 -87 390 0
-344 440 263 0
-416 140 -151 0
164 -305 202 0
-195 277 -93 0
112 245 -264 0
-168 -402 218 0
320 -113 340 0
-62 -204 252 0
160 474 -72 0
-114 129 -403 0
-4 207 -421 0
427 -495 -379 0
-373 45 -149 0
-17 -469 -357 0
343 438 -310 0
-253 -49 -140 0
274 -49 324 0
-499 -142 -481 0
-149 195 -144 0
110 330 -437 0
42 15 -481 0
-105 -433 -61 0
191 -257 315 0
299 -462 191 0
33 -488 -2 0
-208 433 -410 0
-351 -218 -175 0
373 45 75 0
39 -66 342 0
-285 236 -9 0
158 381 -49 0
180 84 -355 0
25 -451 336 0
-233 184 260 0
182 -370 150 0
-322 -468 179 0
-329 272 116 0
-396 -141 175 0
184 483 -241 0
-293 -83 -409 0
-430 335 -207 0
-286 194 482 0
388 56 -245 0
-327 111 -152 0
-249 -146 -76 0
76 -10 -394 0
17 291 -234 0
498 130 435 0
-143 33 -348 0
-168 60 -282 0
-250 -415 306 0
82 34 368 0
378 31 119 0
-484 -334 235 0
-149 461 362 0
2 -81 298 0
188 445 -80 0
-476 417 305 0
293 -283 -31 0
229 -457 284 0
-70 -331 112 0
-45 191 116 0
487 216 -369 0
-99 -255 -249 0
118 -282 111 0
-77 -356 -498 0
-53 -186 -463 0
-185 -350 -427 0
-293 44 246 0
359 478 109 0
493 195 182 0
-123 57 -42 0
16 434 -80 0
4 -378 -178 0
496 -362 -354 0
-42 -418 -342 0
-301 -413 82 0
-318 -418 -443 0
441 -100 -183 0
-188 -84 -147 0
-104 -111 199 0
101 -186 -363 0
232 -169 -464 0
-36 376 -61 0
338 -7 15 0
496 -489 -113 0
-351 142 -410 0
193 362 485 0
137 163 -119 0
-326 272 17 0
278 108 99 0
-478 -328 424 0
103 -87 -499 0
-282 -366 359 0
-339 -41 -361 0
197 245 -466 0
218 -453 -24 0
-217 404 259 0
-338 -384 -205 0
3 -449 283 0
-244 212 5 0
-215 259 -311 0
118 367 -226 0
-208 94 424 0
12 -7 -75 0
285 -219 249 0
30 -305 -153 0
-331 -406 396 0
464 -192 260 0
79 -232 -63 0
22 -456 -113 0
155 285 440 0
77 5 345 0
66 -404 87 0
232 346 -304 0
-157 -198 199 0
-90 295 214 0
-117 -313 400 0
-121 -322 -57 0
266 368 -315 0
-291 -221 181 0
120 69 -137 0
-465 165 330 0
-323 -325 -273 0
-136 354 485 0
-420 -103 249 0
-202 -122 322 0
-453 -52 87 0
-436 298 -40 0
-460 15 -288 0
-271 486 394 0
143 428 104 0
253 425 98 0
-25 -281 -381 0
95 -277 142 0
-439 -167 -152 0
287 313 261 0
284 271 13 0
-245 152 176 0
-430 -454 221 0
160 -78 -273 0
244 -262 -267 0
374 458 294 0
488 -200 -339 0
262 -4 225 0
-12 -479 435 0
282 137 -7 0
-240 -71 476 0
-219 368 52 0
-170 370 -397 0
140 -443 -45 0
286 -467 310 0
173 419 418 0
-403 120 -54 0
29 281 112 0
-122 354 -385 0
292 320 -94 0
-459 40 293 0
-421 -156 369 0
-168 -113 437 0
34 -312 427 0
-218 341 -101 0
148 198 -171 0
-241 -149 -336 0
465 -86 357 0
216 114 311 0
310 -125 -483 0
392 379 218 0
408 -90 -311 0
218 -163 -316 0
84 175 -465 0
62 392 144 0
-86 246 -55 0
466 -189 -2 0
-241 377 298 0
93 425 -142 0
397 -236 -391 0
123 220 -387 0
-267 23 -213 0
-374 169 164 0
-93 174 406 0
494 -350 -78 0
259 -390 -280 0
30 -445 143 0
-330 -65 -32 0
-271 171 322 0
14 121 -254 0
322 494 -491 0
-284 388 -131 0
-247 342 -163 0
177 324 25 0
13 -235 21 0
-63 368 180 0
362 -175 -106 0
-452 -385 255 0
359 -351 -473 0
244 -56 404 0
-347 -227 98 0
277 -313 205 0
-323 -106 -94 0
-363 -248 -8 0
181 -498 -81 0
-179 265 332 0
243 15 -495 0
214 370 -116 0
-108 50 -118 0
439 -474 338 0
59 79 445 0
141 -255 500 0
96 86 266 0
129 -44 -309 0
-212 77 402 0
136 482 277 0
293 -117 18 0
419 -360 -39 0
2 -125 146 0
192 -403 -37 0
60 415 461 0
-262 -140 -1 0
103 -305 -208 0
435 207 -67 0
-141 44 -450 0
-219 -181 -73 0
496 267 -134 0
234 -405 -408 0
48 -395 2 0
19 139 -403 0
-367 482 62 0
2 88 19 0
442 -119 -380 0
252 -386 -323 0
-234 207 -466 0
-124 -139 232 0
418 -286 -151 0
-362 -424 309 0
161 274 268 0
-441 309 -432 0
432 380 -498 0
-105 -377 -51 0
-452 -161 116 0
-92 190 -457 0
-444 320 241 0
255 -437 -296 0
324 146 87 0
58 253 393 0
-445 434 478 0
-409 -219 -419 0
409 -190 61 0
137 118 39 0
324 473 244 0
-186 -259 319 0
-81 399 -478 0
-452 -431 -8 0
465 124 -128 0
-96 -201 259 0
-79 -398 438 0
-253 409 141 0
-185 172 -210 0
-72 -465 -7 0
375 -345 134 0
-162 -161 -48 0
-206 -23 454 0
-63 110 -315 0
412 15 370 0
-48 -312 -376 0
159 -281 11 0
94 -132 62 0
-429 82 -106 0
98 -291 -225 0
14 -213 384 0
481 191 -32 0
-137 -278 -462 0
450 -266 150 0
410 121 478 0
437 -64 283 0
404 -256 21 0
313 -191 34 0
229 -379 -272 0
301 -424 -96 0
-490 207 35 0
111 395 -460 0
401 -110 -215 0
-284 143 219 0
193 302 118 0
481 165 480 0
286 -437 277 0
393 -97 -427 0
430 -51 -468 0
298 159 -403 0
-377 -484 115 0
94 -314 -6 0
468 392 68 0
-261 1 -82 0
146 -420 -65 0
440 341 -3 0
204 -311 172 0
-484 -22 -4 0
-434 131 -78 0
-306 277 479 0
482 -176 486 0
196 -39 342 0
439 270 -431 0
-253 -371 -292 0
11 261 -13 0
77 -429 461 0
407 206 329 0
107 342 -251 0
-163 131 -258 0
3 117 213 0
-103 -219 456 0
256 290 -268 0
398 -146 -492 0
428 224 320 0
364 -243 -299 0
500 257 152 0
-224 390 369 0
238 70 8 0
-500 -98 -432 0
324 189 -417 0
-344 28 -164 0
-36 -223 334 0
131 444 -57 0
-162 -202 31 0
-370 10 75 0
101 392 -220 0
-287 208 354 0
-81 -446 -76 0
-123 327 -222 0
481 236 -385 0
-222 -295 101 0
-208 34 -463 0
310 219 311 0
145 -66 -35 0
335 -37 -137 0
-52 -307 486 0
117 321 379 0
-397 187 -172 0
-73 -499 19 0
120 -47 -75 0
321 288 500 0
161 75 236 0
-156 -344 364 0
183 467 -69 0
-109 111 -279 0
5 113 41 0
28 -500 -56 0
-264 -471 -5 0
221 407 102 0
173 250 354 0
380 -45 -270 0
-196 372 256 0
194 200 -81 0
496 -118 -391 0
135 496 -268 0
-379 -152 109 0
232 369 -409 0
-301 -36 345 0
291 -197 110 0
-429 317 -53 0
411 -153 64 0
45 -420 -42 0
238 -52 -69 0
365 187 -20 0
102 -324 -490 0
296 361 -53 0
305 150 274 0
-396 -180 -32 0
-304 127 -145 0
-6 -289 -437 0
-136 263 450 0
235 494 113 0
492 163 -119 0
-147 -399 -467 0
271 -273 -296 0
79 -64 160 0
-219 431 410 0
-340 -367 297 0
178 484 -193 0
293 396 -319 0
129 -448 -235 0
375 285 -451 0
-163 -188 89 0
215 -185 68 0
-261 -36 213 0
246 -134 347 0
-166 209 207 0
271 -30 -360 0
-300 -182 -60 0
-362 -164 -7 0
-461 -64 192 0
383 -267 107 0
-25 -326 232 0
334 436 173 0
-406 478 4 0
481 224 -130 0
-432 -109 -139 0
179 -237 -271 0
98 -34 -272 0
-473 266 54 0
-468 139 259 0
467 169 365 0
-363 -47 167 0
383 103 -88 0
308 -307 166 0
155 -326 312 0
215 390 -292 0
