p cnf 500 1050
-58 223 -408 0
-252 52 -427 0
-446 -184 21 0
320 -420 261 0
-491 497 289 0
-485 246 -336 0
299 329 -400 0
185 310 178 0
-273 -29 -359 0
-156 -346 -318 0
-137 -226 26 0
272 -409 357 0
250 274 -254 0
236 21 142 0
-459 -392 195 0
349 2 40 0
-248 29 455 0
50 -244 -92 0
86 -233 158 0
-384 286 350 0
-452 -154 213 0
-387 61 230 0
-320 150 -174 0
177 -319 -393 0
408 144 445 0
-327 315 -277 0
-287 -299 -203 0
56 112 355 0
314 -407 398 0
234 -196 -33 0
190 -356 192 0
223 274 430 0
-200 -463 -110 0
-388 -152 242 0
46 -396 319 0
-446 343 -488 0
-50 26 -192 0
-335 -463 213 0
377 -279 110 0
-177 30 473 0
108 46 -133 0
205 278 -140 0
-79 -28 -347 0
-122 -228 -173 0
-373 274 352 0
98 -61 -286 0
-372 299 388 0
53 479 -154 0
-313 -400 -181 0
185 401 -304 0
32 -266 229 0
-284 -117 55 0
21 -180 -328 0
-296 -255 -89 0
-360 242 232 0
-488 267 -370 0
-472 130 51 0
-141 -9 406 0
141 -107 425 0
46 -45 54 0
-408 410 -17 0
458 481 -428 0
-100 -74 29 0
8 -107 -212 0
225 445 137 0
466 134 407 0
251 -106 -202 0
-202 -443 54 0
52 -356 346 0
-299 226 353 0
108 -242 158 0
84 -81 -20 0
79 -394 -490 0
-4 308 -268 0
337 -323 256 0
-121 393 -231 0
138 -445 -362 0
14 124 -381 0
-28 -62 -468 0
481 454 -126 0
55 372 333 0
343 -91 -394 0
-13 -49 73 0
-459 -494 307 0
109 -73 5 0
305 -14 356 0
5 298 364 0
-250 -498 -422 0
-123 98 -212 0
-369 288 43 0
-484 -237 239 0
-300 -436 248 0
-196 461 81 0
-311 189 -12 0
239 -148 300 0
397 -363 -290 0
-315 -267 -336 0
495 -175 325 0
24 27 281 0
-405 229 138 0
-128 -14 -8 0
-485 168 -129 0
281 20 311 0
-19 498 339 0
460 348 483 0
-341 4 -298 0
-180 -331 -171 0
2 350 -138 0
498 384 168 0
19 -5 -341 0
417 301 461 0
59 345 -388 0
-270 -396 -218 0
280 -346 110 0
-488 -131 7 0
-212 80 198 0
392 -42 283 0
316 111 232 0
139 355 48 0
-269 158 260 0
-373 -135 -324 0
-420 73 343 0
-121 -181 -35 0
-485 165 290 0
71 331 70 0
-196 -290 319 0
249 -414 431 0
97 217 98 0
483 -78 471 0
172 -430 194 0
-253 47 -97 0
85 141 -117 0
236 424 473 0
422 -205 -271 0
309 -375 -24 0
228 410 484 0
246 57 89 0
-117 316 478 0
179 452 -403 0
66 -26 -33 0
173 -152 -137 0
-281 -213 -79 0
347 -462 -45 0
-103 404 -8 0
-228 -33 7 0
-436 -129 -39 0
89 422 -168 0
-488 -297 -460 0
-139 -266 468 0
-228 423 166 0
-496 154 -397 0
-99 30 -424 0
32 -318 -121 0
-127 214 -27 0
-229 -464 462 0
80 195 -122 0
471 344 -67 0
353 -285 406 0
-318 396 -32 0
229 -449 -404 0
-149 415 439 0
-179 169 -491 0
-396 -422 -143 0
-373 -197 188 0
-178 -486 20 0
-245 -352 -428 0
148 173 -460 0
-243 -491 9 0
8 436 -17 0
214 21 -72 0
-297 -58 -288 0
109 296 198 0
-339 44 5 0
106 237 -76 0
18 142 116 0
-246 -311 474 0
-201 63 -233 0
366 263 114 0
-250 430 422 0
-305 490 180 0
402 491 490 0
-389 8 26 0
-360 -486 141 0
344 70 -229 0
449 75 -199 0
-126 -107 -182 0
-208 -119 -232 0
500 386 202 0
-497 -392 408 0
-135 -12 416 0
452 -159 429 0
-246 -485 307 0
-151 355 -67 0
410 26 -250 0
360 172 -288 0
-227 51 -392 0
-36 -124 212 0
319 -481 -284 0
-254 -473 106 0
62 461 -362 0
20 -140 498 0
56 -345 472 0
-48 -484 411 0
47 -52 333 0
-338 469 2 0
-22 -481 45 0
-52 216 203 0
329 81 -491 0
-6 499 235 0
-52 -444 372 0
-187 -123 -351 0
-125 322 -193 0
-58 -22 333 0
354 -41 -87 0
-201 -57 257 0
-350 -184 -313 0
-20 -332 19 0
173 -382 -84 0
33 -5 -344 0
460 191 -499 0
-216 490 -367 0
-152 37 14 0
-325 193 232 0
-432 263 -314 0
-83 230 -296 0
-197 283 -58 0
270 -111 479 0
491 498 -434 0
469 -315 -320 0
478 250 15 0
473 -296 -238 0
98 -319 181 0
-216 72 -322 0
211 -233 -452 0
312 -123 -356 0
-409 -15 398 0
-71 345 223 0
414 -462 258 0
-486 -1 269 0
196 23 200 0
-282 -309 24 0
430 446 -284 0
-330 -32 -399 0
-72 276 210 0
441 -136 256 0
424 234 280 0
-180 -220 276 0
-220 -212 -247 0
-456 -426 347 0
-391 -230 -50 0
408 87 403 0
-353 -204 454 0
140 -305 -240 0
81 329 -239 0
36 -166 -133 0
188 -158 -279 0
179 -41 251 0
491 -11 115 0
-14 75 275 0
-220 171 -131 0
265 263 -229 0
-272 275 -162 0
-472 369 256 0
-433 -160 201 0
-74 410 105 0
17 137 191 0
93 299 -192 0
-434 11 108 0
195 -250 -374 0
-230 -493 -447 0
-22 -348 411 0
-164 -239 421 0
253 -97 430 0
96 -340 -50 0
158 495 431 0
28 411 -144 0
289 -481 425 0
33 -173 -102 0
-76 -180 -268 0
461 -329 -276 0
216 485 14 0
-419 467 36 0
152 -263 -446 0
179 398 499 0
-451 318 251 0
130 -105 -67 0
168 47 -406 0
-20 -8 71 0
-325 -286 297 0
401 166 -227 0
-199 -390 -32 0
16 274 327 0
483 280 -314 0
483 -215 -487 0
85 -440 -454 0
410 -434 2 0
-305 -299 -422 0
-367 -211 -392 0
-125 -325 -159 0
-268 333 -422 0
-17 -388 -268 0
189 -143 486 0
199 192 -264 0
2 297 429 0
265 -47 378 0
-421 -208 196 0
53 -316 -495 0
-43 386 438 0
278 -203 289 0
-303 181 485 0
-79 -134 325 0
-250 241 -59 0
148 -347 274 0
292 -406 -440 0
108 492 -328 0
219 461 157 0
-316 -454 253 0
335 285 40 0
214 3 191 0
54 471 -377 0
-146 394 -257 0
-405 215 -375 0
-304 331 471 0
-231 -390 84 0
-401 34 -197 0
290 95 -299 0
42 338 386 0
-489 51 70 0
-477 -102 331 0
215 -428 -397 0
72 183 129 0
482 -500 75 0
-137 -264 211 0
-427 476 -292 0
-136 390 484 0
-331 -71 -28 0
439 50 -99 0
37 -342 -145 0
363 -25 -413 0
424 23 103 0
79 14 123 0
118 -274 19 0
339 98 -24 0
-231 -496 453 0
-355 256 216 0
-333 171 -336 0
-114 -102 -25 0
116 -398 133 0
-195 226 -171 0
252 -156 448 0
465 -456 209 0
-238 440 -463 0
15 -440 -255 0
456 353 -467 0
-286 264 69 0
-106 414 -69 0
-388 478 -39 0
-460 -169 124 0
84 327 42 0
-136 -390 -212 0
369 425 226 0
-238 336 17 0
468 -199 -54 0
-46 -393 424 0
-392 8 -184 0
208 287 482 0
-140 -380 315 0
-468 333 -466 0
-176 146 -13 0
-428 454 241 0
19 398 -155 0
-442 -403 295 0
-473 434 160 0
368 159 -298 0
-465 -63 174 0
-406 55 175 0
-64 -163 194 0
219 -455 -133 0
-494 -237 -401 0
283 254 192 0
211 -126 188 0
3 -135 91 0
-369 391 409 0
397 -499 -144 0
-204 458 -77 0
-360 341 112 0
134 296 413 0
-440 105 -377 0
389 264 -229 0
13 21 -56 0
313 -323 -466 0
-390 -388 -51 0
413 -56 151 0
-155 201 152 0
430 -331 -468 0
-26 72 -481 0
-366 275 160 0
333 146 201 0
-374 -14 190 0
294 -53 -258 0
396 219 -66 0
460 -168 -335 0
-222 -70 -154 0
357 -206 364 0
415 233 -494 0
-428 -221 -60 0
-379 -339 128 0
-279 393 166 0
-205 -297 286 0
-367 223 218 0
-57 -472 -16 0
49 -334 237 0
154 284 171 0
112 -445 231 0
65 83 42 0
-155 432 -472 0
175 -138 -296 0
92 -476 -15 0
229 -342 -176 0
-326 499 -230 0
-187 263 -278 0
-235 184 -178 0
22 38 353 0
-370 -288 -481 0
-298 321 -64 0
-110 252 -390 0
-386 -301 -246 0
-199 -2 -446 0
395 -244 -44 0
-310 327 176 0
65 281 -476 0
440 -433 -55 0
-387 268 37 0
-205 59 365 0
73 481 129 0
-235 352 106 0
130 -260 74 0
300 209 378 0
385 496 451 0
141 8 -79 0
-184 104 359 0
14 -411 98 0
-207 230 -449 0
-189 84 193 0
-108 60 368 0
260 -68 -219 0
-147 -351 116 0
-18 -395 231 0
153 -370 -252 0
-438 462 368 0
262 -400 -388 0
214 -130 -124 0
343 82 -490 0
389 261 340 0
-488 195 352 0
-96 325 -306 0
245 304 96 0
-278 -438 -321 0
404 273 89 0
-440 167 -419 0
-286 484 -329 0
443 424 -325 0
-270 111 -386 0
108 44 290 0
467 -47 -257 0
-132 -146 394 0
-448 -421 -247 0
-396 422 -139 0
-429 499 206 0
-207 -233 -246 0
-447 -150 -10 0
319 -74 469 0
-208 -242 499 0
-482 438 191 0
-462 297 -444 0
-249 58 147 0
455 -467 -102 0
-3 409 270 0
-433 124 310 0
-215 -425 -160 0
-306 -38 40 0
48 107 376 0
-404 -472 -499 0
193 -375 -290 0
239 -33 -138 0
-180 186 -350 0
-14 233 -170 0
92 355 131 0
-33 19 -308 0
233 280 -313 0
-487 -148 -109 0
357 289 492 0
-53 482 -201 0
-91 392 -23 0
280 52 -180 0
-407 -116 -188 0
-498 200 -96 0
80 -18 196 0
101 339 -117 0
406 -322 -17 0
456 206 -70 0
77 243 -441 0
419 -131 -213 0
-331 -230 -326 0
22 230 -206 0
436 151 427 0
-311 -131 -32 0
367 400 28 0
226 -27 372 0
-432 -178 483 0
-431 -473 494 0
-138 440 343 0
-216 343 57 0
-448 428 126 0
-403 -319 -67 0
276 -422 42 0
-54 111 -211 0
464 440 205 0
59 -160 272 0
-444 -193 333 0
397 84 289 0
-357 -197 119 0
-224 192 262 0
-347 -51 -461 0
-216 139 183 0
-352 -40 -282 0
-250 469 -200 0
-290 -295 -377 0
33 239 -441 0
417 -107 -288 0
352 71 -147 0
15 -411 -463 0
442 119 294 0
268 241 -443 0
298 448 103 0
-21 -296 67 0
-274 124 179 0
50 -245 298 0
372 241 203 0
-238 -483 -322 0
-126 -161 -407 0
81 298 -288 0
-351 170 -498 0
92 373 385 0
413 -250 -326 0
-368 6 264 0
240 -444 -30 0
-69 57 155 0
188 196 -91 0
-279 -110 365 0
-317 -71 -298 0
-431 -3 43 0
84 -254 156 0
97 -453 84 0
-242 -30 -3 0
-418 -176 -491 0
341 336 415 0
471 424 -146 0
432 -349 473 0
-59 -50 398 0
-260 196 187 0
392 315 -241 0
-260 268 282 0
-58 -320 -294 0
-347 287 379 0
-447 201 -476 0
-258 84 355 0
457 -164 297 0
426 -70 196 0
-358 -401 61 0
-34 281 -336 0
392 -86 -383 0
352 -207 160 0
362 -178 -223 0
-83 -270 488 0
-348 286 -296 0
-270 -206 337 0
372 -201 92 0
-26 236 192 0
-481 371 444 0
17 133 285 0
-347 324 10 0
-255 158 -343 0
153 9 -409 0
283 384 -245 0
-266 -428 -9 0
-316 38 179 0
43 220 92 0
-440 103 -310 0
204 -446 76 0
-320 -314 -147 0
303 156 90 0
-401 471 -414 0
357 222 245 0
-107 -415 -89 0
276 -306 455 0
471 -440 407 0
-458 229 399 0
94 260 -60 0
-246 236 284 0
-234 35 258 0
-293 224 83 0
-91 337 -17 0
-32 -178 478 0
420 -76 -266 0
101 -1 -344 0
491 234 18 0
-465 427 -178 0
-306 10 214 0
419 266 8 0
-182 310 214 0
-183 457 168 0
128 113 -489 0
-219 301 -147 0
-410 147 439 0
-265 86 -151 0
-46 -312 20 0
402 127 -497 0
-424 357 453 0
296 -51 -475 0
249 179 -450 0
-343 382 182 0
-296 -408 381 0
28 -385 443 0
-73 -30 151 0
-236 376 482 0
-26 228 -276 0
20 321 -205 0
387 383 -339 0
371 80 459 0
121 179 437 0
208 -431 201 0
302 76 -109 0
445 442 233 0
-332 229 219 0
324 418 451 0
-95 18 388 0
277 -332 -307 0
-109 -487 -318 0
157 428 266 0
486 221 -301 0
33 124 387 0
245 -155 -376 0
456 362 -170 0
36 169 -437 0
-319 174 472 0
145 -498 -139 0
11 -85 -152 0
59 420 -341 0
49 -40 226 0
-219 323 167 0
478 -404 2 0
-113 -37 -127 0
-26 -419 262 0
-105 436 -132 0
57 -90 -22 0
-197 14 -411 0
356 -203 -220 0
-34 196 441 0
401 -444 -266 0
380 367 353 0
68 83 221 0
471 481 119 0
210 123 251 0
76 449 -402 0
63 33 -385 0
304 -412 67 0
221 200 -291 0
-471 -406 -341 0
248 -396 151 0
392 -189 -453 0
130 -457 -330 0
-229 82 -270 0
335 -451 -132 0
50 -391 335 0
305 -500 -4 0
-229 -224 -272 0
-417 -396 -342 0
-489 18 433 0
-446 21 -208 0
301 295 -180 0
92 -474 148 0
137 67 -207 0
297 -117 80 0
-316 -134 446 0
-420 -254 -85 0
-265 339 293 0
-326 -238 -463 0
-210 -312 434 0
349 239 -340 0
196 2 -71 0
-18 29 343 0
175 126 349 0
287 -69 223 0
2 337 469 0
-16 -427 12 0
156 -357 -72 0
-486 -4 -294 0
-9 -495 73 0
453 399 -362 0
-121 -229 -231 0
142 216 344 0
-318 386 181 0
255 -174 -2 0
-96 -221 -108 0
423 -434 424 0
288 301 -359 0
426 10 -315 0
-272 280 -83 0
-369 -40 -487 0
238 139 -319 0
101 323 134 0
-276 255 -286 0
233 147 -386 0
-485 -207 499 0
-453 -329 449 0
331 -276 -191 0
308 107 -43 0
-470 234 155 0
332 205 -417 0
-390 -19 -374 0
-426 42 -364 0
184 -102 455 0
-19 -487 338 0
-90 -132 351 0
-14 -142 -150 0
368 324 312 0
28 371 -311 0
-136 170 -446 0
-446 -204 -22 0
-272 -306 102 0
169 285 92 0
90 153 43 0
-394 51 387 0
236 396 224 0
83 -491 -32 0
275 -175 12 0
439 115 -460 0
414 495 144 0
133 -483 -394 0
-84 444 195 0
24 -57 451 0
-89 -4 373 0
-49 433 248 0
-372 383 -25 0
83 -153 254 0
-160 32 -225 0
-477 60 -428 0
405 -269 439 0
-198 404 -244 0
395 341 -286 0
280 329 42 0
41 170 -416 0
396 -47 86 0
143 -380 421 0
-328 -43 -323 0
-120 -152 -393 0
-315 197 213 0
-141 1 -192 0
-248 431 308 0
-318 412 -66 0
-421 -156 -136 0
444 -221 -292 0
-261 -288 -161 0
82 -23 314 0
-469 -140 344 0
-389 95 75 0
368 212 326 0
492 -104 -72 0
2 257 399 0
231 -44 183 0
-322 -105 180 0
-131 -222 168 0
396 176 78 0
-99 -240 -387 0
106 453 75 0
16 124 -431 0
278 -346 -478 0
376 -465 22 0
113 67 -444 0
-228 421 484 0
-216 204 389 0
-366 115 367 0
-238 -168 -255 0
-56 171 406 0
492 178 109 0
-9 -249 444 0
-268 464 -302 0
-159 300 -393 0
-238 265 -96 0
-447 -287 -212 0
28 95 165 0
280 500 -465 0
-239 117 317 0
-266 -183 445 0
25 -270 -16 0
-387 243 -221 0
287 -310 -200 0
308 301 -196 0
427 110 -368 0
497 483 -314 0
123 -272 -484 0
-450 -143 420 0
-50 204 160 0
-339 -116 413 0
-409 -280 -287 0
-257 -26 477 0
-326 202 -27 0
-109 473 103 0
-488 386 12 0
-132 -400 423 0
-363 -160 -17 0
-60 -376 -194 0
333 138 271 0
51 -376 -30 0
362 -283 -164 0
-406 -369 -161 0
120 54 -490 0
-238 -490 -72 0
-225 -378 -348 0
-259 -93 385 0
70 50 245 0
205 -266 243 0
-299 -439 -266 0
-178 433 322 0
-33 19 -474 0
-310 14 -75 0
-428 491 122 0
339 -497 -410 0
-69 -125 -464 0
194 211 174 0
337 150 -399 0
119 315 -162 0
112 119 -48 0
-174 476 144 0
-408 -107 232 0
-299 431 343 0
90 -13 -161 0
-422 265 193 0
463 398 47 0
136 -30 250 0
500 351 440 0
-323 124 -295 0
278 267 450 0
-19 484 -95 0
-486 -440 426 0
443 445 -319 0
-67 -467 355 0
-347 -220 377 0
49 184 -415 0
445 400 -253 0
466 -415 -58 0
317 -474 -393 0
34 -114 425 0
270 12 310 0
-22 408 -495 0
413 -306 495 0
168 -362 -308 0
404 -96 272 0
-250 387 182 0
239 -138 358 0
104 -156 -214 0
496 -57 139 0
-442 -25 -147 0
-390 369 396 0
-344 168 -108 0
458 -479 -429 0
-365 138 221 0
-126 401 -151 0
362 -431 345 0
-173 307 -84 0
-166 -488 174 0
-322 169 131 0
-214 454 -195 0
-330 110 253 0
204 322 -415 0
94 -313 -118 0
-267 -100 -354 0
295 47 312 0
-223 460 -425 0
36 440 211 0
-102 -28 37 0
-412 294 89 0
-50 -300 218 0
-343 -64 -311 0
-75 -334 460 0
390 -311 328 0
-164 -82 -395 0
-190 -402 175 0
339 -128 -309 0
340 457 -22 0
-297 -227 341 0
453 -175 -135 0
365 233 321 0
-286 -391 -423 0
-118 497 -128 0
465 322 -162 0
331 386 489 0
308 -210 208 0
-206 207 -201 0
310 -223 331 0
-44 -233 361 0
-430 262 -134 0
-221 -26 127 0
-211 5 -320 0
365 -291 -347 0
-449 421 -83 0
495 -188 368 0
-497 -223 -375 0
-320 112 272 0
-175 347 140 0
387 412 382 0
95 210 156 0
-420 136 330 0
-105 -115 -373 0
369 -144 -444 0
-382 -12 -330 0
463 -429 -220 0
383 -18 -441 0
220 194 295 0
-477 -94 -228 0
-155 239 63 0
-134 -247 70 0
-269 12 50 0
-204 -477 482 0
-473 -42 -314 0
-154 -61 -93 0
417 171 204 0
392 -301 129 0
-1 -237 -500 0
66 256 496 0
-295 -337 -261 0
-142 442 36 0
311 242 -132 0
-316 -446 312 0
-239 486 156 0
-342 -134 137 0
-271 121 398 0
-456 -2 -134 0
-84 -86 -131 0
-21 367 487 0
-405 9 247 0
-17 -188 -258 0
345 158 -55 0
52 -486 -423 0
206 24 379 0
-103 387 -481 0
465 -370 441 0
-261 -316 101 0
154 -186 -278 0
78 -9 -59 0
87 -313 -24 0
-398 -369 11 0
-63 -489 -410 0
-48 242 262 0
306 -341 342 0
-298 283 -57 0
-100 -328 -464 0
201 -253 -72 0
211 -4 116 0
-411 -19 147 0
-330 325 485 0
145 344 381 0
-392 337 77 0
-344 -105 -56 0
5 90 -93 0
-412 178 16 0
340 73 207 0
-14 -21 -393 0
412 -129 438 0
386 -415 437 0
-250 478 -294 0
135 422 493 0
302 393 -239 0
-32 375 400 0
-361 57 427 0
165 -262 135 0
296 -143 106 0
-435 -146 60 0
-154 -140 74 0
20 467 -316 0
334 -404 393 0
-418 471 250 0
-188 124 249 0
-116 -32 26 0
482 -267 -450 0
-96 -38 -141 0
-319 -282 446 0
-285 -260 -95 0
285 -230 231 0
462 -141 281 0
462 -18 53 0
351 -226 416 0
-499 -30 -74 0
150 224 -216 0
-102 1 141 0
-447 339 349 0
105 325 187 0
216 -458 -343 0
382 -263 -452 0
-5 -172 304 0
-108 307 -145 0
-238 -360 -398 0
-432 15 234 0
98 471 -245 0
-355 132 -26 0
266 -401 397 0
-282 457 393 0
-26 315 -164 0
-46 -66 -488 0
-171 -469 -276 0
-94 207 1 0
50 -253 -324 0
312 -14 35 0
-286 -328 84 0
199 -379 453 0
-491 384 422 0
249 -465 -149 0
-279 -357 -33 0
-349 -303 266 0
156 161 -81 0
-336 255 -137 0
353 335 407 0
-285 -28 198 0
291 240 -153 0
427 -399 -90 0
141 -274 204 0
-278 -222 -472 0
-47 -92 -315 0
442 135 -50 0
-311 274 390 0
61 250 -424 0
-483 -197 -88 0
377 315 -405 0
100 248 227 0
360 -478 72 0
-14 104 -81 0
-182 296 -210 0
325 -272 -331 0
47 -36 51 0
448 51 285 0
-407 87 103 0
-136 363 420 0
435 -408 -58 0
-67 -315 85 0
-382 402 80 0
-126 310 281 0
71 -273 -253 0
-206 -436 281 0
455 210 -258 0
